CRYSTAL
PRIMVEC
    78.8359672625805530    0.0000000000000000    0.0000000000000000
     0.0000000000000000   78.6050537760459349    0.0000000000000000
     0.0000000000000000    0.0000000000000000   31.1845303470032320
PRIMCOORD
  400    1
   13          1.21542000          1.18301000          9.66732000    0.2299    0.2715   -0.0845
   13          5.05218000          1.25454000          9.51799000    0.1116    0.3033   -0.2219
   13          9.02552000          1.26461000          9.55715000    0.1372    0.2714   -0.1159
   13         12.99830000          1.21783000          9.49407000    0.1676    0.1954   -0.1301
   13         17.02170000          1.14074000          9.46063000    0.2425    0.0966   -0.1076
   13         20.86730000          1.18750000          9.39605000    0.1071    0.0756   -0.1682
   13         24.94500000          1.32686000          9.30211000    0.2205    0.1328   -0.2299
   13         28.89250000          1.38542000          9.30847000    0.2513   -0.0416   -0.0131
   13         32.86800000          1.45567000          9.25116000    0.2958   -0.1345    0.1378
   13         36.64300000          1.35979000          9.26081000    0.1327   -0.1839    0.1420
   13         40.61250000          1.31046000          9.33190000    0.1730   -0.1898    0.2086
   13         44.61350000          1.26873000          9.26724000    0.2038   -0.1999    0.1583
   13         48.64210000          1.33052000          9.43335000    0.2818   -0.1513    0.2524
   13         52.40340000          1.32687000          9.46754000    0.1137   -0.1210    0.2511
   13         56.44490000          1.07917000          9.37464000    0.2218   -0.2366    0.1909
   13         60.24270000          0.93002200          9.49084000    0.0742   -0.2506    0.2322
   13         64.32050000          1.05643000          9.54233000    0.2213   -0.0674    0.1983
   13         68.14660000          0.87772200          9.54926000    0.1758   -0.0522    0.0316
   13         71.99460000          1.00170000          9.48946000    0.1282    0.2157   -0.2022
   13         76.15320000          1.04765000          9.60160000    0.3187    0.1902   -0.0902
   13          1.19454000          5.08154000          9.67582000    0.2308    0.2357   -0.0834
   13          5.08350000          5.15024000          9.53226000    0.1442    0.2979   -0.1761
   13          9.09950000          5.04028000          9.40737000    0.1956    0.1857   -0.2232
   13         13.02200000          5.03606000          9.45343000    0.1517    0.1470   -0.1486
   13         17.01940000          5.14011000          9.35856000    0.2167    0.2137   -0.2172
   13         21.05780000          5.14939000          9.31199000    0.3364    0.1341   -0.1993
   13         24.79900000          5.19866000          9.21702000    0.1218    0.1050   -0.2280
   13         28.88080000          5.38521000          9.14693000    0.2512    0.0492   -0.1062
   13         32.84900000          5.27133000          9.20973000    0.2516   -0.2866    0.1592
   13         36.73670000          5.24426000          9.16494000    0.1903   -0.2969    0.1398
   13         40.57350000          5.15170000          9.24098000    0.1245   -0.3262    0.1699
   13         44.61380000          5.33387000          9.30689000    0.2340   -0.1106    0.1977
   13         48.31840000          5.20365000          9.37144000   -0.0076   -0.2335    0.2198
   13         52.56650000          5.16896000          9.34216000    0.2659   -0.1951    0.1241
   13         56.33260000          5.06319000          9.37799000    0.0759   -0.2078    0.1789
   13         60.45900000          5.10233000          9.44085000    0.3104   -0.1242    0.2025
   13         64.24360000          5.11961000          9.48240000    0.1797   -0.0633    0.1122
   13         68.16770000          4.90798000          9.62795000    0.2000   -0.0502    0.0523
   13         72.03070000          4.90878000          9.48931000    0.1956    0.1487   -0.1897
   13         76.00090000          4.97972000          9.54203000    0.2109    0.1994   -0.1489
   13          1.23039000          8.99348000          9.44508000    0.1966    0.2756   -0.2331
   13          5.23706000          8.98359000          9.53776000    0.2622    0.2328   -0.1204
   13          9.07832000          8.93791000          9.52158000    0.1840    0.1735   -0.0958
   13         12.99290000          8.98215000          9.41207000    0.1746    0.1686   -0.1844
   13         16.97790000          9.06927000          9.42705000    0.2283    0.2028   -0.1599
   13         20.92300000          9.03605000          9.31202000    0.2385    0.0691   -0.1815
   13         24.75900000          9.06385000          9.28947000    0.1365    0.0306   -0.1107
   13         28.72040000          9.17849000          9.16207000    0.1400   -0.0641   -0.0637
   13         32.79900000          9.26314000          9.23213000    0.2392   -0.1957    0.2045
   13         36.81120000          9.24785000          9.28801000    0.2894   -0.2414    0.2759
   13         40.72200000          9.21820000          9.26903000    0.2692   -0.2425    0.2250
   13         44.47210000          9.29905000          9.26802000    0.0697   -0.1012    0.2000
   13         48.53270000          9.08884000          9.27068000    0.1839   -0.2496    0.1632
   13         52.47950000          9.00642000          9.39366000    0.1870   -0.2590    0.2423
   13         56.34320000          9.10109000          9.26434000    0.1341   -0.1194    0.0976
   13         60.25470000          9.02766000          9.43723000    0.1233   -0.2078    0.2383
   13         64.29770000          8.94516000          9.45764000    0.2217   -0.2527    0.1821
   13         68.07380000          8.74901000          9.63379000    0.0921   -0.1348    0.1157
   13         72.22070000          8.92611000          9.55661000    0.3236    0.2671   -0.1008
   13         76.06360000          8.99141000          9.46338000    0.1898    0.3221   -0.1757
   13          1.22031000         12.88710000          9.45797000    0.1506    0.2572   -0.1698
   13          5.06636000         12.92850000          9.35165000    0.0849    0.2208   -0.2499
   13          9.06776000         12.83640000          9.46524000    0.1814    0.0907   -0.1158
   13         12.94730000         13.03880000          9.40680000    0.1656    0.2440   -0.1677
   13         16.84750000         13.09500000          9.31571000    0.1529    0.2337   -0.2166
   13         20.88240000         13.12940000          9.27723000    0.2379    0.2219   -0.1804
   13         24.77220000         13.02830000          9.23473000    0.2176    0.0719   -0.1582
   13         28.78860000         13.22770000          9.17667000    0.3000    0.0487   -0.0367
   13         32.80510000         13.16310000          9.25082000    0.3230   -0.2194    0.2665
   13         36.68760000         13.30320000          9.21689000    0.2231   -0.1056    0.2693
   13         40.67590000         13.13700000          9.16160000    0.2219   -0.2452    0.1741
   13         44.59530000         12.99920000          9.28234000    0.1716   -0.2999    0.2570
   13         48.47870000         13.10240000          9.24089000    0.1099   -0.1414    0.1269
   13         52.55840000         12.96960000          9.36448000    0.2473   -0.2373    0.2122
   13         56.48230000         12.95400000          9.29002000    0.2529   -0.2418    0.1715
   13         60.39590000         12.89810000          9.42459000    0.2149   -0.2544    0.2981
   13         64.33430000         12.94190000          9.42733000    0.2221   -0.1263    0.2158
   13         68.20250000         12.82580000          9.44382000    0.1791    0.0303   -0.0224
   13         72.20730000         12.74990000          9.50800000    0.2124    0.1940   -0.1300
   13         76.23840000         12.72020000          9.47210000    0.2737    0.1503   -0.1510
   13          1.10159000         16.79450000          9.37319000    0.1058    0.1908   -0.2518
   13          5.14601000         16.88940000          9.39303000    0.2143    0.2549   -0.1741
   13          9.05945000         16.87780000          9.36667000    0.2027    0.2105   -0.1784
   13         12.85190000         16.98660000          9.31475000    0.1088    0.2360   -0.2106
   13         16.88860000         17.00230000          9.26253000    0.1929    0.1806   -0.2090
   13         20.92290000         16.99710000          9.33753000    0.2745    0.1577   -0.0898
   13         24.80690000         17.11120000          9.07799000    0.2981    0.2261   -0.2469
   13         28.66560000         17.04240000          9.14773000    0.2424   -0.0678    0.0227
   13         32.64550000         17.21080000          9.17270000    0.2279   -0.1077    0.2225
   13         36.67680000         17.04160000          9.11735000    0.2361   -0.2503    0.2013
   13         40.68990000         17.00640000          9.15780000    0.2404   -0.2174    0.1920
   13         44.51230000         16.95640000          9.07934000    0.1268   -0.2096    0.0884
   13         48.49280000         16.88950000          9.29196000    0.1792   -0.2085    0.2160
   13         52.45160000         16.81790000          9.30653000    0.1629   -0.2599    0.1319
   13         56.54690000         16.90700000          9.24632000    0.2612   -0.1971    0.1197
   13         60.44090000         16.82650000          9.37234000    0.1965   -0.2238    0.2618
   13         64.32220000         16.68530000          9.41939000    0.1551   -0.2345    0.2072
   13         68.22600000         16.63380000          9.44047000    0.1379   -0.0560   -0.0139
   13         72.24120000         16.52090000          9.47703000    0.2330    0.0270   -0.1392
   13         76.11970000         16.62730000          9.43819000    0.1967    0.1018   -0.1840
   13          1.12852000         20.70520000          9.36279000    0.1415    0.1682   -0.2256
   13          5.14943000         20.70280000          9.29986000    0.2295    0.1608   -0.2273
   13          9.11857000         20.78840000          9.29839000    0.2734    0.2196   -0.1938
   13         13.01300000         20.77980000          9.21829000    0.2717    0.1022   -0.2307
   13         16.81360000         20.84610000          9.31574000    0.0931    0.1114   -0.1076
   13         20.80900000         20.95800000          9.17591000    0.1305    0.2126   -0.2033
   13         24.78930000         21.00000000          9.09543000    0.2459    0.1681   -0.1674
   13         28.59500000         20.98020000          9.11746000    0.1578   -0.0868    0.0419
   13         32.50680000         21.00920000          9.09774000    0.1038   -0.1786    0.1731
   13         36.68830000         20.95240000          9.14861000    0.2480   -0.1654    0.2157
   13         40.64600000         20.88860000          9.14737000    0.1996   -0.1859    0.1666
   13         44.58510000         20.84060000          9.13524000    0.2054   -0.2016    0.1478
   13         48.38180000         20.70270000          9.24986000    0.1016   -0.2707    0.2131
   13         52.48420000         20.77020000          9.28444000    0.2635   -0.1717    0.1975
   13         56.43010000         20.71600000          9.24437000    0.1883   -0.2283    0.1673
   13         60.44510000         20.75950000          9.24717000    0.2371   -0.1676    0.1422
   13         64.31370000         20.82910000          9.41958000    0.1691   -0.0049    0.2682
   13         68.16280000         20.72510000          9.34027000    0.0807    0.1245   -0.0366
   13         72.20620000         20.67280000          9.47690000    0.1972    0.2164   -0.1036
   13         76.13140000         20.76490000          9.47646000    0.2003    0.2836   -0.1214
   13          1.24483000         24.71160000          9.23805000    0.1655    0.2556   -0.2984
   13          5.21391000         24.57270000          9.32635000    0.2073    0.1218   -0.1684
   13          9.05955000         24.60390000          9.30461000    0.1562    0.0717   -0.1295
   13         12.82980000         24.68100000          9.14777000    0.0522    0.0741   -0.2282
   13         16.93810000         24.73880000          9.12942000    0.2377    0.1320   -0.2083
   13         20.90920000         24.89430000          9.09027000    0.3009    0.2355   -0.2120
   13         24.63270000         24.93720000          9.09495000    0.1112    0.1660   -0.1906
   13         28.71170000         25.00410000          9.04364000    0.2439   -0.0170   -0.0512
   13         32.73730000         24.83490000          8.96932000    0.2771   -0.2800    0.0836
   13         36.68190000         24.75410000          9.01456000    0.2383   -0.2672    0.1106
   13         40.55520000         24.78300000          9.09252000    0.1691   -0.1964    0.1559
   13         44.69360000         24.70490000          9.06382000    0.3563   -0.2455    0.1114
   13         48.45930000         24.71340000          9.17754000    0.1903   -0.2044    0.1622
   13         52.34310000         24.60850000          9.06740000    0.1008   -0.2343    0.0833
   13         56.48470000         24.66280000          9.26035000    0.2540   -0.1368    0.3022
   13         60.23500000         24.65320000          9.19863000    0.0749   -0.1359    0.1583
   13         64.33840000         24.69870000          9.28868000    0.2067   -0.0410    0.2079
   13         68.30850000         24.66560000          9.30106000    0.1920    0.1427   -0.0152
   13         72.27860000         24.61630000          9.37268000    0.1946    0.2546   -0.1784
   13         76.19550000         24.71390000          9.32538000    0.1713    0.2990   -0.2313
   13          1.24594000         28.44440000          9.29392000    0.1556    0.0408   -0.1417
   13          5.21678000         28.60300000          9.34306000    0.1761    0.2251   -0.0812
   13          9.04250000         28.69350000          9.17356000    0.0813    0.2064   -0.2142
   13         12.92770000         28.67350000          9.03880000    0.0871    0.1379   -0.2567
   13         16.90380000         28.76710000          9.13034000    0.1906    0.2514   -0.1354
   13         20.85700000         28.88730000          9.14667000    0.3014    0.2622   -0.1313
   13         24.68790000         28.80820000          9.03869000    0.2353    0.0768   -0.2432
   13         28.68020000         28.93590000          9.03669000    0.2822   -0.0278   -0.0974
   13         32.65790000         28.86040000          9.00987000    0.2227   -0.2253    0.0400
   13         36.71370000         28.79330000          9.06539000    0.2913   -0.1821    0.1217
   13         40.58140000         28.81870000          9.08904000    0.2281   -0.0977    0.1800
   13         44.61990000         28.65190000          9.11016000    0.2950   -0.2243    0.1827
   13         48.49120000         28.68590000          9.13237000    0.2136   -0.1689    0.1633
   13         52.42880000         28.60110000          9.02555000    0.2032   -0.1892    0.0838
   13         56.42380000         28.64460000          9.11165000    0.2610   -0.0995    0.1662
   13         60.35460000         28.63860000          9.27004000    0.1879   -0.0892    0.2660
   13         64.46950000         28.43440000          9.25552000    0.3160   -0.2036    0.1739
   13         68.31700000         28.40070000          9.16556000    0.2248   -0.0092   -0.1059
   13         72.26990000         28.32540000          9.28732000    0.2244    0.0650   -0.1799
   13         76.21990000         28.68030000          9.28357000    0.2232    0.3249   -0.2094
   13          1.27921000         32.47970000          9.24683000    0.2067    0.1114   -0.0795
   13          5.22997000         32.43300000          9.31162000    0.2422    0.0632   -0.0277
   13          9.06609000         32.60600000          9.16638000    0.1679    0.2003   -0.1551
   13         12.93180000         32.79170000          9.17284000    0.0840    0.3566   -0.0857
   13         16.89050000         32.72090000          9.09613000    0.1660    0.2277   -0.1770
   13         20.71480000         32.74340000          9.03334000    0.1461    0.1314   -0.2642
   13         24.65970000         32.75920000          9.11157000    0.2134    0.0435   -0.1548
   13         28.56310000         32.83210000          9.14408000    0.1741   -0.1049   -0.0609
   13         32.55760000         32.75050000          9.17185000    0.1560   -0.2589    0.0180
   13         36.60530000         32.73290000          9.14706000    0.2163   -0.1883    0.0457
   13         40.57110000         32.63880000          9.02174000    0.2362   -0.2276    0.0057
   13         44.57160000         32.52610000          9.07921000    0.3062   -0.2943    0.0343
   13         48.47790000         32.58510000          9.09507000    0.2669   -0.2396    0.0263
   13         52.48640000         32.59370000          9.09518000    0.3378   -0.2061    0.0713
   13         56.26530000         32.47840000          9.11738000    0.2006   -0.2411    0.0890
   13         60.42120000         32.47980000          9.06581000    0.3214   -0.1563    0.0582
   13         64.43240000         32.45050000          9.19331000    0.2862   -0.0909    0.1797
   13         68.21290000         32.44670000          9.34928000    0.1414    0.1294    0.1940
   13         72.22140000         32.45540000          9.32139000    0.2446    0.2573   -0.0082
   13         76.13940000         32.47430000          9.19520000    0.2122    0.1808   -0.1691
   13          1.35694000         36.58170000          9.24375000    0.2893    0.2271    0.0902
   13          5.26673000         36.63740000          9.14747000    0.2745    0.2431   -0.0420
   13          9.07456000         36.58820000          9.26031000    0.1802    0.1863    0.0949
   13         12.99210000         36.58620000          9.18442000    0.1789    0.1727    0.0452
   13         16.76590000         36.74390000          9.14239000    0.0671    0.2993   -0.0304
   13         20.75070000         36.74540000          9.15345000    0.1624    0.1885   -0.1114
   13         24.66160000         36.64940000          9.12112000    0.1965   -0.0519   -0.1622
   13         28.55690000         36.71080000          9.12296000    0.1126   -0.1141   -0.1704
   13         32.72660000         36.66630000          9.25205000    0.2508   -0.2166   -0.0456
   13         36.64410000         36.65450000          9.20675000    0.2091   -0.2312   -0.0651
   13         40.51310000         36.65940000          9.03364000    0.1842   -0.1619   -0.1922
   13         44.39550000         36.78510000          9.13956000    0.1515    0.0002   -0.0965
   13         48.41330000         36.50670000          9.07673000    0.2600   -0.2824   -0.1887
   13         52.30020000         36.56290000          9.08858000    0.2052   -0.1814   -0.1253
   13         56.37880000         36.36390000          9.04483000    0.3339   -0.3001   -0.1156
   13         60.10290000         36.36780000          9.01521000    0.0702   -0.1272   -0.0003
   13         64.31310000         36.39500000          9.16126000    0.1982    0.0101    0.2387
   13         68.24250000         36.34920000          9.13274000    0.1473    0.1131    0.0939
   13         72.24670000         36.35440000          9.21947000    0.2680    0.1890    0.0783
   13         76.14520000         36.47970000          9.09695000    0.2448    0.2052   -0.0282
   13          1.45093000         40.49500000          9.15695000    0.3826    0.2075    0.1261
   13          5.23097000         40.59950000          9.17263000    0.2135    0.2438    0.1260
   13          9.10696000         40.63130000          9.22686000    0.1676    0.2277    0.1859
   13         12.89820000         40.70980000          9.29526000    0.0842    0.2690    0.2421
   13         16.83140000         40.60090000          9.23213000    0.1276    0.2061    0.1533
   13         20.83990000         40.62350000          9.21025000    0.2143    0.1206   -0.0215
   13         24.78140000         40.44290000          9.13496000    0.2528   -0.2966   -0.2115
   13         28.54640000         40.54550000          9.31504000    0.0691   -0.2211   -0.0441
   13         32.69010000         40.55030000          9.15661000    0.2508   -0.1949   -0.1635
   13         36.62160000         40.77570000          9.13685000    0.2173   -0.0143   -0.1560
   13         40.70240000         40.59270000          9.14433000    0.3025   -0.2028   -0.1493
   13         44.50370000         40.53470000          9.23424000    0.1490   -0.1887   -0.0919
   13         48.44140000         40.54810000          9.19884000    0.2207   -0.1468   -0.1535
   13         52.22650000         40.47400000          9.11170000    0.0958   -0.1653   -0.1978
   13         56.32170000         40.47020000          9.13440000    0.2560   -0.0987   -0.1170
   13         60.30270000         40.31430000          9.09386000    0.2397   -0.0620    0.0258
   13         64.38330000         40.27050000          9.11483000    0.2316    0.0945    0.1706
   13         68.40210000         40.27020000          9.13101000    0.2750    0.1233    0.1252
   13         72.14420000         40.30220000          9.13226000    0.1476    0.1563    0.0947
   13         76.06430000         40.36450000          9.12333000    0.1464    0.1546    0.1199
   13          1.32663000         44.32720000          9.18230000    0.2531    0.1439    0.1367
   13          5.15653000         44.48860000          9.15575000    0.1395    0.2023    0.1280
   13          9.08526000         44.59110000          9.31485000    0.1398    0.2243    0.2460
   13         13.01240000         44.61840000          9.33198000    0.1409    0.2358    0.1904
   13         17.01750000         44.35950000          9.33191000    0.2829   -0.0180    0.1865
   13         20.86210000         44.64590000          9.21926000    0.2540    0.0725   -0.0804
   13         24.64740000         44.59970000          9.16767000    0.0846   -0.2228   -0.2579
   13         28.69730000         44.48190000          9.21180000    0.2017   -0.3091   -0.1929
   13         32.59880000         44.44220000          9.17315000    0.2456   -0.2243   -0.1949
   13         36.52890000         44.57930000          9.18040000    0.2364   -0.0907   -0.1423
   13         40.67030000         44.40940000          9.11454000    0.3007   -0.2949   -0.2098
   13         44.62420000         44.49900000          9.16569000    0.2765   -0.1496   -0.2114
   13         48.28610000         44.39220000          9.17963000    0.0393   -0.2278   -0.1890
   13         52.35700000         44.33770000          9.12753000    0.1960   -0.2076   -0.1672
   13         56.26180000         44.34560000          9.05662000    0.1617   -0.1042   -0.2029
   13         60.38210000         44.20080000          9.08140000    0.2685   -0.0471   -0.0299
   13         64.28790000         44.21710000          9.17803000    0.1289    0.1932    0.2039
   13         68.30480000         44.26120000          9.23278000    0.1700    0.2197    0.2215
   13         72.21240000         44.32750000          9.17914000    0.1790    0.2611    0.1595
   13         76.07650000         44.27590000          9.20904000    0.1218    0.1816    0.1999
   13          1.12465000         48.36950000          9.18498000    0.1513    0.2421    0.0644
   13          5.09462000         48.49470000          9.28591000    0.1415    0.2883    0.1830
   13          9.24036000         48.53040000          9.35534000    0.2909    0.2328    0.2295
   13         12.99320000         48.50340000          9.29432000    0.0995    0.1656    0.1182
   13         16.96850000         48.67700000          9.29437000    0.2123    0.3069    0.1164
   13         20.77020000         48.58790000          9.37086000    0.1342   -0.0439    0.0344
   13         24.76100000         48.59220000          9.22664000    0.1527   -0.2446   -0.2865
   13         28.72020000         48.49960000          9.37020000    0.1762   -0.2734   -0.1178
   13         32.51880000         48.48980000          9.29444000    0.1115   -0.1633   -0.1332
   13         36.51080000         48.43090000          9.31236000    0.1651   -0.1482   -0.0839
   13         40.59170000         48.32030000          9.25848000    0.2483   -0.2109   -0.1678
   13         44.67800000         48.31180000          9.29947000    0.3480   -0.2219   -0.1397
   13         48.56470000         48.38550000          9.25190000    0.2969   -0.1634   -0.1383
   13         52.44650000         48.23340000          9.15801000    0.2390   -0.2372   -0.1840
   13         56.23650000         48.12400000          9.09364000    0.0578   -0.2453   -0.2516
   13         60.32890000         48.08050000          9.20191000    0.1667   -0.0472    0.0696
   13         64.30580000         48.01660000          9.10125000    0.1695    0.0927    0.1576
   13         68.22230000         48.05750000          9.20149000    0.1641    0.1199    0.1969
   13         72.19470000         48.16560000          9.18047000    0.2193    0.1790    0.1820
   13         76.14720000         48.12270000          9.21392000    0.2635    0.0755    0.1630
   13          1.02866000         52.32290000          9.30030000    0.1147    0.2602    0.1137
   13          5.04813000         52.30530000          9.39089000    0.1343    0.2140    0.1888
   13          9.08317000         52.44240000          9.31475000    0.1675    0.2577    0.1296
   13         13.05920000         52.45410000          9.42941000    0.1945    0.1727    0.2163
   13         17.10970000         52.49830000          9.38571000    0.3191    0.1429    0.1269
   13         20.88770000         52.71210000          9.36534000    0.1714    0.1173   -0.0365
   13         24.90290000         52.51020000          9.44258000    0.2567   -0.2441   -0.1366
   13         28.82230000         52.49500000          9.35911000    0.2330   -0.2224   -0.1941
   13         32.69310000         52.36130000          9.25896000    0.2217   -0.2621   -0.2013
   13         36.53990000         52.25760000          9.22059000    0.1639   -0.2276   -0.2297
   13         40.60420000         52.35300000          9.26306000    0.2535   -0.0810   -0.2185
   13         44.55680000         52.23110000          9.29568000    0.2004   -0.2296   -0.2005
   13         48.51540000         52.15510000          9.32976000    0.1936   -0.3069   -0.1249
   13         52.48190000         52.07390000          9.29729000    0.1937   -0.3158   -0.1150
   13         56.49450000         52.11940000          9.32889000    0.2809   -0.1999   -0.1134
   13         60.25190000         52.06740000          9.38334000    0.1239    0.0142    0.1547
   13         64.22430000         52.04180000          9.12846000    0.1233    0.2152    0.1171
   13         68.27450000         52.00990000          9.28921000    0.2641    0.1326    0.2427
   13         72.10730000         52.25600000          9.32451000    0.2121    0.3000    0.2832
   13         76.00720000         52.30690000          9.36612000    0.2120    0.2797    0.2690
   13          0.88927600         56.01030000          9.34484000   -0.0123    0.0586    0.1550
   13          5.08307000         56.32390000          9.43610000    0.1935    0.3221    0.2195
   13          8.96710000         56.38650000          9.47553000    0.1128    0.2790    0.2333
   13         13.07790000         56.41610000          9.56691000    0.2498    0.2176    0.2703
   13         17.14270000         56.54030000          9.46146000    0.3267    0.2380    0.1281
   13         20.88360000         56.36370000          9.51599000    0.1503   -0.1485    0.0181
   13         24.84830000         56.51890000          9.49113000    0.2000   -0.1375   -0.1507
   13         28.85830000         56.41480000          9.45206000    0.2524   -0.2238   -0.1348
   13         32.66940000         56.31640000          9.22094000    0.1440   -0.2357   -0.2730
   13         36.61320000         56.21330000          9.41606000    0.2326   -0.1916   -0.0686
   13         40.42270000         56.11000000          9.33817000    0.1051   -0.2579   -0.1716
   13         44.47270000         56.18440000          9.37447000    0.1407   -0.2171   -0.1636
   13         48.48200000         56.18090000          9.30726000    0.1782   -0.1631   -0.2227
   13         52.44220000         56.10650000          9.29918000    0.1885   -0.1619   -0.1475
   13         56.41840000         56.10620000          9.28160000    0.2371   -0.1536   -0.1540
   13         60.21390000         56.01030000          9.29881000    0.0913    0.0087    0.0121
   13         64.23550000         55.87750000          9.28116000    0.1739    0.1219    0.1601
   13         68.22700000         56.00200000          9.40333000    0.2380    0.1854    0.2613
   13         72.11390000         56.09830000          9.28520000    0.2066    0.2012    0.1717
   13         75.98840000         56.05260000          9.20687000    0.1881    0.1023    0.0919
   13          0.97853800         60.06080000          9.48591000    0.1550    0.1983    0.2373
   13          5.05346000         60.13110000          9.37526000    0.2216    0.1957    0.1541
   13          9.12917000         60.18650000          9.45425000    0.2874    0.1585    0.1915
   13         12.97810000         60.23460000          9.60185000    0.1833    0.1339    0.2486
   13         17.03450000         60.41630000          9.50866000    0.2390    0.2000    0.1560
   13         21.02030000         60.55290000          9.52657000    0.2541    0.1482    0.0382
   13         24.83730000         60.40750000          9.47424000    0.1303   -0.1555   -0.1686
   13         28.86200000         60.29930000          9.45506000    0.2144   -0.2488   -0.1540
   13         32.72240000         60.23690000          9.32811000    0.1406   -0.2324   -0.2217
   13         36.60410000         60.23890000          9.42373000    0.1292   -0.1257   -0.0996
   13         40.49790000         59.99040000          9.36508000    0.1216   -0.2992   -0.1710
   13         44.51790000         60.05230000          9.40363000    0.1855   -0.2307   -0.1355
   13         48.53930000         60.05250000          9.46067000    0.2542   -0.2013   -0.0800
   13         52.43300000         59.92430000          9.43760000    0.2065   -0.2880   -0.0424
   13         56.48090000         59.97960000          9.28056000    0.3094   -0.2264   -0.1592
   13         60.25570000         59.84790000          9.33698000    0.1437   -0.1198    0.0324
   13         64.15590000         59.86390000          9.25771000    0.1548    0.1364    0.1422
   13         68.03820000         59.89520000          9.43663000    0.1372    0.1622    0.3010
   13         71.99680000         60.03090000          9.39126000    0.1287    0.2523    0.2430
   13         76.00800000         59.98930000          9.42561000    0.2256    0.1443    0.2433
   13          1.03416000         63.93750000          9.46527000    0.1840    0.1712    0.1307
   13          5.00177000         63.87100000          9.49554000    0.1622    0.0605    0.2198
   13          9.14480000         64.09540000          9.47244000    0.2827    0.2163    0.1551
   13         13.01480000         64.21850000          9.60473000    0.2230    0.2260    0.2207
   13         16.94840000         64.32260000          9.55579000    0.2160    0.2003    0.1442
   13         20.91170000         64.31410000          9.38132000    0.1550    0.0490   -0.1273
   13         24.93790000         64.26650000          9.42885000    0.1825   -0.1048   -0.1931
   13         28.85750000         64.27690000          9.38409000    0.1346   -0.1306   -0.2177
   13         32.84670000         64.25220000          9.35107000    0.1824   -0.1576   -0.2331
   13         36.75660000         64.10900000          9.39595000    0.1757   -0.2354   -0.1809
   13         40.55970000         64.19290000          9.42202000    0.0672   -0.0978   -0.1370
   13         44.54480000         64.05240000          9.45435000    0.1710   -0.1979   -0.0994
   13         48.57090000         64.01030000          9.39878000    0.2681   -0.1940   -0.1378
   13         52.38420000         63.99240000          9.41295000    0.1433   -0.2115   -0.1124
   13         56.34050000         64.05670000          9.36108000    0.1829   -0.1450   -0.1569
   13         60.21990000         63.97990000          9.39631000    0.1422    0.0240    0.0032
   13         64.13390000         63.92340000          9.35868000    0.1827    0.1924    0.1488
   13         68.04890000         63.97960000          9.33655000    0.1913    0.2699    0.1698
   13         72.01230000         63.96500000          9.43310000    0.1892    0.2387    0.2112
   13         75.94130000         64.06790000          9.48958000    0.1736    0.3050    0.1608
   13          1.11702000         67.83660000          9.47341000    0.2191    0.1703    0.0598
   13          5.11534000         67.79380000          9.59394000    0.3189    0.0797    0.1717
   13          8.98710000         67.89140000          9.61762000    0.2260    0.1357    0.1242
   13         12.95040000         68.09900000          9.56390000    0.2333    0.2077    0.1074
   13         16.85510000         68.10070000          9.49433000    0.1748    0.1114    0.0221
   13         21.00660000         68.13140000          9.40348000    0.3118    0.0416   -0.1839
   13         25.05060000         68.09280000          9.44262000    0.3167   -0.0705   -0.2225
   13         29.04780000         68.09470000          9.35922000    0.3254   -0.1800   -0.1853
   13         32.78070000         68.01430000          9.38755000    0.1560   -0.3569   -0.0390
   13         36.72800000         68.02350000          9.47384000    0.1842   -0.2682    0.0198
   13         40.80730000         67.96360000          9.52854000    0.3166   -0.3010    0.0647
   13         44.55430000         68.09430000          9.48768000    0.1626   -0.1701    0.0616
   13         48.51310000         67.93170000          9.44044000    0.2286   -0.2527    0.0293
   13         52.30950000         68.00020000          9.32192000    0.1452   -0.1595   -0.1236
   13         56.25300000         67.80950000          9.47760000    0.1550   -0.3225    0.0524
   13         60.29930000         67.79830000          9.47044000    0.2253   -0.1369    0.1054
   13         64.08910000         67.82600000          9.40498000    0.1525    0.0838    0.0860
   13         68.01200000         67.78760000          9.50806000    0.1807    0.1307    0.2202
   13         72.07170000         67.88770000          9.51121000    0.2632    0.2451    0.1551
   13         76.07990000         67.90550000          9.57691000    0.2815    0.2715    0.1198
   13          1.21849000         71.91430000          9.54375000    0.3243    0.3103   -0.0552
   13          4.97688000         71.88060000          9.61434000    0.1675    0.2004   -0.0180
   13          9.09687000         71.91300000          9.63123000    0.3133    0.2219   -0.0361
   13         13.13070000         71.98690000          9.48657000    0.3707    0.2097   -0.1153
   13         17.04410000         72.10400000          9.45865000    0.3295    0.2444   -0.1186
   13         20.79700000         72.07200000          9.42163000    0.1077    0.1270   -0.2126
   13         25.08000000         72.19390000          9.39637000    0.3691    0.1654   -0.2048
   13         28.98110000         72.13640000          9.42221000    0.3008   -0.0646    0.0273
   13         32.82300000         72.20130000          9.34767000    0.2122   -0.1156    0.1623
   13         36.81520000         72.07390000          9.45450000    0.2833   -0.1856    0.2595
   13         40.68140000         72.11610000          9.34201000    0.2430   -0.1155    0.0895
   13         44.50600000         72.08790000          9.42278000    0.1156   -0.1410    0.1794
   13         48.53330000         72.02130000          9.39344000    0.2245   -0.1522    0.1295
   13         52.30260000         71.86680000          9.46902000    0.1402   -0.2331    0.1554
   13         56.21940000         71.79320000          9.48754000    0.1422   -0.2303    0.1838
   13         60.24250000         71.67260000          9.45387000    0.2190   -0.2350    0.1889
   13         64.09110000         71.64380000          9.38179000    0.2049   -0.1312    0.0553
   13         67.82140000         71.67860000          9.40600000    0.0181    0.1134   -0.0028
   13         72.11230000         71.69910000          9.53021000    0.2766    0.2242    0.0064
   13         76.00990000         71.69600000          9.56513000    0.1821    0.1819   -0.0463
   13          1.21226000         75.85910000          9.57543000    0.2452    0.3078   -0.1581
   13          5.17609000         75.77850000          9.62426000    0.2583    0.1655   -0.1252
   13          9.19974000         75.76350000          9.54537000    0.3249    0.1125   -0.1722
   13         12.90360000         75.75800000          9.37501000    0.0936    0.0467   -0.2926
   13         16.91440000         76.01910000          9.49163000    0.1726    0.2565   -0.1258
   13         20.83390000         76.06130000          9.46798000    0.0966    0.2253   -0.1576
   13         25.05100000         76.08710000          9.40146000    0.3191    0.1706   -0.1535
   13         28.76920000         76.12340000          9.31377000    0.0898   -0.0019   -0.0079
   13         32.75340000         76.06430000          9.27526000    0.1199   -0.1800    0.1647
   13         36.68210000         75.98440000          9.27815000    0.1291   -0.2231    0.1515
   13         40.75080000         76.06360000          9.20540000    0.3151   -0.1216    0.0584
   13         44.65630000         76.00970000          9.36187000    0.2554   -0.1327    0.2200
   13         48.65920000         75.85280000          9.43035000    0.2967   -0.2576    0.2209
   13         52.42290000         75.80180000          9.44159000    0.1591   -0.2619    0.1994
   13         56.39390000         75.74980000          9.49484000    0.2388   -0.2090    0.2445
   13         60.28220000         75.71400000          9.50377000    0.1936   -0.1163    0.2415
   13         64.22820000         75.62080000          9.53382000    0.2078   -0.1376    0.2197
   13         68.26030000         75.57260000          9.56664000    0.3347    0.0593    0.0871
   13         72.07870000         75.62320000          9.58027000    0.1764    0.2329   -0.0895
   13         76.10410000         75.81620000          9.59071000    0.2375    0.3305   -0.1172
