CRYSTAL
PRIMVEC
    78.2108463768999940    0.0000000000000000    0.0000000000000000
     0.0000000000000000   78.2776662331999944    0.0000000000000000
     0.0000000000000000    0.0000000000000000   31.2622737895999983
PRIMCOORD
  400    1
   83          1.19901920          1.38318985          9.52395792    0.1801    0.2091   -0.2008
   83          5.11703066          1.36710379          9.49203914    0.1863    0.1999   -0.1983
   83          9.01974407          1.36446583          9.46312154    0.1796    0.2019   -0.1939
   83         12.93552651          1.35064199          9.42691983    0.1902    0.1898   -0.1958
   83         16.83902986          1.37313117          9.39540745    0.1862    0.2131   -0.1960
   83         20.77506891          1.36987481          9.36673995    0.2072    0.2002   -0.1817
   83         24.71189008          1.40297844          9.33160115    0.2149    0.1900   -0.1673
   83         28.61852185          1.45274738          9.29539944    0.1877   -0.0110   -0.0034
   83         32.56738749          1.45818768          9.29446157    0.1982   -0.2176    0.1679
   83         36.47652201          1.45379630          9.33891652    0.1733   -0.2127    0.1924
   83         40.39363404          1.45238730          9.36305100    0.1758   -0.2076    0.1888
   83         44.29885802          1.43999595          9.41550910    0.1695   -0.2158    0.2080
   83         48.20642833          1.44541276          9.43001479    0.1711   -0.2065    0.1888
   83         52.09452413          1.43608989          9.47228138    0.1577   -0.2129    0.2012
   83         56.01054121          1.43165938          9.49103875    0.1686   -0.2078    0.1912
   83         59.91646909          1.41887663          9.53017912    0.1747   -0.1959    0.1894
   83         63.80917934          1.40335417          9.56666219    0.1748   -0.1577    0.1821
   83         67.67443757          1.37164389          9.60386429    0.1554    0.0379    0.0171
   83         71.58419779          1.36260282          9.59536096    0.1745    0.2074   -0.1783
   83         75.50177908          1.37264584          9.56747501    0.1839    0.2011   -0.1916
   83          1.22600194          5.28259962          9.49869801    0.1886    0.2008   -0.1975
   83          5.13544931          5.28176987          9.46177726    0.1830    0.2007   -0.2044
   83          9.04876029          5.27719063          9.43110897    0.1877    0.1981   -0.2003
   83         12.94952626          5.28872876          9.39146841    0.1818    0.2105   -0.2056
   83         16.87430295          5.27359769          9.36598965    0.1934    0.1957   -0.1993
   83         20.79032003          5.29863871          9.33938546    0.1958    0.2075   -0.1871
   83         24.72409097          5.32115137          9.30393404    0.2110    0.1823   -0.1765
   83         28.62165029          5.37469329          9.26116725    0.1922   -0.0094   -0.0137
   83         32.53633778          5.38409444          9.28098753    0.1856   -0.2026    0.1861
   83         36.46838808          5.37151522          9.30293365    0.1866   -0.2039    0.1932
   83         40.37212606          5.35837240          9.34351208    0.1723   -0.2097    0.2060
   83         44.29017662          5.35993795          9.37246094    0.1777   -0.2040    0.2023
   83         48.18585887          5.35376967          9.41097607    0.1648   -0.2099    0.2050
   83         52.10062458          5.35620411          9.43623598    0.1753   -0.2012    0.1967
   83         55.99755821          5.33816110          9.47193750    0.1671   -0.2041    0.2038
   83         59.90989938          5.32252123          9.49713489    0.1789   -0.1993    0.1939
   83         63.81199493          5.30003205          9.52377035    0.1821   -0.1756    0.1769
   83         67.68781163          5.27039613          9.56250431    0.1672    0.0261    0.0109
   83         71.59201887          5.27022392          9.56159770    0.1768    0.2097   -0.1753
   83         75.50662815          5.28669354          9.52886610    0.1768    0.2097   -0.1957
   83          1.22588463          9.19214635          9.46340290    0.1731    0.2062   -0.2010
   83          5.15565899          9.18823246          9.43267208    0.1858    0.1993   -0.2029
   83          9.06103940          9.19660817          9.39468842    0.1780    0.2085   -0.2040
   83         12.97877711          9.18306614          9.35823661    0.1866    0.1966   -0.2051
   83         16.88110729          9.19222462          9.32910017    0.1802    0.2034   -0.2022
   83         20.79720258          9.20169622          9.30806066    0.1922    0.1904   -0.1928
   83         24.71517493          9.25602092          9.28145647    0.1967    0.1931   -0.1777
   83         28.61586268          9.30353546          9.23753297    0.1816   -0.0004   -0.0079
   83         32.53798021          9.29351592          9.23994017    0.1895   -0.2073    0.1808
   83         36.44703652          9.27778211          9.27267177    0.1753   -0.2053    0.1992
   83         40.37243890          9.27613828          9.30412161    0.1801   -0.1984    0.2000
   83         44.27969636          9.26541424          9.34691967    0.1728   -0.2057    0.2076
   83         48.19149006          9.27300717          9.37449299    0.1743   -0.1983    0.2009
   83         52.09624477          9.26197002          9.41160131    0.1684   -0.2049    0.2061
   83         56.00678709          9.25508159          9.43170295    0.1715   -0.1993    0.2000
   83         59.90286040          9.23606012          9.45886987    0.1686   -0.1991    0.1965
   83         63.81793895          9.22275291          9.49138263    0.1853   -0.1661    0.1821
   83         67.69070543          9.17883914          9.52627133    0.1655    0.0235    0.0107
   83         71.60273376          9.16960238          9.51958120    0.1780    0.2051   -0.1802
   83         75.52891824          9.18204853          9.49760383    0.1848    0.2041   -0.1920
   83          1.24855795         13.09053068          9.42341845    0.1824    0.2027   -0.2013
   83          5.15823995         13.09726256          9.38840470    0.1724    0.2079   -0.2067
   83          9.07941895         13.08669507          9.35648592    0.1805    0.1962   -0.2037
   83         12.97924638         13.09405317          9.32197237    0.1729    0.2014   -0.2044
   83         16.89526346         13.09796706          9.29405516    0.1855    0.1955   -0.2047
   83         20.78773907         13.13084368          9.27142128    0.1786    0.2039   -0.1961
   83         24.71744305         13.15307453          9.24037784    0.1968    0.1778   -0.1847
   83         28.61719227         13.20019769          9.20001824    0.1786   -0.0107   -0.0114
   83         32.53743273         13.20872996          9.20686468    0.1838   -0.1982    0.1858
   83         36.45282412         13.18829948          9.23665763    0.1786   -0.2014    0.2002
   83         40.36712056         13.17671439          9.27367216    0.1752   -0.2037    0.2040
   83         44.27742825         13.18109794          9.30665386    0.1761   -0.1975    0.2023
   83         48.18046233         13.17389639          9.34576296    0.1683   -0.2036    0.2082
   83         52.10320554         13.17507056          9.37314871    0.1755   -0.1988    0.2035
   83         56.00835131         13.16418996          9.40034689    0.1706   -0.2037    0.2028
   83         59.91365350         13.15299626          9.42129262    0.1758   -0.1986    0.1913
   83         63.81731326         13.12646013          9.44717778    0.1769   -0.1764    0.1736
   83         67.70181137         13.08035458          9.48978826    0.1629    0.0152    0.0073
   83         71.61861056         13.06994365          9.49369604    0.1808    0.1998   -0.1767
   83         75.53118636         13.08826063          9.45355528    0.1767    0.2051   -0.2017
   83          1.25641032         17.00003044          9.38340274    0.1778    0.2066   -0.2034
   83          5.17463294         16.99431617          9.35511038    0.1782    0.2011   -0.1997
   83          9.07730725         16.99807350          9.31518846    0.1721    0.2027   -0.2066
   83         12.99066516         17.00292672          9.28664600    0.1801    0.2002   -0.2030
   83         16.89268250         17.02406169          9.25704063    0.1783    0.2070   -0.2051
   83         20.80353766         17.03909100          9.23400033    0.1890    0.1984   -0.1940
   83         24.72033685         17.07032379          9.21121014    0.1944    0.1865   -0.1749
   83         28.61359457         17.10687946          9.16888102    0.1767   -0.0080   -0.0054
   83         32.53446072         17.10875812          9.16913112    0.1857   -0.2007    0.1835
   83         36.44852253         17.09365053          9.20486389    0.1765   -0.2010    0.2036
   83         40.36563456         17.09051942          9.23118673    0.1789   -0.1968    0.1994
   83         44.26632231         17.08284821          9.27054593    0.1730   -0.2037    0.2065
   83         48.18319971         17.07877777          9.30509074    0.1824   -0.2054    0.2045
   83         52.09030075         17.07940400          9.34029206    0.1767   -0.2021    0.2044
   83         56.00819489         17.08253510          9.36436402    0.1814   -0.1976    0.1967
   83         59.90849158         17.06492263          9.39228123    0.1748   -0.1986    0.1910
   83         63.83491070         17.03423778          9.41819765    0.1903   -0.1793    0.1791
   83         67.71502900         16.98828879          9.45899492    0.1689    0.0153    0.0099
   83         71.62619701         16.98500113          9.44586476    0.1768    0.2107   -0.1900
   83         75.55558814         16.99298545          9.42457515    0.1861    0.2050   -0.1947
   83          1.27526696         20.90600771          9.36176925    0.1832    0.2038   -0.1976
   83          5.18038926         20.91101748          9.32331665    0.1733    0.2090   -0.1999
   83          9.09654712         20.90185899          9.29049126    0.1805    0.1998   -0.1995
   83         12.99895551         20.91414859          9.25238255    0.1794    0.2033   -0.2048
   83         16.90777719         20.93035206          9.22849817    0.1853    0.2018   -0.1974
   83         20.80494546         20.94843420          9.20023708    0.1807    0.1972   -0.1917
   83         24.72635908         20.96111519          9.17044413    0.1939    0.1684   -0.1815
   83         28.61163930         21.00495068          9.12695831    0.1767   -0.0184   -0.0122
   83         32.52577932         21.01504850          9.13546165    0.1843   -0.2001    0.1844
   83         36.44601978         20.99743602          9.16366022    0.1844   -0.2004    0.1979
   83         40.35343366         20.99062587          9.19686075    0.1784   -0.2003    0.2022
   83         44.26694800         20.99712291          9.22956109    0.1828   -0.1968    0.2002
   83         48.17029492         20.99352214          9.26967059    0.1801   -0.2018    0.2030
   83         52.07911660         20.99101725          9.30299617    0.1821   -0.2014    0.2012
   83         55.99826211         20.98843409          9.33500874    0.1846   -0.2025    0.2014
   83         59.91639088         20.97598794          9.35761136    0.1836   -0.2036    0.1889
   83         63.83272080         20.94726004          9.38177710    0.1850   -0.1847    0.1722
   83         67.72026913         20.90138933          9.41894795    0.1709    0.0181    0.0021
   83         71.64269950         20.88620346          9.42373107    0.1828    0.2077   -0.1764
   83         75.55832552         20.90545977          9.39365677    0.1728    0.2116   -0.1953
   83          1.28918067         24.81668164          9.31990906    0.1744    0.2157   -0.2040
   83          5.20913957         24.81120220          9.29558701    0.1804    0.2042   -0.1935
   83          9.10960833         24.82161313          9.25006914    0.1716    0.2139   -0.2058
   83         13.02327908         24.82208280          9.23509451    0.1818    0.2072   -0.1875
   83         16.91747534         24.83914733          9.19348443    0.1727    0.2075   -0.1990
   83         20.82786123         24.84955826          9.16956879    0.1817    0.1972   -0.1883
   83         24.73159921         24.87429400          9.14796656    0.1870    0.1736   -0.1718
   83         28.60436569         24.91147589          9.10166713    0.1659   -0.0227   -0.0107
   83         32.52319836         24.91844260          9.09644633    0.1849   -0.2035    0.1772
   83         36.42920445         24.90333501          9.12711462    0.1791   -0.2026    0.1949
   83         40.33990319         24.89949941          9.15953360    0.1802   -0.2018    0.1960
   83         44.25068014         24.89973424          9.19792367    0.1821   -0.2066    0.1954
   83         48.15606054         24.90717062          9.23709530    0.1816   -0.2022    0.1953
   83         52.05987673         24.90513540          9.27279682    0.1793   -0.2024    0.1974
   83         55.98567016         24.90310018          9.30093286    0.1896   -0.2035    0.1957
   83         59.90418999         24.89292408          9.33313300    0.1914   -0.2092    0.1907
   83         63.83444144         24.87351122          9.35598573    0.2056   -0.1837    0.1668
   83         67.72754274         24.81253292          9.40069078    0.1803    0.0165    0.0165
   83         71.64966026         24.79468561          9.37558717    0.1773    0.2124   -0.1828
   83         75.58804564         24.80572276          9.37008501    0.1849    0.2124   -0.1806
   83          1.33970487         28.73244361          9.30249598    0.1586    0.2229   -0.1970
   83          5.23085872         28.74614220          9.25876005    0.1365    0.2241   -0.2152
   83          9.16811004         28.73549644          9.23587607    0.1595    0.2190   -0.1974
   83         13.04603844         28.74669015          9.19554774    0.1332    0.2211   -0.2076
   83         16.96737386         28.74003655          9.17891621    0.1539    0.1999   -0.2037
   83         20.84350340         28.75013436          9.13045968    0.1362    0.1958   -0.2082
   83         24.75600099         28.76813823          9.11745458    0.1735    0.1410   -0.1898
   83         28.59842166         28.79569197          9.07371866    0.1498   -0.0637   -0.0384
   83         32.51224884         28.82152360          9.06680969    0.1812   -0.2086    0.1527
   83         36.41074669         28.81103439          9.09960382    0.1757   -0.2104    0.1785
   83         40.31706562         28.81549622          9.13721233    0.1749   -0.2081    0.1869
   83         44.22322813         28.81964493          9.17028782    0.1726   -0.2074    0.1871
   83         48.12892138         28.81299133          9.20733361    0.1728   -0.2136    0.1896
   83         52.03344146         28.82418504          9.24209726    0.1699   -0.2050    0.1861
   83         55.95954774         28.81400894          9.26785738    0.1843   -0.2199    0.1828
   83         59.87079396         28.82011460          9.29811926    0.1845   -0.2122    0.1825
   83         63.82458687         28.79232603          9.32822483    0.2196   -0.1982    0.1656
   83         67.70384485         28.76375468          9.35839292    0.1395    0.0545    0.0190
   83         71.71692159         28.73807960          9.34663831    0.1829    0.2510   -0.1635
   83         75.61487196         28.73346122          9.31603254    0.1430    0.2289   -0.2036
   83          1.37944380         32.62159118          9.24231610   -0.0624    0.1764   -0.1408
   83          5.30532327         32.63513322          9.21074120   -0.0421    0.1880   -0.1442
   83          9.18734991         32.61391997          9.15065511   -0.0543    0.1851   -0.1614
   83         13.10931102         32.64687487          9.14981103   -0.0215    0.2106   -0.1419
   83         17.00874739         32.63489838          9.09256981   -0.0140    0.1901   -0.1873
   83         20.88229598         32.66511356          9.08187811    0.0018    0.2122   -0.1980
   83         24.79635779         32.65759891          9.09350768    0.0461    0.0718   -0.2381
   83         28.59568428         32.69485908          9.08416026   -0.0372   -0.1048   -0.1449
   83         32.51044999         32.71090600          9.07062369   -0.0131   -0.2102   -0.0282
   83         36.40871321         32.72507426          9.10101062   -0.0235   -0.2034   -0.0018
   83         40.30408262         32.71842065          9.13114745   -0.0383   -0.2158    0.0017
   83         44.21884832         32.72014276          9.16150312   -0.0358   -0.2184    0.0057
   83         48.11812828         32.73008403          9.19135859   -0.0441   -0.2132    0.0002
   83         52.03406715         32.73885113          9.23362519   -0.0352   -0.2085   -0.0025
   83         55.94773790         32.74190395          9.25382062   -0.0388   -0.2148   -0.0040
   83         59.88416801         32.75763777          9.27826771   -0.0318   -0.2125    0.0079
   83         63.80041972         32.76765731          9.31553234   -0.0573   -0.1016    0.0598
   83         67.79519512         32.64609209          9.30740415   -0.0369    0.0543    0.0076
   83         71.76017219         32.61752074          9.29530565   -0.0447    0.1798   -0.0945
   83         75.68831195         32.64303926          9.27983083   -0.0551    0.1885   -0.1291
   83          1.34928570         36.64013173          9.24703670   -0.2513    0.2469    0.0579
   83          5.24973100         36.60388917          9.21499287   -0.2508    0.2222    0.0640
   83          9.15137292         36.62189304          9.17888495   -0.2383    0.2601    0.0606
   83         13.06739000         36.57453505          9.16469187   -0.2136    0.2125    0.0665
   83         16.95877066         36.60255845          9.11867381   -0.2172    0.2437    0.0450
   83         20.86798340         36.55715741          9.08744279   -0.1811    0.2078    0.0018
   83         24.79088303         36.56882078          9.06921689   -0.1520    0.0442   -0.1612
   83         28.64315827         36.55942746          9.13264804   -0.2026   -0.1741   -0.1796
   83         32.54760014         36.59919251          9.12858395   -0.1966   -0.2080   -0.1676
   83         36.46635460         36.62760731          9.13927564   -0.1895   -0.2067   -0.1730
   83         40.35585820         36.63770513          9.18491856   -0.2150   -0.2066   -0.1584
   83         44.28329406         36.63887929          9.20708352   -0.1953   -0.2126   -0.1720
   83         48.17334514         36.65844871          9.24594252   -0.2170   -0.2050   -0.1671
   83         52.10164132         36.64631567          9.28348851   -0.2012   -0.2228   -0.1683
   83         55.99028460         36.65328238          9.32206616   -0.2303   -0.2208   -0.1576
   83         59.94767522         36.67386941          9.32916270   -0.2026   -0.2259   -0.1574
   83         63.84202789         36.69586543          9.35404747   -0.2325   -0.0383   -0.0042
   83         67.75014567         36.69711787          9.32766211   -0.2660    0.2101    0.1042
   83         71.68446409         36.66384987          9.29164797   -0.2746    0.2447    0.0760
   83         75.63317330         36.65750937          9.27185895   -0.2606    0.2451    0.0545
   83          1.31616341         40.51918148          9.25938530   -0.2150    0.1969    0.1607
   83          5.22374153         40.52513059          9.22008862   -0.2131    0.2091    0.1603
   83          9.12415555         40.49522852          9.18607527   -0.2177    0.1940    0.1576
   83         13.03031806         40.49648096          9.15184308   -0.2199    0.2017    0.1523
   83         16.93648057         40.48333031          9.11729827   -0.2239    0.1985    0.1542
   83         20.84498941         40.46078634          9.06630950   -0.2341    0.2027    0.1281
   83         24.78728533         40.45765524          9.06899805   -0.2031    0.0283   -0.0373
   83         28.65543737         40.49953379          9.12827132   -0.2286   -0.1503   -0.1682
   83         32.56684001         40.51111888          9.15662621   -0.2104   -0.1978   -0.1757
   83         36.47026514         40.54438689          9.17941640   -0.2119   -0.1953   -0.1843
   83         40.39770100         40.55730271          9.21627462   -0.1994   -0.1991   -0.1859
   83         44.28783029         40.57507174          9.25538373   -0.2166   -0.1921   -0.1856
   83         48.21276341         40.56693086          9.28658348   -0.2006   -0.2143   -0.1835
   83         52.11579748         40.60262548          9.32022168   -0.2114   -0.1913   -0.1841
   83         56.04018312         40.58579578          9.36342615   -0.2017   -0.2133   -0.1811
   83         59.92648008         40.62266456          9.39131210   -0.2257   -0.2083   -0.1649
   83         63.82732425         40.64880930          9.38233982   -0.2145   -0.0053    0.0112
   83         67.75038031         40.60027715          9.32875629   -0.2063    0.1903    0.1480
   83         71.67062077         40.56567842          9.32234752   -0.2194    0.2030    0.1686
   83         75.59664884         40.53742018          9.29302351   -0.2211    0.1979    0.1623
   83          1.28057747         44.44339745          9.28658348   -0.2189    0.2054    0.1842
   83          5.18815560         44.43009024          9.26054200   -0.2169    0.1955    0.1980
   83          9.10945191         44.43564796          9.21339850   -0.2032    0.2134    0.1877
   83         13.00935755         44.40261478          9.16944374   -0.2142    0.1897    0.1814
   83         16.91544185         44.39971851          9.13164765   -0.2200    0.2037    0.1777
   83         20.83826328         44.37365205          9.10679414   -0.2186    0.2080    0.1707
   83         24.77430233         44.36167556          9.09353894   -0.2058    0.0188   -0.0218
   83         28.66583941         44.39243869          9.15396891   -0.2268   -0.1744   -0.1658
   83         32.57489573         44.43024680          9.17707173   -0.2250   -0.1843   -0.1886
   83         36.49255523         44.43682212          9.21568064   -0.2094   -0.2064   -0.1891
   83         40.39371225         44.46461069          9.25100701   -0.2120   -0.1986   -0.1947
   83         44.30988575         44.47909206          9.29124156   -0.2038   -0.1980   -0.1912
   83         48.20486411         44.50461058          9.32050305   -0.2141   -0.1892   -0.1952
   83         52.12807659         44.50414092          9.35879933   -0.1985   -0.2050   -0.1941
   83         56.02375884         44.53255571          9.39897135   -0.2201   -0.1916   -0.1888
   83         59.94196583         44.55329929          9.43401636   -0.2182   -0.2091   -0.1645
   83         63.85680974         44.57349493          9.43551695   -0.2029   -0.0058    0.0194
   83         67.72996728         44.50265364          9.38580994   -0.2312    0.1760    0.1689
   83         71.66295611         44.47705684          9.35076493   -0.2156    0.1998    0.1764
   83         75.58092846         44.45099038          9.32384811   -0.2175    0.1981    0.1833
   83          1.26246384         48.36080325          9.32597394   -0.2176    0.1971    0.1922
   83          5.18266520         48.35743731          9.29836936   -0.2057    0.2050    0.1973
   83          9.07996642         48.32878769          9.25519616   -0.2184    0.1905    0.1972
   83         12.99887730         48.32667419          9.20777129   -0.2094    0.1991    0.1940
   83         16.90668224         48.31281904          9.17285133   -0.2150    0.2043    0.1927
   83         20.83005114         48.26647867          9.13921312   -0.2174    0.1924    0.1778
   83         24.76460419         48.25231041          9.13030337   -0.2091   -0.0044   -0.0145
   83         28.67139238         48.31962920          9.17460201   -0.2250   -0.1686   -0.1809
   83         32.59546518         48.33598923          9.21946338   -0.2148   -0.1925   -0.1815
   83         36.49271165         48.36518680          9.24953768   -0.2166   -0.1903   -0.1917
   83         40.39918701         48.37919850          9.28777144   -0.2074   -0.1985   -0.1959
   83         44.30190824         48.39594993          9.32797473   -0.2072   -0.1944   -0.1998
   83         48.21284162         48.40573463          9.36749024   -0.2040   -0.2006   -0.1961
   83         52.11204336         48.42710444          9.40972557   -0.2147   -0.1930   -0.1892
   83         56.03017213         48.43829814          9.43745521   -0.2115   -0.2012   -0.1871
   83         59.94548531         48.47908081          9.46127706   -0.2148   -0.1971   -0.1729
   83         63.86377051         48.48808274          9.46965535   -0.2046   -0.0085    0.0124
   83         67.75069315         48.43986370          9.41851027   -0.2184    0.1909    0.1664
   83         71.65443113         48.37708501          9.39221870   -0.2194    0.1869    0.1867
   83         75.57443696         48.36518680          9.36033118   -0.2072    0.1926    0.1940
   83          1.26180687         52.28572372          9.36589587   -0.2096    0.2005    0.1942
   83          5.16217396         52.25629131          9.33519631   -0.2193    0.1875    0.1957
   83          9.07973179         52.25339504          9.29468041   -0.2076    0.2000    0.1971
   83         12.98659820         52.23648706          9.25672801   -0.2086    0.1980    0.1978
   83         16.89135291         52.22004875          9.21596200   -0.2238    0.2023    0.1890
   83         20.82879976         52.18826802          9.18498109   -0.2153    0.2063    0.1798
   83         24.74552074         52.16713305          9.16581731   -0.2216    0.0039   -0.0178
   83         28.67303481         52.21355171          9.22746652   -0.2204   -0.1859   -0.1628
   83         32.59687297         52.25997036          9.24691165   -0.2088   -0.1882   -0.1900
   83         36.49052175         52.27257307          9.28530173   -0.2106   -0.2024   -0.1968
   83         40.39144414         52.29832642          9.32150344   -0.2125   -0.1966   -0.2011
   83         44.30519310         52.31265123          9.36677121   -0.2028   -0.1956   -0.1994
   83         48.20478590         52.32681949          9.40681818   -0.2146   -0.1895   -0.1992
   83         52.12690342         52.32838504          9.45074168   -0.2086   -0.1973   -0.1909
   83         56.03189277         52.34889379          9.48234784   -0.2140   -0.1974   -0.1820
   83         59.93860276         52.37707375          9.50851436   -0.2160   -0.2033   -0.1687
   83         63.85587121         52.38638879          9.50970233   -0.2056   -0.0144    0.0075
   83         67.74998925         52.33887425          9.46274639   -0.2199    0.1751    0.1721
   83         71.65982767         52.30458863          9.42641963   -0.2144    0.1931    0.1808
   83         75.55957690         52.28400161          9.40694323   -0.2142    0.1881    0.2008
   83          1.24959033         56.18935265          9.41519647   -0.2176    0.1884    0.1978
   83          5.16565434         56.18864815          9.37743165   -0.2053    0.2024    0.1968
   83          9.06698342         56.16853079          9.34541908   -0.2109    0.1977    0.2033
   83         12.98221839         56.15303182          9.29924470   -0.2058    0.2015    0.1988
   83         16.87790065         56.12195558          9.24988157   -0.2256    0.1953    0.1844
   83         20.81198443         56.09174040          9.22002610   -0.2186    0.2025    0.1718
   83         24.73996777         56.07890287          9.20711478   -0.2195    0.0085   -0.0181
   83         28.66020823         56.13361895          9.25056934   -0.2236   -0.1818   -0.1816
   83         32.57833700         56.17784584          9.29883829   -0.2192   -0.1962   -0.1836
   83         36.48395204         56.20915690          9.33116348   -0.2163   -0.1916   -0.1940
   83         40.39465078         56.21643673          9.36464538   -0.2059   -0.1985   -0.1986
   83         44.29666812         56.23600614          9.40500497   -0.2123   -0.1878   -0.1978
   83         48.22621567         56.22786526          9.44498942   -0.2011   -0.2018   -0.1950
   83         52.12322751         56.24586913          9.48731854   -0.2177   -0.1936   -0.1902
   83         56.03619437         56.25815872          9.52792823   -0.2128   -0.1999   -0.1801
   83         59.93789886         56.28759112          9.55575166   -0.2184   -0.1988   -0.1626
   83         63.85329025         56.29220951          9.56428626   -0.2028   -0.0140    0.0199
   83         67.73567667         56.25447967          9.51445419   -0.2203    0.1800    0.1776
   83         71.64574972         56.22950910          9.47537635   -0.2187    0.1950    0.1908
   83         75.56450418         56.21635845          9.44739661   -0.2079    0.1973    0.1967
   83          1.25275787         60.11262928          9.44855332   -0.2032    0.1951    0.1920
   83          5.15076299         60.10214008          9.41241413   -0.2129    0.1941    0.1937
   83          9.07261460         60.09125948          9.37680640   -0.2033    0.2001    0.1950
   83         12.97181635         60.06112258          9.33113222   -0.2149    0.1948    0.1913
   83         16.89346461         60.04327527          9.28608328   -0.2055    0.2038    0.1863
   83         20.78938150         60.01486048          9.25375809   -0.2354    0.2154    0.1676
   83         24.74505147         59.98550635          9.25335168   -0.2055    0.0006   -0.0160
   83         28.62845463         60.05227720          9.30756046   -0.2413   -0.1905   -0.1688
   83         32.57215835         60.11333378          9.33516505   -0.2163   -0.1877   -0.1898
   83         36.49130386         60.13846091          9.37311745   -0.2132   -0.1891   -0.1855
   83         40.39824848         60.15576028          9.40675566   -0.2186   -0.1794   -0.1868
   83         44.31004217         60.13125937          9.44273854   -0.2153   -0.2003   -0.1895
   83         48.21988059         60.14918495          9.48125366   -0.2119   -0.1943   -0.1872
   83         52.13143965         60.16687571          9.51845576   -0.2096   -0.1922   -0.1878
   83         56.04425009         60.18300091          9.56162896   -0.2094   -0.1873   -0.1809
   83         59.94415573         60.19732572          9.59842466   -0.2189   -0.1990   -0.1546
   83         63.85297741         60.20460554          9.59698659   -0.2034   -0.0205    0.0236
   83         67.72378862         60.15975244          9.55525146   -0.2195    0.1620    0.1835
   83         71.63010755         60.14981118          9.51010874   -0.2143    0.1979    0.1870
   83         75.53533153         60.13329459          9.48334823   -0.2208    0.2022    0.1928
   83          1.22353830         64.01915450          9.47865889   -0.2134    0.1868    0.1842
   83          5.14520220         64.02878265          9.44326999   -0.2045    0.2081    0.1871
   83          9.04977703         63.99817608          9.40303545   -0.2182    0.1978    0.1824
   83         12.98753673         63.99230526          9.37377396   -0.1972    0.2092    0.1859
   83         16.87766602         63.95903725          9.33654059   -0.2196    0.1962    0.1891
   83         20.78062188         63.92075947          9.29974490   -0.2308    0.2062    0.1698
   83         24.70164445         63.91888081          9.29083515   -0.2277    0.0346   -0.0072
   83         28.63651035         63.97633661          9.32809978   -0.2259   -0.1731   -0.1622
   83         32.55808039         64.02361632          9.38493459   -0.2399   -0.1898   -0.1413
   83         36.49372840         64.04021119          9.39543872   -0.2324   -0.1867   -0.1656
   83         40.43844885         64.04858690          9.45171081   -0.2129   -0.1905   -0.1422
   83         44.33702491         64.05868472          9.46387183   -0.2186   -0.1853   -0.1601
   83         48.22175765         64.06854770          9.50682620   -0.2321   -0.1853   -0.1521
   83         52.13980821         64.06095477          9.54459102   -0.2241   -0.2010   -0.1581
   83         56.06020510         64.07402714          9.59414173   -0.2150   -0.1945   -0.1504
   83         59.96582013         64.09406622          9.62821761   -0.2135   -0.2087   -0.1331
   83         63.84249716         64.12803873          9.64125397   -0.2203   -0.0191    0.0431
   83         67.71714070         64.10056327          9.57713505   -0.2233    0.1750    0.1756
   83         71.61712455         64.05985888          9.54099586   -0.2146    0.1917    0.1818
   83         75.52938751         64.02980026          9.51417283   -0.2070    0.1889    0.1877
   83          1.22328803         67.94986751          9.52411423   -0.1925    0.2090    0.1760
   83          5.11997921         67.92419243          9.48153502   -0.2107    0.1969    0.1668
   83          9.04500617         67.91761711          9.44936614   -0.1997    0.2096    0.1686
   83         12.94639782         67.90055258          9.41122616   -0.2156    0.1997    0.1689
   83         16.87344263         67.91174628          9.38302759   -0.2072    0.2205    0.1737
   83         20.78726980         67.88387943          9.35592320   -0.2144    0.2321    0.1647
   83         24.71267218         67.83918289          9.35239056   -0.2302    0.0316    0.0540
   83         28.61226498         67.86611040          9.38802956   -0.2912   -0.2083   -0.0355
   83         32.60344269         67.92372277          9.38806082   -0.2443   -0.2186   -0.0221
   83         36.53948174         67.90877173          9.41738483   -0.2432   -0.2248   -0.0115
   83         40.44329793         67.93389886          9.44761545   -0.2545   -0.2158   -0.0154
   83         44.36588472         67.95393794          9.48122239   -0.2349   -0.2019   -0.0027
   83         48.25257273         67.95581661          9.51051515   -0.2557   -0.2029   -0.0063
   83         52.18329344         67.96121777          9.56012837   -0.2215   -0.2030    0.0188
   83         56.05637277         67.98798873          9.58329372   -0.1976   -0.1845    0.0252
   83         59.92741861         68.01327242          9.64253573   -0.1686   -0.1803    0.0779
   83         63.84499990         68.04474004          9.65222703   -0.1481   -0.0153    0.1692
   83         67.69187859         68.00395737          9.61918281   -0.2058    0.1554    0.2121
   83         71.61360506         67.97890852          9.58229333   -0.1859    0.2085    0.1757
   83         75.50217013         67.95777355          9.54374694   -0.2079    0.2065    0.1671
   83          1.17317834         71.83486636          9.56150391   -0.0258    0.2008    0.0049
   83          5.07656436         71.83924991          9.52530220   -0.0364    0.2134    0.0002
   83          8.99565513         71.82883898          9.49225798   -0.0272    0.2096   -0.0034
   83         12.88820895         71.81631455          9.46055803   -0.0441    0.2056    0.0075
   83         16.81720903         71.81106995          9.43554821   -0.0289    0.2124    0.0144
   83         20.73080157         71.80629501          9.41363336   -0.0398    0.2167    0.0150
   83         24.66339935         71.81827149          9.39662668   -0.0498    0.1215   -0.0112
   83         28.67585040         71.90085443          9.37368017   -0.0123   -0.0669    0.0276
   83         32.64927424         71.90461176          9.38024525   -0.0093   -0.2023    0.1386
   83         36.55465464         71.89748849          9.40916285   -0.0480   -0.1854    0.1667
   83         40.47082814         71.90719492          9.41422734   -0.0462   -0.1839    0.1396
   83         44.37683423         71.89678399          9.47331304   -0.0476   -0.1872    0.1778
   83         48.26719815         71.89279183          9.47656432   -0.0619   -0.1845    0.1496
   83         52.20996334         71.91173503          9.56409868   -0.0112   -0.1805    0.2117
   83         56.04065239         71.90891703          9.52248860   -0.0287   -0.1931    0.1616
   83         59.92554155         71.90719492          9.56913191    0.0241   -0.1785    0.1902
   83         63.84515633         71.88480751          9.61862009    0.0570   -0.1027    0.2304
   83         67.65660550         71.88081535          9.64447399   -0.0248    0.1028    0.1440
   83         71.57934871         71.84887806          9.62577915    0.0014    0.2026    0.0187
   83         75.46947800         71.84496418          9.59955010   -0.0221    0.2019    0.0115
   83          1.17657269         75.73364208          9.55434485    0.1754    0.1980   -0.1821
   83          5.08400222         75.73137203          9.51698644    0.1733    0.2026   -0.1855
   83          8.99753219         75.72393565          9.48409852    0.1755    0.1975   -0.1873
   83         12.90807451         75.72659709          9.45267994    0.1792    0.2069   -0.1809
   83         16.80649415         75.70867151          9.41819765    0.1746    0.1983   -0.1801
   83         20.74534879         75.73121547          9.39653290    0.2037    0.2117   -0.1664
   83         24.67513098         75.75923888          9.34795132    0.2049    0.1937   -0.1678
   83         28.62548262         75.80761448          9.30002626    0.1941   -0.0234   -0.0208
   83         32.58388997         75.81395497          9.33316427    0.1768   -0.2336    0.1753
   83         36.52360494         75.79869082          9.34845152    0.1729   -0.2264    0.1784
   83         40.40708630         75.79595110          9.39797096    0.1397   -0.2292    0.1975
   83         44.34398568         75.80463992          9.42554429    0.1633   -0.2141    0.1962
   83         48.21902027         75.79133272          9.46656039    0.1369   -0.2170    0.2066
   83         52.14012106         75.80330920          9.49403993    0.1565   -0.2155    0.1953
   83         56.01773661         75.80964969          9.52961639    0.1291   -0.2110    0.2018
   83         59.93367548         75.79289827          9.55718972    0.1576   -0.1958    0.1884
   83         63.81113461         75.77458130          9.58792054    0.1639   -0.1454    0.1765
   83         67.66387911         75.74890623          9.63156267    0.1519    0.0492    0.0246
   83         71.57082373         75.73497280          9.62918674    0.1745    0.2070   -0.1556
   83         75.48402522         75.73841702          9.59517338    0.1803    0.2012   -0.1751
