CRYSTAL
PRIMVEC
    78.3968848580000071    0.0000000000000000    0.0000000000000000
     0.0000000000000000   78.1749229289000027    0.0000000000000000
     0.0000000000000000    0.0000000000000000   31.2711157646000011
PRIMCOORD
  400    1
   83          1.39000813          1.32952091          9.53274947    0.2045    0.2153   -0.1885
   83          5.31620252          1.36386316          9.51814586    0.2084    0.2029   -0.1867
   83          9.23954326          1.41229252          9.49653752    0.2121    0.2099   -0.1896
   83         13.15766277          1.44353122          9.47286529    0.2102    0.2008   -0.1946
   83         17.08824739          1.48134443          9.45876201    0.2135    0.1979   -0.1888
   83         21.02596612          1.50900272          9.42477031    0.2213    0.1798   -0.1932
   83         24.94988700          1.57424751          9.39571944    0.2085    0.1722   -0.1825
   83         28.87114239          1.62076159          9.34490388    0.2033   -0.0251   -0.0188
   83         32.79090824          1.59708241          9.33355246    0.2069   -0.2150    0.1695
   83         36.69718982          1.53541803          9.35741233    0.1960   -0.2167    0.1940
   83         40.61272223          1.49408694          9.37214102    0.2003   -0.2016    0.1946
   83         44.51688710          1.43046819          9.39553182    0.1934   -0.2131    0.1996
   83         48.43908325          1.38955926          9.41407559    0.2007   -0.2018    0.1965
   83         52.34489445          1.33456320          9.43158741    0.1899   -0.2063    0.1911
   83         56.27132403          1.28869797          9.45572871    0.2009   -0.1997    0.1934
   83         60.18379896          1.23669601          9.47652401    0.2064   -0.1903    0.1853
   83         64.09666588          1.20058701          9.51645722    0.2141   -0.1485    0.1895
   83         67.97566535          1.15408075          9.55623408    0.1814    0.0302    0.0305
   83         71.92882827          1.20905336          9.56042441    0.2108    0.2208   -0.1615
   83         75.86090243          1.26214977          9.54919808    0.2066    0.2013   -0.1836
   83          1.39261874          5.22671281          9.50013370    0.2078    0.2046   -0.1950
   83          5.31359190          5.27110835          9.48327857    0.2019    0.2038   -0.1933
   83          9.24338471          5.30837433          9.45244525    0.2085    0.2006   -0.2011
   83         13.16064185          5.35205848          9.43618427    0.2030    0.2055   -0.1936
   83         17.09640067          5.37275138          9.41044814    0.2159    0.1873   -0.1965
   83         21.00526934          5.42622303          9.38608794    0.2056    0.1965   -0.1884
   83         24.94055777          5.46023694          9.34749938    0.2147    0.1639   -0.1821
   83         28.84887767          5.51846162          9.29268112    0.1975   -0.0221   -0.0210
   83         32.77742397          5.50670411          9.29627729    0.2056   -0.2078    0.1752
   83         36.70691103          5.45641418          9.31741657    0.2100   -0.2043    0.1903
   83         40.60958636          5.40479528          9.33899364    0.1939   -0.2040    0.1942
   83         44.53429121          5.36090006          9.35675563    0.2042   -0.1959    0.1913
   83         48.43696653          5.29394324          9.38699480    0.1913   -0.2100    0.1996
   83         52.36519924          5.25559062          9.40844679    0.2027   -0.1968    0.1979
   83         56.27932051          5.19615423          9.42792869    0.2001   -0.2066    0.1943
   83         60.20151666          5.16090516          9.45957506    0.2119   -0.1897    0.1943
   83         64.10967977          5.11501648          9.48234043    0.2104   -0.1686    0.1742
   83         68.00090915          5.08081495          9.53603294    0.1963    0.0251    0.0233
   83         71.93447285          5.12019166          9.53809683    0.2156    0.2149   -0.1669
   83         75.84835893          5.18226255          9.52490042    0.1973    0.2121   -0.1845
   83          1.38281913          9.13114370          9.46701759    0.1950    0.2087   -0.1928
   83          5.31811540          9.16366447          9.43984299    0.2026    0.1968   -0.2006
   83          9.23766174          9.21885596          9.41932914    0.1974    0.2107   -0.1967
   83         13.17083345          9.24965688          9.39002810    0.2092    0.1988   -0.2000
   83         17.08291640          9.29757811          9.37489288    0.2039    0.2040   -0.1908
   83         21.00981636          9.33267865          9.33708610    0.2167    0.1935   -0.1969
   83         24.92393763          9.38552490          9.31432073    0.2093    0.1839   -0.1747
   83         28.83413906          9.42680126          9.25862687    0.1981   -0.0139   -0.0163
   83         32.76684039          9.41515319          9.26391169    0.2090   -0.2006    0.1783
   83         36.68746860          9.35542755          9.27901564    0.1980   -0.2089    0.1852
   83         40.62448176          9.31665279          9.30418889    0.2096   -0.1993    0.1915
   83         44.52817625          9.25942875          9.32798621    0.1947   -0.2074    0.1936
   83         48.45499781          9.22127938          9.35597385    0.2036   -0.1949    0.1997
   83         52.36496405          9.16053747          9.37314170    0.1960   -0.2055    0.1947
   83         56.29452951          9.11543054          9.39925308    0.2093   -0.2031    0.1969
   83         60.19791040          9.07493593          9.42905445    0.2008   -0.1960    0.1934
   83         64.12473197          9.04616756          9.45838676    0.2157   -0.1628    0.1786
   83         67.99941961          9.00145150          9.50607521    0.1847    0.0221    0.0192
   83         71.92835789          9.02818732          9.51098478    0.2030    0.2095   -0.1661
   83         75.85470907          9.07829745          9.48662458    0.2007    0.2036   -0.1893
   83          1.40089745         13.01995524          9.43643444    0.2063    0.2004   -0.1872
   83          5.32194117         13.06553122          9.40481934    0.2015    0.2000   -0.1978
   83          9.24942127         13.11095085          9.38618175    0.2069    0.1992   -0.1938
   83         13.15734919         13.16559512          9.35734978    0.1980    0.2058   -0.1970
   83         17.08707144         13.20210281          9.33758644    0.2132    0.1957   -0.1901
   83         20.98911959         13.25682526          9.31266336    0.2029    0.2034   -0.1835
   83         24.91946901         13.28379560          9.26979066    0.2158    0.1689   -0.1823
   83         28.81947884         13.33163866          9.22332178    0.1988   -0.0162   -0.0173
   83         32.74880911         13.31248580          9.22719940    0.2066   -0.2038    0.1744
   83         36.68887975         13.26151575          9.24502394    0.2126   -0.2011    0.1851
   83         40.60503934         13.21296912          9.27135422    0.1993   -0.2030    0.1918
   83         44.53617273         13.17818128          9.29302510    0.2060   -0.1928    0.1914
   83         48.44747171         13.11697032          9.31722894    0.1942   -0.2077    0.1946
   83         52.38009465         13.08382415          9.33683593    0.2066   -0.1949    0.1922
   83         56.28857134         13.02495843          9.36501121    0.1982   -0.2092    0.1957
   83         60.21210024         12.99650276          9.39030954    0.2087   -0.1914    0.1874
   83         64.11618671         12.94506366          9.41773431    0.1997   -0.1812    0.1700
   83         68.02137073         12.91582624          9.47517935    0.1982    0.0215    0.0198
   83         71.94458604         12.93036678          9.47868171    0.2111    0.2050   -0.1652
   83         75.85847212         12.98516740          9.45091296    0.1969    0.2109   -0.1902
   83          1.40243403         16.92064937          9.38793293    0.1992    0.2026   -0.2001
   83          5.33144287         16.96270748          9.37564339    0.2076    0.1944   -0.1911
   83          9.24213036         17.02946886          9.34678015    0.2007    0.2089   -0.1980
   83         13.16087705         17.07011982          9.32933086    0.2056    0.1980   -0.1918
   83         17.06935374         17.12343512          9.29859136    0.2007    0.2026   -0.1975
   83         20.98888440         17.15853566          9.26844600    0.2090    0.1889   -0.1944
   83         24.90872864         17.21677598          9.24862011    0.2132    0.1849   -0.1686
   83         28.81916526         17.24695150          9.18829813    0.2074   -0.0138   -0.0189
   83         32.74277255         17.20942753          9.19683515    0.2102   -0.2100    0.1786
   83         36.67084846         17.15275071          9.20799893    0.2038   -0.2067    0.1864
   83         40.60488254         17.11804105          9.23576769    0.2064   -0.1932    0.1944
   83         44.52331564         17.06112970          9.25906467    0.1977   -0.2069    0.1946
   83         48.45930964         17.03337761          9.28111080    0.2073   -0.1939    0.1955
   83         52.37460687         16.98217303          9.30434524    0.1981   -0.2048    0.1963
   83         56.30840576         16.94441454          9.32798621    0.2094   -0.2016    0.1977
   83         60.21429535         16.90102746          9.35869444    0.2000   -0.1999    0.1958
   83         64.14158730         16.86803765          9.38611921    0.2145   -0.1693    0.1747
   83         68.02160593         16.82089817          9.43990553    0.1861    0.0202    0.0186
   83         71.95164176         16.82824661          9.43840452    0.2049    0.2015   -0.1713
   83         75.88199119         16.87694959          9.41964185    0.2084    0.2045   -0.1868
   83          1.40700457         20.82650304          9.36329130    0.2010    0.2027   -0.1925
   83          5.32350911         20.87997469          9.34249600    0.2018    0.2031   -0.1944
   83          9.23899448         20.92695782          9.31741657    0.2014    0.1964   -0.1975
   83         13.14637362         20.98863783          9.29840373    0.1943    0.2042   -0.1941
   83         17.06966733         21.02530187          9.27588853    0.2050    0.1887   -0.1923
   83         20.97265624         21.08674736          9.25159087    0.1986    0.1976   -0.1818
   83         24.90394643         21.12309870          9.20224505    0.2150    0.1679   -0.1862
   83         28.80568099         21.15960639          9.15934108    0.1991   -0.0220   -0.0190
   83         32.73783354         21.11856455          9.15355592    0.2072   -0.2102    0.1703
   83         36.67484671         21.05493017          9.17541443    0.2080   -0.2033    0.1926
   83         40.59610209         21.00098947          9.19439600    0.1987   -0.2058    0.1924
   83         44.52856823         20.96909410          9.22141424    0.2057   -0.1952    0.1978
   83         48.44598217         20.91616968          9.23886353    0.1977   -0.2096    0.1945
   83         52.38213297         20.89373348          9.26141000    0.2063   -0.1946    0.1955
   83         56.30401553         20.84768845          9.28326851    0.1991   -0.2037    0.1959
   83         60.23656007         20.82017087          9.31413310    0.2113   -0.1902    0.1947
   83         64.14448798         20.76630835          9.34405956    0.2031   -0.1767    0.1769
   83         68.04857445         20.71940340          9.39750190    0.1960    0.0195    0.0169
   83         71.96990824         20.74121420          9.40494442    0.2062    0.2155   -0.1688
   83         75.88136401         20.78507033          9.37911448    0.1973    0.2108   -0.1925
   83          1.39410828         24.74760083          9.33370882    0.1880    0.2113   -0.1910
   83          5.31905616         24.79036251          9.31153760    0.2000    0.2015   -0.1972
   83          9.22394228         24.84735203          9.29540170    0.1908    0.2063   -0.1921
   83         13.14261057         24.88925379          9.27279269    0.1952    0.1941   -0.1919
   83         17.05626146         24.94991753          9.25265409    0.1961    0.1996   -0.1888
   83         20.97171548         24.99150659          9.21481604    0.2064    0.1795   -0.1950
   83         24.88897262         25.05146675          9.20108802    0.2159    0.1631   -0.1692
   83         28.79674375         25.07898433          9.13044657    0.2020   -0.0327   -0.0315
   83         32.74418369         25.02262021          9.12572463    0.2101   -0.2193    0.1650
   83         36.67790418         24.94976118          9.14014061    0.2026   -0.2121    0.1845
   83         40.60684247         24.90871934          9.16193658    0.2061   -0.2008    0.1897
   83         44.52253167         24.85493500          9.17741578    0.2014   -0.2125    0.1882
   83         48.44958843         24.82460313          9.20340208    0.2073   -0.2037    0.1963
   83         52.37609641         24.77660372          9.21672358    0.2084   -0.2128    0.1912
   83         56.32392834         24.75674729          9.24493012    0.2238   -0.1971    0.2004
   83         60.23632488         24.72555550          9.27369955    0.2052   -0.1886    0.1973
   83         64.17631712         24.68560811          9.30697202    0.2171   -0.1551    0.1864
   83         68.05625735         24.63315274          9.36604315    0.1823    0.0395    0.0337
   83         71.97218175         24.63792141          9.36160266    0.1923    0.2125   -0.1705
   83         75.89437790         24.69491093          9.34993853    0.2029    0.2135   -0.1867
   83          1.40578942         28.65548705          9.30850430    0.1986    0.2051   -0.1842
   83          5.29708936         28.71122577          9.28792791    0.1790    0.2114   -0.1919
   83          9.22464785         28.75312753          9.27632632    0.1947    0.2041   -0.1840
   83         13.12512807         28.80323765          9.24755690    0.1808    0.2026   -0.1924
   83         17.05978932         28.85092436          9.24124013    0.2032    0.1935   -0.1805
   83         20.96254304         28.91792027          9.22050738    0.2098    0.1820   -0.1755
   83         24.85761387         28.94528149          9.17260003    0.2168    0.1123   -0.1948
   83         28.75244951         28.98804317          9.13679460    0.1910   -0.0559   -0.0409
   83         32.76472368         28.91784209          9.10442900    0.2385   -0.2340    0.1289
   83         36.69711142         28.86390139          9.13201012    0.2173   -0.2106    0.1797
   83         40.61037033         28.81128967          9.13254173    0.2107   -0.2169    0.1726
   83         44.51555435         28.77345301          9.16109226    0.2048   -0.2104    0.1893
   83         48.44355187         28.72029406          9.15511948    0.2189   -0.2225    0.1713
   83         52.35986825         28.69363641          9.18751635    0.2160   -0.2060    0.1916
   83         56.29954691         28.65376720          9.18929881    0.2221   -0.2009    0.1825
   83         60.26635088         28.63930484          9.23010761    0.2376   -0.1659    0.2011
   83         64.18791986         28.57707760          9.25900212    0.2135   -0.1444    0.1890
   83         68.08534259         28.53071987          9.30537719    0.1867    0.0574    0.0263
   83         72.00299172         28.55667395          9.33893110    0.2025    0.2316   -0.1459
   83         75.87172120         28.61553966          9.31106853    0.1743    0.2185   -0.1906
   83          1.37369374         32.58205708          9.24921427    0.1902    0.2153   -0.1758
   83          5.30496824         32.62458424          9.28173623    0.2110    0.2103   -0.1369
   83          9.19571940         32.66812767          9.22823135    0.1878    0.2103   -0.1779
   83         13.12787196         32.70971673          9.26331754    0.2030    0.2096   -0.1334
   83         17.02341317         32.75998320          9.20712334    0.1837    0.2058   -0.1841
   83         20.93392818         32.81509652          9.21869366    0.1980    0.1639   -0.1724
   83         24.83182129         32.87075707          9.20396496    0.2290    0.0632   -0.1810
   83         28.70219710         32.85082246          9.14042205    0.1976   -0.1334   -0.1332
   83         32.73281614         32.80587188          9.15527583    0.2606   -0.2322    0.0141
   83         36.68292158         32.77233484          9.11653092    0.2538   -0.2158    0.0106
   83         40.59892438         32.74473909          9.15343084    0.2457   -0.2073    0.0453
   83         44.50269726         32.68954760          9.13329224    0.2387   -0.2199    0.0195
   83         48.41658334         32.66249907          9.16168641    0.2465   -0.2015    0.0499
   83         52.34238575         32.59698849          9.14326773    0.2616   -0.2198    0.0409
   83         56.25674221         32.55649388          9.16597056    0.2520   -0.2001    0.0809
   83         60.23373778         32.52553661          9.17241240    0.2520   -0.1424    0.1410
   83         64.21708350         32.48160230          9.22075755    0.2198   -0.0748    0.2244
   83         68.14351308         32.41101035          9.27488785    0.2162    0.0541    0.0963
   83         71.98723395         32.48988884          9.26087839    0.1960    0.2310   -0.1312
   83         75.88355913         32.53655927          9.29496391    0.2045    0.2135   -0.1350
   83          1.41584774         36.50424931          9.25634408    0.2185    0.2092    0.0458
   83          5.32782878         36.56319320          9.23145227    0.2181    0.2248    0.0213
   83          9.24518784         36.59782469          9.24527410    0.2123    0.2240    0.0389
   83         13.15272377         36.61877557          9.22413483    0.2000    0.2080    0.0199
   83         17.02835217         36.68178456          9.23464193    0.1539    0.2474   -0.0013
   83         20.93714245         36.71555613          9.23507972    0.1890    0.1241   -0.1187
   83         24.73539313         36.73642883          9.23076431    0.1471   -0.0813   -0.1983
   83         28.72038518         36.73869591          9.21522256    0.2219   -0.1649   -0.1789
   83         32.66484604         36.69999932          9.17206842    0.2131   -0.2111   -0.1777
   83         36.63611864         36.68733498          9.18410780    0.2384   -0.2014   -0.1385
   83         40.54294900         36.65082729          9.15930981    0.2151   -0.2097   -0.1573
   83         44.47753186         36.62104265          9.18320094    0.2304   -0.2012   -0.1317
   83         48.37856085         36.56061343          9.16087336    0.2219   -0.2157   -0.1450
   83         52.29636678         36.53403396          9.15765244    0.2323   -0.1924   -0.1241
   83         56.23886772         36.46164398          9.14039078    0.2563   -0.2040   -0.0968
   83         60.16561089         36.38886312          9.12663149    0.2024   -0.1145    0.0463
   83         64.23919142         36.39324092          9.17603985    0.2389    0.0532    0.2186
   83         68.15558620         36.41505172          9.20831165    0.2134    0.1670    0.1501
   83         72.02125820         36.43334466          9.24786961    0.2117    0.2172    0.0676
   83         75.91037086         36.48017143          9.22579220    0.2136    0.2225    0.0169
   83          1.41587910         40.45067577          9.25600010    0.1861    0.2200    0.1915
   83          5.33650731         40.48444734          9.26469347    0.1918    0.2147    0.1947
   83          9.24534463         40.52384750          9.26707007    0.1789    0.2189    0.1933
   83         13.15248858         40.55847899          9.27069752    0.1757    0.2138    0.1926
   83         17.03054728         40.55511747          9.27025973    0.1502    0.1995    0.1442
   83         20.90829240         40.67605407          9.30265660    0.1648    0.1018   -0.0257
   83         24.80383361         40.65533772          9.28508224    0.1958   -0.1492   -0.1967
   83         28.72383464         40.60561847          9.27094769    0.1913   -0.1968   -0.1945
   83         32.69377450         40.60335139          9.25052765    0.2215   -0.1916   -0.1884
   83         36.60679821         40.57747550          9.22544822    0.1957   -0.2007   -0.1894
   83         40.56019632         40.56066789          9.22013213    0.2180   -0.1919   -0.1782
   83         44.46200928         40.50711806          9.20537216    0.1970   -0.2086   -0.1825
   83         48.39910084         40.48077312          9.20562233    0.2157   -0.1927   -0.1717
   83         52.29965945         40.41393356          9.19095618    0.2003   -0.2104   -0.1655
   83         56.26591464         40.37789492          9.16049811    0.2336   -0.1929   -0.1527
   83         60.22887717         40.27790919          9.14014061    0.2279   -0.0705    0.0207
   83         64.19646512         40.27595482          9.18670330    0.2167    0.1289    0.2101
   83         68.12007241         40.30910099          9.21838095    0.1973    0.1702    0.1993
   83         72.00111020         40.36687225          9.23776904    0.1735    0.2116    0.1919
   83         75.90096323         40.40205097          9.25281044    0.1774    0.2088    0.1957
   83          1.40451939         44.35543500          9.28971036    0.1891    0.1950    0.1947
   83          5.30888809         44.41234634          9.30415762    0.1796    0.2107    0.1970
   83          9.22676457         44.46198742          9.30265660    0.1860    0.2168    0.1846
   83         13.12646081         44.52218211          9.31797945    0.1818    0.2345    0.1855
   83         17.04262040         44.54391474          9.32698553    0.2001    0.2277    0.1606
   83         20.94435496         44.58925619          9.35050141    0.2087    0.0476   -0.0123
   83         24.84334564         44.56924341          9.34487261    0.2068   -0.1759   -0.1857
   83         28.75284149         44.52968690          9.31923029    0.1975   -0.1879   -0.1967
   83         32.67613520         44.48942681          9.29305637    0.1945   -0.2045   -0.1990
   83         36.61158042         44.47324460          9.26610067    0.2026   -0.1981   -0.1994
   83         40.53769641         44.43603334          9.25493688    0.2015   -0.2053   -0.1902
   83         44.47282805         44.40445067          9.23948895    0.2114   -0.1990   -0.1891
   83         48.38318627         44.35684214          9.22820008    0.1978   -0.2057   -0.1833
   83         52.32121859         44.31970906          9.20818656    0.2085   -0.1963   -0.1832
   83         56.27006968         44.24059603          9.19958700    0.2132   -0.2258   -0.1572
   83         60.24000953         44.16414096          9.16149879    0.2284   -0.0608    0.0014
   83         64.17255407         44.18470096          9.19683515    0.2129    0.1673    0.1948
   83         68.06958482         44.23356029          9.22841897    0.1836    0.1898    0.1935
   83         71.98104059         44.28218509          9.25700077    0.1886    0.2021    0.1944
   83         75.88363752         44.32877735          9.27341811    0.1834    0.2081    0.1924
   83          1.37842107         48.28927529          9.32657901    0.1840    0.2064    0.1979
   83          5.30310240         48.33203698          9.34371558    0.1945    0.2041    0.1988
   83          9.21437786         48.39574954          9.34781209    0.1901    0.2230    0.1897
   83         13.14417851         48.42975563          9.36072706    0.2048    0.2149    0.1846
   83         17.05782940         48.47595701          9.37038984    0.2008    0.2267    0.1633
   83         20.97022594         48.51316827          9.40872823    0.2062    0.0379    0.0009
   83         24.86788386         48.48729237          9.39118513    0.2024   -0.1863   -0.1902
   83         28.77048079         48.43718225          9.37154687    0.1910   -0.2030   -0.1928
   83         32.69667518         48.40974285          9.34233965    0.1990   -0.1970   -0.1990
   83         36.61369714         48.37346968          9.31776055    0.1971   -0.2009   -0.1970
   83         40.53808840         48.33446040          9.29809102    0.2010   -0.2017   -0.1949
   83         44.46295004         48.28794632          9.28011013    0.2014   -0.2070   -0.1950
   83         48.39376985         48.25104776          9.26985320    0.2043   -0.2026   -0.1864
   83         52.31596600         48.19413641          9.25718840    0.1955   -0.2135   -0.1781
   83         56.28159402         48.15684697          9.23329727    0.2197   -0.2044   -0.1677
   83         60.22189985         48.07757760          9.20390242    0.2201   -0.0438    0.0034
   83         64.13429639         48.08938201          9.22479152    0.2049    0.1704    0.1882
   83         68.05500300         48.14965488          9.25637535    0.2041    0.1924    0.1929
   83         71.95148497         48.20078128          9.28154860    0.1858    0.2018    0.1935
   83         75.87078043         48.24025962          9.30787888    0.1928    0.2000    0.1988
   83          1.37015804         52.19473809          9.36992077    0.1972    0.1975    0.2002
   83          5.28834810         52.24899149          9.38017770    0.1961    0.2089    0.1934
   83          9.22206076         52.29206587          9.39374936    0.2043    0.2112    0.1923
   83         13.14425691         52.33811090          9.40697704    0.2005    0.2155    0.1861
   83         17.08127007         52.36523760          9.41513881    0.2115    0.2026    0.1613
   83         20.98363180         52.42386879          9.45188237    0.1994    0.0282   -0.0023
   83         24.88677751         52.41433145          9.43646571    0.1972   -0.1828   -0.1877
   83         28.80489702         52.37571304          9.40997907    0.2026   -0.1873   -0.1940
   83         32.70968906         52.32106877          9.37983372    0.1931   -0.2031   -0.2003
   83         36.63266918         52.29011150          9.35516081    0.1989   -0.1957   -0.2015
   83         40.54553610         52.23765612          9.33933762    0.1941   -0.2057   -0.1970
   83         44.46898660         52.19661429          9.32226359    0.2005   -0.2003   -0.1961
   83         48.38867405         52.13446523          9.30709710    0.1975   -0.2179   -0.1926
   83         52.32905828         52.10233533          9.29299383    0.2107   -0.2037   -0.1844
   83         56.26795296         52.04534581          9.28777155    0.2138   -0.2184   -0.1554
   83         60.20426055         51.99218687          9.24405453    0.2200   -0.0381    0.0028
   83         64.11336442         52.01149607          9.26378661    0.2108    0.1778    0.1907
   83         68.01933242         52.06754749          9.28583274    0.1969    0.1918    0.1894
   83         71.94090139         52.11023100          9.31891758    0.2012    0.1932    0.1968
   83         75.84812373         52.16104470          9.34631108    0.1937    0.2050    0.1984
   83          1.35509799         56.10152987          9.41198042    0.1939    0.2006    0.1984
   83          5.28791692         56.13592683          9.42733454    0.2033    0.1974    0.1962
   83          9.20779252         56.18838220          9.43815435    0.1950    0.2103    0.1905
   83         13.15139102         56.22918951          9.45188237    0.2085    0.2071    0.1864
   83         17.07711503         56.27632899          9.46708013    0.2010    0.2089    0.1703
   83         21.01404980         56.34567015          9.49194067    0.2139    0.0390   -0.0015
   83         24.92566237         56.33183319          9.47755595    0.2110   -0.1809   -0.1820
   83         28.82339869         56.28594451          9.44034332    0.1925   -0.1968   -0.1968
   83         32.74042064         56.24920230          9.41091720    0.1979   -0.1936   -0.2024
   83         36.64333116         56.20057749          9.39334284    0.1879   -0.2015   -0.1993
   83         40.57211265         56.16539878          9.37004586    0.2013   -0.1953   -0.2039
   83         44.47737507         56.09887192          9.35950749    0.1939   -0.2142   -0.1990
   83         48.40059038         56.05431221          9.34918802    0.2040   -0.2111   -0.1922
   83         52.30773432         55.98958338          9.34221456    0.1958   -0.2262   -0.1763
   83         56.25439030         55.97043052          9.32451511    0.2151   -0.2054   -0.1610
   83         60.18136866         55.91109575          9.29380688    0.2172   -0.0372    0.0080
   83         64.08906139         55.93095218          9.30747235    0.2102    0.1766    0.1914
   83         68.00733769         55.98411113          9.33227035    0.2087    0.1882    0.1974
   83         71.91526561         56.02804544          9.35806902    0.1976    0.1941    0.1969
   83         75.83471787         56.05743921          9.38962158    0.1979    0.1906    0.1983
   83          1.36551694         59.99432833          9.45500948    0.2072    0.1976    0.1959
   83          5.28518871         60.03763724          9.46592310    0.2023    0.2051    0.1903
   83          9.21649458         60.07007983          9.47624257    0.2084    0.1971    0.1858
   83         13.13665241         60.13097809          9.48753144    0.2019    0.2129    0.1813
   83         17.09091288         60.16467148          9.50132200    0.2199    0.1990    0.1641
   83         21.02557414         60.25879409          9.52080391    0.2165    0.0564   -0.0090
   83         24.94259609         60.25449447          9.49331659    0.1999   -0.1578   -0.1962
   83         28.86024522         60.21353081          9.46895640    0.1954   -0.1838   -0.1947
   83         32.75053384         60.15701034          9.43887358    0.1806   -0.2070   -0.2000
   83         36.66959411         60.12847650          9.42777234    0.1916   -0.1933   -0.1941
   83         40.57838440         60.06976713          9.40888458    0.1882   -0.2111   -0.1988
   83         44.49666070         60.04185868          9.40087918    0.1940   -0.1968   -0.1952
   83         48.40427503         59.97572270          9.38865217    0.1921   -0.2185   -0.1930
   83         52.31886668         59.92850504          9.38586904    0.2036   -0.2145   -0.1759
   83         56.23283116         59.87878579          9.37758220    0.2092   -0.2231   -0.1483
   83         60.15275380         59.82437605          9.33752390    0.2170   -0.0520    0.0104
   83         64.06350400         59.85416069          9.36113359    0.2132    0.1703    0.1977
   83         67.97409741         59.90958671          9.37801999    0.2021    0.1895    0.1951
   83         71.90013501         59.93647888          9.40991653    0.2010    0.1888    0.2011
   83         75.83166039         59.96665441          9.43324478    0.2030    0.1967    0.1957
   83          1.36081313         63.88822124          9.48993931    0.2004    0.2006    0.1900
   83          5.29857106         63.91753683          9.49697532    0.2144    0.1936    0.1855
   83          9.20512703         63.96874141          9.50741987    0.2030    0.2033    0.1861
   83         13.13931790         64.00532727          9.51354901    0.2202    0.1911    0.1779
   83         17.05633986         64.07724820          9.52333687    0.2098    0.2111    0.1535
   83         21.02455498         64.15041993          9.55207502    0.2305    0.0691   -0.0085
   83         24.98328408         64.14690206          9.52490042    0.2267   -0.1328   -0.1872
   83         28.89262314         64.13048533          9.49206575    0.1941   -0.1666   -0.1897
   83         32.78479328         64.07967163          9.45904345    0.1814   -0.2064   -0.1999
   83         36.68394074         64.02354203          9.46676742    0.1824   -0.2214   -0.1813
   83         40.59947316         63.99696256          9.44021824    0.1944   -0.2077   -0.1972
   83         44.50536276         63.95021395          9.44772331    0.1877   -0.2147   -0.1827
   83         48.42991081         63.92371265          9.43243173    0.1976   -0.2035   -0.1922
   83         52.31972905         63.85108815          9.44478382    0.1846   -0.2299   -0.1723
   83         56.22844093         63.83091902          9.41226186    0.1934   -0.2086   -0.1660
   83         60.11457452         63.75634014          9.41182407    0.1939   -0.0590    0.0392
   83         64.03567311         63.78229422          9.39575071    0.2218    0.1615    0.1834
   83         67.94305225         63.80746654          9.43274444    0.2027    0.1687    0.1984
   83         71.88876746         63.84123811          9.46060701    0.2059    0.1955    0.1992
   83         75.84028405         63.84827385          9.47458520    0.2149    0.1867    0.1904
   83          1.38365014         67.76272677          9.50366733    0.2468    0.1854    0.1252
   83          5.26753373         67.81729287          9.53572023    0.2129    0.2003    0.1513
   83          9.19846329         67.84035447          9.51952179    0.2352    0.1786    0.1267
   83         13.09549404         67.91829487          9.54044217    0.2233    0.2047    0.1329
   83         17.04034689         67.93439890          9.53991056    0.2523    0.1603    0.1006
   83         20.98339661         68.01812424          9.54635241    0.2316    0.0839   -0.0455
   83         24.98986941         68.05494463          9.51361155    0.2190   -0.0309   -0.2141
   83         28.92421708         68.02289291          9.46833097    0.2112   -0.1550   -0.1643
   83         32.79663121         67.99357732          9.47624257    0.2100   -0.2212   -0.0389
   83         36.69154524         67.97270461          9.45504075    0.2122   -0.1958   -0.0394
   83         40.59422057         67.91063372          9.46651725    0.2158   -0.2163   -0.0244
   83         44.51014497         67.88053638          9.45388372    0.2200   -0.2015   -0.0368
   83         48.41258510         67.82909728          9.47633638    0.2030   -0.2164   -0.0167
   83         52.33352690         67.81150792          9.46689250    0.2081   -0.1959   -0.0273
   83         56.20680339         67.74224494          9.49628735    0.1675   -0.2149    0.0200
   83         60.13166504         67.67712523          9.47705561    0.2132   -0.0976    0.1131
   83         63.96605667         67.65695610          9.46404683    0.1866    0.0655    0.1885
   83         67.89107511         67.70792615          9.48765652    0.1978    0.1708    0.1747
   83         71.90648516         67.70261025          9.49725676    0.2580    0.1788    0.1430
   83         75.82287994         67.74115049          9.52327432    0.2218    0.1950    0.1526
   83          1.39230516         71.69109482          9.56336389    0.2441    0.2200   -0.0238
   83          5.30604228         71.71196753          9.54025454    0.2461    0.1961   -0.0444
   83          9.20253993         71.78654640          9.55535849    0.2371    0.2235   -0.0283
   83         13.13422210         71.80952983          9.52777736    0.2580    0.1964   -0.0588
   83         17.05414474         71.88270156          9.52527568    0.2585    0.2085   -0.0715
   83         20.99586172         71.91373700          9.50504326    0.2349    0.1426   -0.1433
   83         24.99692513         71.92984104          9.47736833    0.2294    0.0581   -0.2170
   83         28.90383389         71.99910402          9.44337662    0.2012   -0.0580   -0.0653
   83         32.78228458         71.93288986          9.40985399    0.2064   -0.2224    0.1120
   83         36.66191122         71.88379601          9.44512781    0.1899   -0.2053    0.1729
   83         40.59492614         71.84431767          9.41226186    0.2181   -0.1991    0.1329
   83         44.47745346         71.78553013          9.46367158    0.1906   -0.2084    0.1766
   83         48.42473662         71.75738716          9.43305715    0.2209   -0.1927    0.1363
   83         52.30687196         71.70774608          9.49334787    0.1792   -0.2031    0.1867
   83         56.25015687         71.64481527          9.46517259    0.2046   -0.2081    0.1478
   83         60.14530609         71.57766301          9.49162795    0.2115   -0.1539    0.1713
   83         64.01928816         71.55663395          9.50057149    0.2186   -0.0403    0.1855
   83         67.86661528         71.53325965          9.52124170    0.1653    0.0871    0.0951
   83         71.93611918         71.61354530          9.56461474    0.2769    0.2303    0.0095
   83         75.85862892         71.63199458          9.54669639    0.2426    0.1987   -0.0361
   83          1.40373542         75.58436233          9.54894791    0.2173    0.2085   -0.1838
   83          5.31377221         75.64346257          9.55720348    0.2125    0.2197   -0.1641
   83          9.22833251         75.67004205          9.52230492    0.2146    0.2020   -0.1851
   83         13.15256698         75.72757879          9.53059176    0.2228    0.2144   -0.1635
   83         17.08667945         75.74634077          9.48312221    0.2301    0.1827   -0.1982
   83         21.01412819         75.79613820          9.47352198    0.2141    0.1727   -0.1885
   83         24.98046179         75.84734277          9.43396402    0.2280    0.1437   -0.1963
   83         28.87796292         75.88424134          9.38117837    0.1928   -0.0527   -0.0368
   83         32.79247617         75.86415038          9.38324227    0.1972   -0.2171    0.1716
   83         36.69287799         75.79746717          9.38702607    0.1916   -0.2123    0.1872
   83         40.59273103         75.74407370          9.40844679    0.1836   -0.2126    0.1974
   83         44.51814145         75.70436084          9.42036108    0.1996   -0.2017    0.1947
   83         48.41752410         75.65268722          9.44262612    0.1846   -0.2036    0.1978
   83         52.34677597         75.60898743          9.45269542    0.1946   -0.2003    0.1874
   83         56.25007847         75.56012811          9.47539825    0.1849   -0.1931    0.1918
   83         60.17156905         75.50196596          9.51429951    0.2090   -0.1677    0.2073
   83         64.05331241         75.45615546          9.50895215    0.1994   -0.1211    0.1817
   83         67.97284306         75.43270298          9.57387099    0.2082    0.0616    0.0643
   83         71.93196415         75.48031151          9.56705389    0.2237    0.2237   -0.1421
   83         75.86686059         75.54848004          9.57602870    0.2101    0.2193   -0.1604
