POSCAR file written by OVITO Basic 3.10.6
1.0
       78.2340621948         0.0000000000         0.0000000000
        0.0000000000        78.2208175659         0.0000000000
        0.0000000000         0.0000000000        31.2566814423
   Al   Bi   Ga    O
 1600 3200 1600 9600
Cartesian
     2.017210530         1.955215378         2.129852153
     5.970096050         1.978728556         2.081594963
     9.877676225         2.009062589         2.057646093
    13.765048541         2.003892193         2.056995954
    17.732610771         2.005761670         2.073180664
    21.639228667         1.994560449         2.092094082
    25.555625820         1.995538209         2.128145538
    29.443232839         2.007459062         2.153094621
    33.369878655         1.986433306         2.210381867
    37.270003123         1.948832559         2.214785934
    41.160348334         1.919726593         2.264630964
    45.074241997         1.917317392         2.275514540
    48.963100761         1.873028765         2.310781454
    52.855245355         1.869149012         2.352665407
    56.729865519         1.817898733         2.357935283
    60.700478878         1.862304691         2.358125949
    64.617188968         1.878512044         2.288945536
    68.504717752         1.891840872         2.258514031
    72.411883286         1.938139773         2.222765764
    76.341032592         1.965571814         2.178281255
     2.028139828         5.855524360         2.125026122
     5.986642554         5.903536298         2.063816162
     9.856396560         5.956304061         2.010917355
    13.756286326         5.999959100         2.042299063
    17.669788819         5.945071552         2.060231021
    21.586185973         5.960598384         2.086070919
    25.510328298         5.933283675         2.083248441
    29.422657281         5.940393947         2.121728542
    33.313393662         5.912758532         2.150287771
    37.241604158         5.900477864         2.203517900
    41.128428836         5.864457177         2.244398514
    45.033638519         5.880273427         2.272882727
    48.940882287         5.827576062         2.314944844
    52.864320506         5.773940047         2.313316371
    56.744729991         5.733030560         2.360395184
    60.716751563         5.747767362         2.327466270
    64.625012374         5.776364893         2.288404795
    68.530378525         5.819957354         2.248255588
    72.412822095         5.862055798         2.195966286
    76.368962152         5.856861936         2.137978890
     2.067890555         9.787145135         2.097554624
     5.970424633         9.819763216         2.047425159
     9.868444605         9.882183429         1.997692653
    13.721237466         9.881479441         2.025895556
    17.653281432         9.887111340         2.034397374
    21.566470989         9.864427303         2.067929542
    25.496480869         9.840257071         2.099270616
    29.401299382         9.825004011         2.117462005
    33.291331656         9.828367506         2.141489016
    37.220480962         9.782921211         2.192456160
    41.102063957         9.770014776         2.234358868
    45.014705876         9.760784720         2.248146190
    48.935562371         9.729339951         2.273829805
    52.864320506         9.718076154         2.303761203
    56.772503083         9.648381405         2.335517991
    60.715186882         9.675602250         2.303014168
    64.644492655         9.687491814         2.271757487
    68.526466821         9.726211119         2.239778776
    72.462031320         9.726054677         2.166678775
    76.361686384         9.760862941         2.150600338
     2.066912630        13.731586303         2.080416586
     5.970800156        13.736201331         2.029652609
     9.852719559        13.776719715         1.989847226
    13.716934593        13.808868471         1.987252921
    17.633722917        13.772574011         2.024285837
    21.549885368        13.781100080         2.066269812
    25.462057882        13.730804095         2.065747825
    29.385496101        13.739251943         2.118352820
    33.290236379        13.736827098         2.142695524
    37.219542153        13.723607779         2.179375239
    41.102768064        13.687626203         2.191715377
    45.015566451        13.667445232         2.232564734
    48.901530554        13.632636969         2.271760613
    52.850551311        13.611204465         2.282050312
    56.762802060        13.547767382         2.300957479
    60.708928157        13.553712164         2.308615366
    64.608426753        13.575379330         2.265381124
    68.551501721        13.608701398         2.210975744
    72.441377528        13.638034205         2.177074747
    76.380775495        13.677222835         2.121659777
     2.054270005        17.610087321         2.060724876
     5.946109486        17.654360304         2.000311963
     9.828075829        17.720926220         1.961262990
    13.687205649        17.720535115         1.997414468
    17.657819008        17.696052000         2.014774429
    21.542218430        17.667344960         2.041511394
    25.472306544        17.639733011         2.072818087
    29.351229582        17.645756014         2.096623175
    33.322547047        17.642940064         2.134946992
    37.184180357        17.627452343         2.169651286
    41.105193320        17.619004494         2.173542742
    44.990922721        17.550326616         2.210694434
    48.941195223        17.537029077         2.228535748
    52.847187247        17.485716221         2.288160993
    56.769060784        17.445667163         2.300944976
    60.704703517        17.492756095         2.292093084
    64.623838863        17.502455476         2.245548760
    68.501431922        17.537811286         2.177371686
    72.453973212        17.556506061         2.155529517
    76.365363385        17.576999915         2.100436490
    56.758342718        21.341846086         2.276861703
    60.690699620        21.378844532         2.252734671
     2.015066917        21.551399656         2.044352627
     5.951523284        21.568217132         1.968358257
     9.831439894        21.600365888         1.928821681
    13.718342806        21.651052977         1.958287354
    17.600864610        21.601304537         1.993844955
    21.551137113        21.610143490         2.012652100
    25.467456032        21.594186443         2.042536614
    29.366798160        21.558674192         2.069232945
    33.255187519        21.522927278         2.095819878
    37.199123063        21.538962546         2.142489229
    41.088138294        21.502902749         2.160002348
    44.999841404        21.487571469         2.195031711
    48.909197492        21.444315357         2.241763575
    52.853289504        21.407708014         2.261520924
    64.599273367        21.418424266         2.232283424
    68.534837866        21.408959547         2.165431634
    72.447166848        21.478263191         2.123191354
    76.366458662        21.498209500         2.088927780
     2.050256598        25.469636849         2.006778970
     5.940640926        25.489192054         1.945334586
     9.836290406        25.541443560         1.929734376
    13.704260675        25.537845402         1.924164435
    17.621205467        25.532448166         1.946047238
    21.542453132        25.494823953         1.995414041
    25.451261581        25.505070880         2.017593782
    29.392537167        25.472687461         2.074434057
    33.302832063        25.458607714         2.095013456
    37.194116083        25.405104675         2.114001890
    41.076481419        25.437409872         2.135150161
    44.996320871        25.381716650         2.156304683
    48.932041838        25.350350102         2.209584822
    52.830679860        25.290667619         2.228310700
    56.771720743        25.257501992         2.254006818
    60.675209276        25.282376212         2.241491642
    64.623760629        25.326336311         2.167835272
    68.539140740        25.364038746         2.137419396
    72.439499910        25.378040272         2.093428742
    76.363172831        25.412457432         2.017618787
     2.030009622        29.357446145         1.995989164
     5.936588401        29.401640907         1.940592947
     9.808908484        29.460306520         1.899918627
    13.720063955        29.472430747         1.899737339
    17.619014913        29.439421562         1.953492579
    21.539871408        29.436058066         1.978451040
    25.437179450        29.397025878         1.981701734
    29.376420950        29.384275885         2.020694445
    33.284055888        29.364173135         2.061846991
    37.180503356        29.359714548         2.101214782
    41.077733164        29.318179294         2.139973067
    44.994286786        29.316301995         2.144258358
    48.898166489        29.267101100         2.180209793
    52.842180267        29.247389454         2.217423998
    56.735498372        29.153524473         2.232505346
    60.670906402        29.170654832         2.220827850
    64.598725729        29.235265228         2.177443576
    68.530691461        29.257088836         2.100920969
    72.440360485        29.300579610         2.060990558
    76.371778578        29.334292783         2.028499238
     2.022835559        33.276465546         1.983577135
     5.936791810        33.323945583         1.936492070
     9.803823270        33.367358136         1.900893836
    13.696280800        33.365637278         1.916603444
    17.603759271        33.345378087         1.911921193
    21.524772234        33.341858150         1.945165800
    25.417386232        33.313307552         1.953920796
    29.373135119        33.269425673         2.006272612
    33.267079097        33.287885786         2.052820062
    37.178938675        33.250026910         2.100745931
    41.098074020        33.251434885         2.088852764
    44.993191509        33.220146558         2.151081691
    48.909353960        33.204189511         2.144217724
    52.828098135        33.118537716         2.186132934
    56.766948465        33.074264733         2.213938878
    60.661518315        33.096166562         2.218458594
    64.606627369        33.144272365         2.155685800
    68.508629455        33.185025411         2.082091944
    72.448653296        33.194411909         2.055439372
    76.348855998        33.256362796         1.996770581
     2.010936158        37.185629125         1.957918526
     5.913337238        37.220202726         1.896458513
     9.797251609        37.264162826         1.864789243
    13.698236652        37.273783987         1.889913364
    17.631141192        37.256262523         1.919985417
    21.532908576        37.257592277         1.926011705
    25.405885825        37.215353036         1.967014220
    29.362651755        37.187037100         2.003675182
    33.252292859        37.175225756         2.014627523
    37.183476250        37.187115321         2.069995608
    41.055358222        37.150351536         2.082345123
    45.016427025        37.149569328         2.108088126
    48.898322957        37.114682844         2.126745239
    52.860174101        37.050619994         2.165725446
    56.745825268        37.003296399         2.197629141
    60.685927342        37.017297926         2.181794506
    64.602480964        37.053983489         2.128573755
    68.525136842        37.084411387         2.070905178
    72.431989440        37.114057077         2.046668747
    76.339624379        37.172957353         1.996614297
     2.013220593        41.089551909         1.945959719
     5.922122923        41.152128563         1.884759137
     9.799989801        41.188266581         1.847898133
    13.697297843        41.192255842         1.849135897
    17.603602803        41.194054921         1.872431502
    21.493322141        41.142663844         1.905232263
    25.405494655        41.118650053         1.932409948
    29.327211725        41.098234420         1.971627706
    33.247051177        41.100268161         1.991866407
    37.163370096        41.089551909         2.025623623
    41.071552673        41.074298850         2.066976213
    44.998042021        41.047234447         2.099164343
    48.916864430        41.029947646         2.121506619
    52.864633443        40.994435395         2.158923993
    56.772190147        40.922628684         2.177040365
    60.666368827        40.929746779         2.158611426
    64.604358581        40.959001364         2.116227366
    68.516922266        41.010157779         2.057011583
    72.474627004        41.054743645         2.020431888
    76.337512059        41.063973702         1.965216961
     2.024032540        45.012795235         1.905929287
     5.954738704        45.038686325         1.880045629
     9.781448328        45.076623422         1.832819909
    13.681807499        45.098994576         1.833238749
    17.554158875        45.067549807         1.870306047
    21.502240824        45.065516066         1.859775671
    25.408467549        45.033758414         1.889260099
    29.341997962        45.029769152         1.962666415
    33.242670069        45.019678667         1.991288159
    37.168142374        45.000514566         2.024207696
    41.078593739        44.988390340         2.037551173
    45.014862344        44.971416422         2.073068140
    48.890968956        44.945994657         2.116999406
    52.849925439        44.932306014         2.130458533
    56.772659551        44.857918016         2.169801318
    60.685692640        44.852286117         2.131149305
    64.604593284        44.895698671         2.084279912
    68.517469904        44.910638847         2.050450805
    72.423618396        44.949983918         1.999505540
    76.351124786        44.989563652         1.949110393
     2.033162455        48.923601451         1.894801909
     5.911037156        48.933770157         1.830325626
     9.794435182        48.979372894         1.809839997
    13.656068492        48.974757865         1.818169903
    17.581071393        48.982188843         1.840699719
    21.493087439        48.944017084         1.855896717
    25.398766526        48.931579974         1.892423275
    29.302176825        48.901699622         1.959550124
    33.219825723        48.921567709         1.957893520
    37.137239920        48.895520177         1.991122498
    41.075229674        48.878780922         2.012917782
    44.979813484        48.860946576         2.067566964
    48.906459300        48.846475725         2.096876354
    52.857592377        48.820741076         2.137535045
    56.802544963        48.763170554         2.139110382
    60.694846025        48.780613796         2.123500795
    64.623525927        48.835211927         2.085827117
    68.530847929        48.852576948         2.018853426
    72.415716755        48.864779396         1.979735689
    76.321474076        48.885586133         1.946928676
     2.013165829        52.817277307         1.878760980
     5.950897411        52.856857041         1.821917579
     9.804292674        52.879853962         1.799844110
    13.684310989        52.921936761         1.790592133
    17.587408352        52.881731261         1.806798722
    21.483151713        52.854510417         1.858737950
    25.398375355        52.853728208         1.894267419
    29.324082362        52.828150001         1.911877434
    33.188375630        52.809298784         1.958796838
    37.099218165        52.788492047         1.996542407
    41.023204023        52.783955239         2.016502924
    44.979813484        52.789587138         2.072405498
    48.886353146        52.757751265         2.112842267
    52.852898333        52.699398535         2.111523235
    56.778135936        52.681720631         2.119724988
    60.716360393        52.732720604         2.076781434
    64.624151799        52.737179190         2.052613768
    68.553222871        52.735692995         2.017399990
    72.429798887        52.768389297         1.966923575
    76.338529102        52.798504311         1.901794028
     2.058056534        56.647750744         1.841168569
     5.982292740        56.695387222         1.771597447
     9.783638882        56.758667863         1.845347587
    13.690960884        56.756321238         1.808595981
    17.602194589        56.762970008         1.831328966
    21.486672246        56.759919396         1.876844945
    25.399705334        56.723546716         1.927408879
    29.296465738        56.740285971         1.955058539
    33.209107657        56.719948558         1.973681270
    37.126600087        56.666132636         2.000608901
    41.030636259        56.677631096         2.024070166
    44.936080643        56.674424042         2.077053367
    48.912326855        56.689989985         2.102218121
    52.825438177        56.701957770         2.137831984
    56.847998953        56.580246178         2.076672035
    60.783015814        56.581575932         2.068410894
    64.667962874        56.628586643         2.033612831
    68.571920812        56.629838176         1.996670559
    72.472592919        56.653147980         1.942443343
    76.394309988        56.657371904         1.884159009
     2.070511396        60.559730272         1.879039164
     6.009080083        60.556757881         1.850367410
     9.813837230        60.592270132         1.827450012
    13.736493108        60.616049260         1.860053856
    17.628246532        60.627547721         1.895158235
    21.533612683        60.626687292         1.925627248
    25.462761988        60.604472579         1.982876986
    29.364998777        60.603064605         1.999771222
    33.270756098        60.583744063         2.010436002
    37.182459207        60.577329956         2.046703129
    41.085243634        60.549639786         2.079256963
    45.019399920        60.526486424         2.122338047
    48.930946561        60.559104505         2.170998449
    52.892250066        60.566770145         2.201029868
    56.873503258        60.573184252         2.172851970
    60.745854634        60.514753302         2.101996199
    64.690963688        60.515848393         2.066791798
    68.573876663        60.534230285         2.009810868
    72.486909752        60.544477212         1.963819787
    76.392275903        60.554020152         1.913333995
     2.081534576        64.458881586         1.918969575
     5.971840670        64.516608549         1.884715378
     9.842705599        64.524430631         1.913849730
    13.735710768        64.547114668         1.945090783
    17.651951453        64.546019577         1.961985020
    21.566392755        64.537180624         1.980029502
    25.481381695        64.536007312         2.026061217
    29.400282339        64.503936777         2.043193004
    33.295790998        64.497600891         2.082942126
    37.210388768        64.496662241         2.113983136
    41.119431919        64.458568703         2.164531441
    45.060159866        64.438074848         2.193943978
    48.961144909        64.462010419         2.246330177
    52.914781476        64.480705194         2.225622625
    56.820538797        64.432755833         2.193762690
    60.762205553        64.446288034         2.141307727
    64.654741317        64.446209813         2.118584119
    68.576380153        64.437605523         2.082048185
    72.452408531        64.430800312         2.020156830
    76.378272006        64.478906115         1.946512962
     2.048950089        68.388851902         1.954133341
     5.964604019        68.405356494         1.936151373
     9.829249340        68.468402473         1.969383476
    13.769664351        68.442042058         2.009091964
    17.700143635        68.442824266         2.009767109
    21.612394384        68.446265982         2.049694394
    25.513692363        68.418966917         2.079222581
    29.438695263        68.431873352         2.109800992
    33.337567987        68.395109567         2.146324424
    37.262570887        68.444232241         2.174374170
    41.187652022        68.386270615         2.169976355
    45.066887995        68.373989947         2.241935487
    49.002765430        68.372425530         2.268663075
    52.899291132        68.389477669         2.279490390
    56.793469812        68.365150994         2.242519987
    60.752269827        68.315324333         2.218718024
    64.631271099        68.330812055         2.148940609
    68.540236016        68.362804370         2.121941087
    72.449122700        68.384862640         2.078253623
    76.394153520        68.381108041         2.039264039
     2.047933046        72.326722521         2.047087586
     5.948112278        72.351362078         2.015677747
     9.870009286        72.399389660         2.031840577
    13.817856533        72.365285384         2.046081121
    17.733080176        72.376001636         2.064907020
    21.674903399        72.364268513         2.101221033
    25.570803228        72.335326811         2.135884693
    29.495493192        72.327817612         2.153613482
    33.385290765        72.311625903         2.189952500
    37.289952809        72.318274672         2.220074564
    41.206349962        72.303569159         2.255582154
    45.102171558        72.306306887         2.284053865
    49.010432369        72.314050748         2.340259630
    52.899838771        72.310843695         2.336802641
    56.776101850        72.256949551         2.274967548
    60.697505984        72.250535444         2.264340276
    64.596535175        72.256480227         2.237468907
    68.534603164        72.284248617         2.179769073
    72.435118803        72.296607506         2.137663198
    76.374360302        72.318665776         2.099920755
     1.954662397        76.250826276         2.119718737
     5.905130485        76.244177506         2.088340155
     9.947617476        76.295959687         2.100574020
    13.805260849        76.351887572         2.088962162
    17.761322672        76.319895257         2.094016368
    21.688672594        76.309570110         2.105759503
    25.619386581        76.277577795         2.139694882
    29.511374707        76.288528710         2.187983329
    33.419635518        76.298071649         2.220446519
    37.341900226        76.271633013         2.237481410
    41.230993692        76.227047147         2.272282599
    45.130961692        76.216252674         2.295734487
    49.000027238        76.204519552         2.321990100
    52.924717202        76.173231224         2.379077303
    56.698884831        76.178863123         2.319714613
    60.657058973        76.157665282         2.336749505
    64.572673786        76.188093180         2.278655836
    68.488210365        76.195133053         2.236415557
    72.410709775        76.240344686         2.198688743
    76.293857452        76.231192850         2.144996015
     2.022053218         1.934885787         5.918546401
     5.954644823         1.969459389         5.852469777
     9.853893070         2.020342031         5.817649833
    13.784372354         2.017831142         5.828089565
    17.707497637         2.015507984         5.844905660
    21.621156598         1.989577783         5.885820656
    25.545064222         1.961465221         5.894885093
    29.463182525         1.970085155         5.934924902
    33.353136565         1.959102953         5.960992975
    37.259206822         1.954550501         6.013285403
    41.178185700         1.924451130         5.994500137
    45.088167660         1.910504359         6.070297590
    48.966699528         1.873818795         6.106274030
    52.878559106         1.858057300         6.090645689
    56.762489123         1.825705170         6.146001272
    60.655337824         1.831235382         6.131185605
    64.555775229         1.864549628         6.079018204
    68.486958620         1.855131842         6.048824249
    72.386378982         1.907273839         6.003877141
    76.310677776         1.928150975         5.960617894
     2.036307464         5.829077902         5.896885521
     5.951507637         5.893164217         5.872724106
     9.853893070         5.948630599         5.798989595
    13.760354497         5.962295776         5.786893259
    17.680506886         5.920181688         5.830746383
    21.601676317         5.911092429         5.871473839
    25.522141642         5.911452245         5.882007341
    29.421874940         5.908260835         5.903605707
    33.304240276         5.873421283         5.948021452
    37.252243991         5.843572219         5.974245807
    41.145327394         5.838088940         6.010878638
    45.065401548         5.837220689         6.038634571
    48.950896247         5.787558292         6.064108767
    52.882783745         5.751232544         6.105055019
    56.749424035         5.703423980         6.131654455
    60.646966779         5.749730704         6.117526435
    64.599273367         5.760165361         6.064827670
    68.502605432         5.793503074         6.031039198
    72.419159054         5.797242029         5.989936662
    76.343927252         5.865043834         5.941113725
     2.034977485         9.785971823         5.869254615
     5.958994637         9.821640516         5.841998788
     9.841688556         9.900565321         5.781860933
    13.761528008         9.876473309         5.815180556
    17.676047544         9.859734054         5.828027052
    21.570773862         9.811237147         5.846562264
    25.504695446         9.834468730         5.876037314
    29.420544961         9.800599116         5.882601217
    33.328336367         9.797939608         5.930861534
    37.208198214         9.765869073         5.992906046
    41.151742587         9.753823067         6.019693022
    45.033638519         9.739273995         6.025006658
    48.957233206         9.692497946         6.044729624
    52.874725637         9.683658994         6.099741383
    56.768513146         9.631955033         6.106649110
    60.660892442         9.621238781         6.086894887
    64.613981371         9.651744900         6.082362669
    68.514966414         9.691011751         6.013660483
    72.452486765         9.728401301         5.946364848
    76.343770784         9.759846070         5.930642737
     2.051015468        13.698420676         5.863815952
     5.970041286        13.749811753         5.820556705
     9.829405808        13.783759588         5.762325507
    13.737901321        13.790173695         5.789174997
    17.658914285        13.770540270         5.790706574
    21.584230121        13.755678315         5.825057667
    25.489126867        13.737061760         5.865285016
    29.393084805        13.740581697         5.895447714
    33.293756912        13.688955957         5.925266588
    37.218525110        13.695291844         5.944833270
    41.116380791        13.649689107         5.976496289
    44.998902595        13.636469789         6.004377248
    48.933528285        13.604868578         6.043979464
    52.895066493        13.597515822         6.076455156
    56.769217253        13.543934562         6.090708203
    60.671610509        13.568183015         6.080049674
    64.581905406        13.570920744         6.044104490
    68.541096591        13.620043417         5.991124415
    72.446853912        13.627317953         5.946864955
    76.354097680        13.675267314         5.904699691
     2.023688310        17.620099586         5.846218440
     5.963751267        17.653499875         5.783236227
     9.837620385        17.702231444         5.755324011
    13.740717748        17.706377147         5.768326790
    17.634818193        17.705829602         5.789862644
    21.561307541        17.668518272         5.794207322
    25.489596272        17.654594966         5.839123174
    29.384791994        17.642001415         5.881069640
    33.314801875        17.638246815         5.901230200
    37.192786104        17.605315851         5.954491585
    41.127177091        17.557288269         5.992030859
    45.023233389        17.549622629         5.994875217
    48.950739779        17.517317431         6.012066392
    52.871518040        17.471949357         6.028194840
    56.778996510        17.417742331         6.085019486
    60.690699620        17.447779125         6.053575265
    64.586286513        17.461624209         6.003252008
    68.512462924        17.524904851         5.950521986
    72.452173828        17.562059739         5.942270222
    76.350733616        17.576843474         5.880975870
    56.776805957        21.323620635         6.054200399
    60.688196130        21.356160495         6.053981602
    64.595205196        21.401293907         5.978277919
     2.024173361        21.507830660         5.831121463
     5.924039658        21.560629712         5.767920453
     9.820800061        21.618904221         5.720754121
    13.741734790        21.628447161         5.737351419
    17.637321683        21.612881218         5.773140319
    21.563498095        21.582609762         5.780235586
    25.469490118        21.564618974         5.818181197
    29.387295484        21.561177258         5.857252049
    33.300641509        21.537867454         5.907419023
    37.229869049        21.510724831         5.936956587
    41.101829255        21.502355203         5.963462252
    45.039819010        21.450416580         5.973745701
    48.925079007        21.428984076         5.990718079
    52.869171018        21.389717226         6.017723851
    68.533429653        21.424603710         5.939613404
    72.444898061        21.450416580         5.896666724
    76.327732801        21.522536174         5.865628839
     2.010271169        25.457434402         5.809304299
     5.919157852        25.471357707         5.757887059
     9.824164126        25.500299410         5.710626956
    13.717716933        25.530414425         5.685121504
    17.660244264        25.503115359         5.737226392
    21.551606517        25.511484987         5.762575561
    25.465109010        25.476676723         5.811210957
    29.381975568        25.462440534         5.861815524
    33.286950549        25.446014162         5.879725603
    37.214144003        25.405182896         5.916921054
    41.121466005        25.407138416         5.940082255
    45.021981644        25.345969737         5.951272147
    48.929929519        25.337209005         5.967619391
    52.868075741        25.299428350         5.998626019
    56.790496918        25.226995873         6.033289679
    60.677869234        25.266340944         5.994781447
    64.588946471        25.318123126         5.975933668
    68.528970311        25.354026481         5.918296348
    72.415951458        25.373894569         5.886664586
    76.364346342        25.403618479         5.850219296
     1.998715998        29.350015167         5.766513903
     5.913329414        29.412200717         5.746540883
     9.816575422        29.465077990         5.685996691
    13.705434186        29.453266646         5.677682414
    17.619327849        29.420101020         5.730037355
    21.571790905        29.411966055         5.743290188
    25.473245353        29.375828037         5.781454596
    29.397231210        29.358228353         5.823776143
    33.311985448        29.347199218         5.849000285
    37.207650575        29.342584189         5.902324183
    41.128507071        29.303630222         5.902855547
    45.012906493        29.316771320         5.934049715
    48.932745945        29.246998350         5.940019741
    52.863381698        29.203272913         5.991530752
    56.778057702        29.137723868         6.036165293
    60.686474981        29.163849621         5.989249015
    64.608661455        29.214302049         5.939332094
    68.489383876        29.262251410         5.912326322
    72.407032774        29.289550475         5.828996009
    76.348699530        29.315441566         5.813367668
     1.999154108        33.283740082         5.766732699
     5.931479717        33.295786088         5.744415429
     9.803823270        33.371034515         5.671431078
    13.726322680        33.348585140         5.671712388
    17.623787191        33.331376560         5.695311182
    21.527119256        33.315497734         5.706969924
    25.477313524        33.298210934         5.763263208
    29.356705966        33.270911868         5.779829249
    33.298763892        33.270755427         5.840873548
    37.189187337        33.246194090         5.871161272
    41.131323497        33.237433358         5.895916564
    45.012437088        33.202781536         5.902480467
    48.966073655        33.173135846         5.941832629
    52.877229127        33.126907343         5.960149044
    56.742695906        33.068632834         5.987498640
    60.654320781        33.076846020         5.962274498
    64.579167213        33.127611331         5.928611053
    68.511758818        33.179549953         5.874474480
    72.408832158        33.213419567         5.833465714
    76.346430742        33.217643492         5.791362964
     2.022225333        37.185316242         5.729412222
     5.903988267        37.229511004         5.725067543
     9.832222234        37.267526321         5.634266883
    13.696515503        37.282231835         5.667055142
    17.633722917        37.239992593         5.670618404
    21.537759088        37.220515610         5.706719871
    25.455016816        37.200647522         5.749166444
    29.399421764        37.168342324         5.771765025
    33.274589567        37.143780988         5.795426333
    37.220480962        37.163492634         5.834997292
    41.106366831        37.118281001         5.869223358
    45.017444068        37.133925165         5.889477687
    48.934701796        37.072208940         5.917764984
    52.871048636        37.035836259         5.931736721
    56.753257504        36.945021890         5.981341074
    60.690699620        36.995552538         5.946521131
    64.587694726        37.051949748         5.907669076
    68.511915286        37.067593911         5.868910791
    72.404842221        37.110380699         5.816680876
    76.322178183        37.144954300         5.772765239
     2.024486298        41.072186888         5.698686904
     5.913274651        41.116616312         5.658365785
     9.777145455        41.163548802         5.634766990
    13.710832336        41.173639288         5.643081268
    17.620188424        41.168946039         5.660710036
    21.544408983        41.140238999         5.675244393
    25.460414967        41.123265081         5.708251448
    29.360930605        41.082042711         5.752198343
    33.277014823        41.079148540         5.785205398
    37.144750389        41.077114799         5.815555636
    41.088294763        41.062722169         5.858564829
    44.994990892        41.002335697         5.873943117
    48.933215349        41.007811155         5.889758998
    52.852428929        40.962677743         5.910700974
    56.767261401        40.901978388         5.970870086
    60.674583403        40.931389416         5.948115222
    64.551002951        40.959470689         5.898323328
    68.506517136        40.983797364         5.826089137
    72.399444070        41.020013602         5.817024700
    76.306061966        41.039959911         5.768920667
     2.005952648        44.973371943         5.707688828
     5.903174633        45.030394919         5.678120007
     9.794748119        45.100402551         5.614762714
    13.681651031        45.072477719         5.610699346
    17.595857630        45.044318224         5.658553325
    21.519765254        45.040016079         5.680214205
    25.425757277        45.033210868         5.702468962
    29.361947648        44.994335122         5.734725858
    33.264810309        44.993631135         5.761637860
    37.147332114        45.002704749         5.777985105
    41.090563550        44.977595867         5.823244779
    45.042400734        44.963985445         5.861753011
    48.897384149        44.914471667         5.879444293
    52.880906127        44.888033031         5.912795172
    56.775319509        44.839066799         5.944426933
    60.680529192        44.853459429         5.924828994
    64.581357767        44.875674142         5.873474266
    68.483516321        44.892335176         5.826808041
    72.416029692        44.928629635         5.776703581
    76.323664630        44.976422555         5.751854519
     1.994640003        48.911868328         5.697968000
     5.915723377        48.946598371         5.657053004
     9.782152435        48.975070749         5.595727395
    13.685640968        48.968265538         5.606167127
    17.577003221        48.962164314         5.637455065
    21.497937951        48.943391318         5.646613273
    25.419733254        48.911790107         5.686746852
    29.332922811        48.922662801         5.743290188
    33.239618941        48.894972631         5.753198556
    37.140134580        48.879719572         5.769014437
    41.090798253        48.874009452         5.803303017
    45.014940578        48.854610690         5.874349454
    48.942134032        48.842486463         5.878756646
    52.850707779        48.788826982         5.887508516
    56.775241275        48.760745709         5.944301907
    60.702043559        48.783038642         5.910888514
    64.604202113        48.797118389         5.840279671
    68.531943206        48.799465013         5.810054460
    72.419784927        48.830127574         5.754136257
    76.337512059        48.849604557         5.733163024
     2.016944534        52.806248172         5.663460624
     5.939639530        52.844263490         5.629984718
     9.783638882        52.869528814         5.579630204
    13.696750205        52.875317154         5.587444375
    17.591789459        52.850990480         5.613668730
    21.460072664        52.826820247         5.657303058
    25.371775774        52.827133131         5.689841263
    29.312347253        52.827133131         5.704969497
    33.232264939        52.783173031         5.733756900
    37.127147725        52.770657700         5.758637219
    41.052776498        52.766042672         5.785986815
    44.954856818        52.777462911         5.825870341
    48.901999958        52.755717524         5.862471915
    52.852115993        52.721143923         5.907575306
    56.814280072        52.668657754         5.929017389
    60.734823631        52.718406194         5.858908653
    64.622274182        52.740386244         5.822025769
    68.529361482        52.747582559         5.780766949
    72.454286148        52.760488994         5.758199625
    76.354254148        52.776446041         5.694904845
     2.050506947        56.683732320         5.614325121
     5.991461772        56.711187827         5.608605148
     9.766583856        56.730351927         5.552030555
    13.702930696        56.769227673         5.609417822
    17.591320055        56.751784431         5.621983008
    21.499267930        56.734497630         5.664742148
    25.377330393        56.729256836         5.704563160
    29.320874766        56.718853467         5.717690966
    33.197529016        56.701566666         5.759762459
    37.124878938        56.693744584         5.773327859
    41.022734618        56.683966982         5.791394221
    44.939053538        56.654164851         5.814711705
    48.899731171        56.665037544         5.872317769
    52.825672880        56.666601961         5.882913784
    56.862394021        56.569764589         5.908763060
    60.779808217        56.602304449         5.854470204
    64.675395110        56.625614252         5.817149727
    68.593591647        56.628195539         5.749010161
    72.509206460        56.655259942         5.710533186
    76.368649216        56.674971588         5.666304982
     2.047502759        60.563954196         5.633391696
     5.968586133        60.572167382         5.618669799
     9.841219152        60.607757854         5.648176107
    13.725305637        60.620429626         5.680808082
    17.623630723        60.638655077         5.707094951
    21.539871408        60.624731771         5.721598051
    25.446880474        60.626139746         5.779454169
    29.366094054        60.621524718         5.787268339
    33.257691009        60.588124429         5.827495688
    37.189578507        60.570055420         5.855595445
    41.071161503        60.558948064         5.897948248
    45.038332563        60.556914322         5.912013755
    48.968811847        60.559573830         5.958836264
    52.903515771        60.578268606         5.990217972
    56.824528735        60.561920455         5.922734796
    60.758841488        60.517412809         5.893384773
    64.654037211        60.533448077         5.835528655
    68.601806223        60.537515560         5.807585182
    72.484328028        60.569429653         5.748978904
    76.383904858        60.569977199         5.680901852
     2.052439328        64.488370834         5.705188294
     5.960160324        64.483677585         5.676213350
     9.863594093        64.533347804         5.721754335
    13.736884279        64.548757305         5.728537035
    17.679724545        64.557518037         5.740414574
    21.597529912        64.577855449         5.775640854
    25.503443701        64.544376939         5.809366813
    29.382679675        64.540231236         5.836903949
    33.320904132        64.516452108         5.856470632
    37.226270282        64.507926038         5.903793247
    41.142119797        64.477263478         5.941488805
    45.044200117        64.466703668         5.982685111
    48.987979193        64.500025736         5.992062116
    52.895614131        64.468972071         6.016942434
    56.794878025        64.454579441         5.982122491
    60.754538615        64.473978204         5.922891080
    64.658574787        64.439873927         5.898167045
    68.565583853        64.473430658         5.849219082
    72.490273817        64.475855503         5.804084434
    76.387816561        64.472179125         5.727380537
     2.074634332        68.402071220         5.761981684
     5.957836772        68.406999132         5.697155326
     9.856709496        68.459485300         5.760950213
    13.789926973        68.465430082         5.786111842
    17.709922893        68.506339570         5.803990664
    21.604727445        68.486471482         5.814961759
    25.532077368        68.489913198         5.854845284
    29.433375347        68.447126411         5.892665869
    33.350867777        68.405043611         5.922265946
    37.297932683        68.393466930         5.924453914
    41.189842575        68.375397921         5.992874790
    45.076432551        68.378839637         6.029132540
    48.979686382        68.398316621         6.045198474
    52.906879836        68.413882564         6.076486412
    56.772424849        68.380091170         6.018505268
    60.732554843        68.368749152         5.979246876
    64.632679312        68.381890249         5.918983995
    68.549232934        68.373207738         5.904918488
    72.463126597        68.348881064         5.853188680
    76.373421494        68.381733808         5.790206467
     2.048112984        72.335874356         5.825714057
     5.978600092        72.336109019         5.771014865
     9.885577865        72.365207163         5.816868416
    13.850636605        72.392819112         5.839279457
    17.735505431        72.422934126         5.831371517
    21.665045907        72.387343654         5.845093200
    25.575262570        72.363799188         5.886977153
    29.477499358        72.361452564         5.945802227
    33.402267556        72.363329863         5.959523911
    37.325862243        72.336343681         5.988967704
    41.207445239        72.313268540         6.029663904
    45.104831516        72.293713336         6.068390932
    48.997523748        72.326722521         6.117463922
    52.942398100        72.321638168         6.116713761
    56.769451955        72.283622850         6.083550422
    60.677165127        72.264380529         6.039947352
    64.602089794        72.280102913         5.983591555
    68.551188785        72.284483279         5.964462466
    72.405781029        72.306072225         5.896510441
    76.344083720        72.343305334         5.877162555
     1.967336315        76.211011879         5.885070495
     5.915535615        76.242769531         5.863847209
     9.919140278        76.327248014         5.860221434
    13.850793073        76.331159055         5.866535283
    17.781115890        76.313950475         5.876037314
    21.698060682        76.318956608         5.902574237
    25.618369538        76.289310918         5.948427789
    29.506367727        76.248244989         5.953960221
    33.404536344        76.263654490         5.996313025
    37.322028774        76.238310945         6.026350695
    41.228959606        76.236746528         6.053168928
    45.157639508        76.226812485         6.082393925
    49.010667071        76.217895311         6.146532636
    52.951864422        76.164314051         6.119745660
    56.730100222        76.197636120         6.181102525
    60.658076016        76.145541055         6.111337612
    64.546074205        76.188484284         6.060576762
    68.469747126        76.187154530         6.037853154
    72.372062149        76.201312498         5.984935593
    76.286581685        76.218599299         5.933299555
     1.985948199         1.909487488         9.677474911
     5.953181846         1.967167519         9.670160848
     9.884795524         2.031246013         9.596082513
    13.805964956         2.010494030         9.623150799
    17.705228849         2.002828390         9.622869489
    21.671148164         1.974700184         9.663534431
    25.551088245         1.967668132         9.693509589
    29.475934677         1.948245903         9.719140068
    33.360803503         1.932046372         9.758711026
    37.276340082         1.920892083         9.785372976
    41.171379337         1.894093631         9.810565861
    45.066887995         1.879020480         9.834133399
    48.995802599         1.872496863         9.903929568
    52.883800788         1.862437666         9.917369941
    56.740348884         1.819228487         9.933435876
    60.635388138         1.810890147         9.928122240
    64.564302742         1.851627549         9.864389866
    68.489462110         1.861897943         9.848386446
    72.407658647         1.855741964         9.778121426
    76.300976752         1.898098537         9.735581082
     2.004771314         5.827748148         9.660565047
     5.953815542         5.882009929         9.652750876
     9.858665347         5.951884585         9.602896469
    13.782572971         5.949311120         9.585861578
    17.694197847         5.895855014         9.621337912
    21.606213893         5.910177245         9.647218444
    25.535519666         5.892593206         9.685195312
    29.446127499         5.859286781         9.709106673
    33.357674141         5.840850135         9.752022097
    37.219620387         5.807926993         9.796656638
    41.157453674         5.820434501         9.798031932
    45.058125780         5.811884966         9.833226955
    48.961223143         5.798751691         9.859482567
    52.902342261         5.745162609         9.899616146
    56.758029782         5.712763546         9.921745877
    60.660344804         5.706631034         9.897709489
    64.586755917         5.729072586         9.864889973
    68.494703792         5.753931162         9.822849737
    72.405311625         5.792775620         9.770057202
    76.331096866         5.818400760         9.733736938
     2.010255522         9.750537793         9.658408336
     5.944020637         9.813427330         9.645811893
     9.877910927         9.883904287         9.551260432
    13.782964141         9.861220250         9.569264280
    17.666502989         9.845967190         9.589768663
    21.600972210         9.819606775         9.622932002
    25.512910022         9.796766296         9.662565474
    29.399891168         9.778540846         9.692103038
    33.327241091         9.769154347         9.723734800
    37.241917095         9.749833806         9.769307041
    41.146187969         9.736692708         9.782841185
    45.060785739         9.729574614         9.831726634
    48.972332380         9.689838438         9.827288186
    52.889277172         9.661678944         9.881424758
    56.766635529         9.594878366         9.891145586
    60.663865337         9.626401355         9.876673742
    64.593796983         9.634223437         9.840478505
    68.511132945         9.679826174         9.821912036
    72.437544059         9.709628305         9.752897284
    76.343379614         9.742481049         9.717202153
     2.005139014        13.691302582         9.656939272
     5.946844887        13.733463603         9.612554784
     9.829014638        13.803080130         9.559793506
    13.757616305        13.800498843         9.597332780
    17.662513051        13.758259602         9.588362113
    21.606683297        13.717662997         9.606709785
    25.492334464        13.716489685         9.646812107
    29.413503895        13.687860866         9.702042663
    33.320356493        13.693492765         9.724797527
    37.226504984        13.671669157         9.756085465
    41.141024520        13.659466709         9.771151186
    45.037159052        13.615506610         9.833039415
    48.942994607        13.582419204         9.825287758
    52.885600171        13.560204492         9.844916954
    56.781187064        13.540258183         9.897271895
    60.674739871        13.549175356         9.866390294
    64.589885280        13.550896214         9.831414067
    68.516765798        13.588598648         9.788811211
    72.411022712        13.620825625         9.733361858
    76.339076740        13.658840943         9.693478332
     1.995015526        17.594599599         9.631902670
     5.927497603        17.658114903         9.593081871
     9.843879110        17.699650157         9.551729282
    13.747289409        17.672507533         9.567920243
    17.657975476        17.685492189         9.575078023
    21.595886996        17.642236077         9.611648340
    25.503913105        17.620960015         9.636028552
    29.424065494        17.652717667         9.640529514
    33.327710495        17.607271372         9.700511086
    37.226896155        17.586621076         9.738894290
    41.134922264        17.540236131         9.737706537
    45.060942207        17.529363437         9.787873510
    48.951522120        17.501595047         9.801095086
    52.882705511        17.480475426         9.828819763
    56.756778037        17.427832816         9.864764947
    60.672549318        17.430961649         9.868328208
    64.587851194        17.468038316         9.802407867
    68.489775046        17.486341988         9.773620463
    72.424322502        17.543052080         9.733299344
    76.331957441        17.579424761         9.680913146
     2.007220040        21.499461033         9.621712992
     5.934945486        21.559534621         9.569326794
     9.822130040        21.620390417         9.521191504
    13.722802147        21.627821395         9.539445406
    17.654611411        21.605997786         9.560356126
    21.590958250        21.542795366         9.578891338
    25.495307358        21.545689536         9.596395080
    29.355532455        21.523240161         9.645249273
    33.320356493        21.505092932         9.693759642
    37.207807044        21.490543860         9.707575096
    41.134374625        21.489292327         9.748052498
    45.072520848        21.456674246         9.777496292
    48.947453948        21.415138992         9.777402522
    52.878637340        21.373994842         9.799907333
    56.765540252        21.354048533         9.839040698
    60.681311533        21.320726465         9.842416419
    64.576663723        21.354752520         9.779027869
    68.510037668        21.401450348         9.754428861
    72.417281437        21.461836820         9.701323759
    76.330158057        21.473648163         9.659283523
     2.038232022        25.423173684         9.598239224
     5.923124319        25.503193580         9.529068188
     9.838715662        25.532995712         9.472712391
    13.743064770        25.524626084         9.511877013
    17.648039750        25.528693567         9.530756049
    21.575154970        25.503506463         9.552792009
    25.484119887        25.469245745         9.578391231
    29.415694449        25.445075513         9.630621146
    33.272086077        25.429587791         9.675787051
    37.229947283        25.424816321         9.716608277
    41.159644227        25.403305596         9.730861323
    45.047251246        25.355669118         9.735924906
    48.971471806        25.327822507         9.755679128
    52.887321321        25.295204426         9.790030221
    56.760455038        25.248271936         9.840572275
    60.685770874        25.245143103         9.830288827
    64.603889177        25.287382344         9.751209423
    68.481873406        25.328213611         9.706137288
    72.418376713        25.352149181         9.674943120
    76.347682487        25.412066328         9.637466359
     2.006617638        29.353769766         9.555823907
     5.936674459        29.403439985         9.509751559
     9.858039475        29.456317258         9.453395762
    13.735710768        29.431051934         9.461803809
    17.643267472        29.406412377         9.505625677
    21.562324584        29.403831090         9.536819845
    25.495933231        29.387326497         9.574859226
    29.417259130        29.347512101         9.614711495
    33.332795709        29.346651672         9.657001785
    37.229634347        29.302848014         9.709231700
    41.127020623        29.295104153         9.702105176
    45.050458842        29.276252936         9.715107956
    48.965291315        29.251691599         9.749927899
    52.874960339        29.166430908         9.784935382
    56.772111913        29.128337370         9.809534390
    60.690543152        29.136081231         9.794499927
    64.552880569        29.187472308         9.751553246
    68.511680584        29.230650199         9.725766484
    72.411413882        29.255367978         9.652907160
    76.338216166        29.303473781         9.591268984
     1.988170046        33.210290735         9.540508133
     5.918844916        33.287651123         9.483152123
     9.836368640        33.364855070         9.454989853
    13.761997413        33.380499234         9.446237982
    17.634270555        33.303999274         9.477275867
    21.552075922        33.319095892         9.486215278
    25.486153973        33.292891918         9.534038000
    29.401455850        33.285773824         9.570014441
    33.305179085        33.217643492         9.623994729
    37.224392665        33.221632753         9.660752587
    41.130541156        33.198635833         9.683319911
    45.058047546        33.199574483         9.712294855
    48.989309172        33.165939531         9.714576592
    52.874099764        33.117990170         9.746708461
    56.744729991        33.030852179         9.795062547
    60.659562463        33.078488657         9.770150972
    64.560703975        33.087327610         9.710763277
    68.486098045        33.138718687         9.690540204
    72.416264394        33.162810699         9.633715557
    76.304419051        33.206066811         9.572171152
     1.988029225        37.141512584         9.516628029
     5.889061208        37.204011017         9.471680921
     9.793887544        37.261346877         9.424983439
    13.746428834        37.276130611         9.426546273
    17.657897242        37.221532480         9.467492525
    21.536898513        37.207374512         9.488028165
    25.442577600        37.203776355         9.550885352
    29.373682758        37.164665946         9.566076099
    33.296338636        37.152385278         9.585017648
    37.213126960        37.102089292         9.623463366
    41.130462922        37.108816282         9.658470849
    45.025971581        37.082377646         9.681006916
    48.969750656        37.065794833         9.705887235
    52.876446786        37.011666027         9.730173676
    56.755604526        36.950106243         9.770588565
    60.653851377        36.992267264         9.738487954
    64.559295762        37.026449761         9.704293144
    68.494860260        37.049212019         9.635903525
    72.382701981        37.101932850         9.603927940
    76.326089886        37.108112295         9.596520106
     1.979180952        41.064051922         9.498530410
     5.912281078        41.111766621         9.448082126
     9.783169477        41.155492058         9.412887103
    13.723897424        41.134998204         9.443831218
    17.645066856        41.125689927         9.444737661
    21.555909391        41.118962936         9.471493381
    25.467768968        41.084467556         9.517378189
    29.392928337        41.061627077         9.558199415
    33.294304550        41.063739039         9.579891552
    37.200453042        41.067258976         9.590175000
    41.114503173        41.026193047         9.639841867
    45.054214077        41.024472189         9.676037104
    48.974131764        40.995843370         9.680756863
    52.894049450        40.946877138         9.717796030
    56.754743951        40.896346490         9.754366348
    60.637343990        40.883596496         9.730454986
    64.580340724        40.939446160         9.704699481
    68.481951640        40.967292771         9.631965183
    72.386222514        40.985831105         9.598989384
    76.290258686        41.030964517         9.553010806
     1.993842015        44.951235451         9.490247390
     5.893246731        45.016706276         9.426389989
     9.807422037        45.077640293         9.401228361
    13.705277717        45.077092747         9.389257052
    17.619406083        45.027813632         9.423108038
    21.527041022        45.023433266         9.452082982
    25.445550495        45.008023765         9.497436426
    29.367658735        44.976500775         9.532225113
    33.281161228        44.968913356         9.545509202
    37.184258591        44.953738518         9.578359975
    41.115833152        44.917600500         9.615742966
    45.044356586        44.918930254         9.639998150
    48.968577145        44.911733939         9.673755366
    52.904298112        44.867460956         9.692290578
    56.767965508        44.806839822         9.750459263
    60.670515232        44.816773866         9.719858971
    64.602480964        44.855414950         9.654407480
    68.470842403        44.859325991         9.631089996
    72.389195408        44.905319832         9.570264494
    76.307548413        44.916661850         9.533069043
     1.994859058        48.888793187         9.492466614
     5.910833748        48.929546233         9.432985149
     9.775346071        48.968969525         9.394320634
    13.700427206        48.946989475         9.391726330
    17.636226407        48.915779369         9.400509457
    21.519921722        48.903420480         9.452301778
    25.433267747        48.900526310         9.482026882
    29.348882560        48.889027849         9.511251879
    33.248068220        48.871584607         9.544227678
    37.144202751        48.855549339         9.581141819
    41.088685933        48.869316203         9.591550294
    45.017522302        48.852029403         9.651344326
    48.945341629        48.835837693         9.671192318
    52.873160955        48.815500281         9.680819376
    56.759829165        48.735636826         9.723578517
    60.697584218        48.752610743         9.692603145
    64.581279533        48.762466567         9.632840370
    68.473737064        48.826607637         9.586861792
    72.407111008        48.806974212         9.548541100
    76.313963606        48.833256406         9.533506637
     2.002619877        52.800459832         9.460397259
     5.940124581        52.829010430         9.416512878
     9.789037032        52.857404587         9.382786919
    13.706060058        52.851225142         9.369190262
    17.595779396        52.843715944         9.412136943
    21.506543697        52.825490493         9.436298357
    25.399314164        52.794906154         9.496123646
    29.324708235        52.794593270         9.496217416
    33.227570895        52.808047251         9.503156399
    37.150148540        52.766433776         9.560043559
    41.032357408        52.755561082         9.596051256
    44.994521488        52.759002798         9.634934568
    48.931728902        52.772926104         9.643717695
    52.889198938        52.700884731         9.638497830
    56.795347429        52.684067255         9.693165765
    60.719020351        52.697912340         9.668723041
    64.652707232        52.728731342         9.606272191
    68.532177908        52.776446041         9.579360188
    72.449044466        52.742341764         9.525254873
    76.358322320        52.763852489         9.486340304
     2.030541614        56.661908712         9.429796968
     5.975400319        56.710483839         9.364908097
     9.751719384        56.724094262         9.413856060
    13.700740142        56.736218488         9.390663602
    17.592806502        56.740129529         9.422983011
    21.509047187        56.761092708         9.462147633
    25.399705334        56.703131083         9.476400680
    29.288720566        56.710249177         9.525942520
    33.212784658        56.714160218         9.544508989
    37.097809952        56.685844282         9.566482436
    41.035330302        56.685687840         9.582517113
    44.954309180        56.643996144         9.606741041
    48.880094421        56.659249204         9.639560557
    52.858765888        56.692336610         9.671723682
    56.869591554        56.586503844         9.661534004
    60.768073108        56.579620412         9.655532721
    64.684548495        56.632184801         9.602490133
    68.593591647        56.640163324         9.568920457
    72.491760264        56.658545217         9.508407521
    76.384296028        56.673954718         9.455896297
     2.041009332        60.578425047         9.440830576
     5.954277123        60.555115244         9.403666382
     9.810160229        60.594225652         9.448957313
    13.739153066        60.616205702         9.476994557
    17.629028873        60.662355984         9.488121935
    21.546677771        60.633727165         9.530724792
    25.449383964        60.634196490         9.546134336
    29.362104116        60.616127481         9.589549866
    33.265045011        60.595477185         9.626370237
    37.180503356        60.590705716         9.656001571
    41.105740958        60.564423521         9.670754725
    45.031760902        60.567161249         9.705668438
    48.952304460        60.544711875         9.740582151
    52.874256232        60.584135167         9.767900491
    56.831960970        60.568491003         9.727798169
    60.741473526        60.529380595         9.676287157
    64.680949728        60.563328429         9.635997295
    68.597033946        60.557696531         9.594144599
    72.526105017        60.558948064         9.531818776
    76.366771598        60.592035469         9.483996053
     2.061976060        64.482660714         9.464023034
     5.977465699        64.460915327         9.457396617
     9.847399643        64.540544119         9.472368568
    13.770133755        64.562993494         9.520691397
    17.692789633        64.585599310         9.525848750
    21.615054342        64.584425998         9.573296392
    25.494759720        64.574726617         9.588080802
    29.425082536        64.535929091         9.608241362
    33.344843755        64.531079400         9.669129377
    37.241447690        64.502528802         9.676912291
    41.134922264        64.495645370         9.738175387
    45.078231934        64.485711326         9.754178808
    48.979295212        64.503623893         9.791436772
    52.875273275        64.503623893         9.789092521
    56.786115810        64.474525749         9.745676990
    60.718316244        64.446913801         9.709919347
    64.661234745        64.476324828         9.677506168
    68.559716298        64.450042633         9.634965825
    72.477286962        64.487979730         9.577203477
    76.379289048        64.485633105         9.524848536
     2.064182261        68.385566628         9.532631450
     5.967842909        68.407781340         9.523723295
     9.876580948        68.442589604         9.534819417
    13.805104381        68.483968416         9.542477304
    17.714147532        68.495232214         9.588299599
    21.634612857        68.505635583         9.591550294
    25.549054159        68.497657059         9.643936492
    29.461539609        68.477397867         9.677943762
    33.349850735        68.433985314         9.718233624
    37.272976017        68.455652480         9.742082472
    41.202438259        68.396282880         9.770057202
    45.100137472        68.415603422         9.813066395
    49.006285963        68.416307409         9.845698371
    52.901168750        68.419514462         9.852418557
    56.798789728        68.390181656         9.807940300
    60.696880111        68.357485354         9.771870089
    64.611399647        68.363664799         9.739238114
    68.552596998        68.379543625         9.675318200
    72.451704424        68.395344230         9.616680666
    76.377724367        68.446578865         9.583173503
     2.049270849        72.326174975         9.594175855
     5.976120073        72.327895833         9.552166875
     9.902241720        72.381711755         9.596270053
    13.844221412        72.408072171         9.606365961
    17.760070927        72.424967868         9.610116763
    21.664967673        72.402283830         9.651219299
    25.564153333        72.372872803         9.680663093
    29.509418856        72.359184160         9.731330174
    33.405162217        72.372559920         9.748646375
    37.315065943        72.328052275         9.781997254
    41.217850370        72.356993977         9.808315380
    45.094113449        72.347920362         9.865671390
    49.013014093        72.302474067         9.890895532
    52.903985176        72.328443379         9.911399915
    56.776962425        72.309748603         9.860951631
    60.684910300        72.239349867         9.842697729
    64.603263305        72.281354447         9.791968136
    68.479604618        72.285265487         9.718921271
    72.440751655        72.322185713         9.688696060
    76.348464828        72.324532338         9.665972453
     2.001994005        76.214062491         9.690977798
     5.943285237        76.224387639         9.627276681
     9.927354854        76.322163661         9.629996012
    13.859085884        76.348132973         9.652344540
    17.766407886        76.334209667         9.663471918
    21.708935216        76.294082388         9.681194456
    25.611484941        76.302217353         9.711450924
    29.498309619        76.294708154         9.755679128
    33.410638601        76.260290994         9.759211133
    37.316239454        76.241752661         9.810409578
    41.201186514        76.241909102         9.840572275
    45.116488391        76.254580875         9.887269757
    49.009180624        76.238780270         9.921495823
    52.929645948        76.181444410         9.956534563
    56.699354235        76.176516499         9.917307428
    60.649783206        76.156961294         9.917463711
    64.537859629        76.164548714         9.851668397
    68.477257596        76.185277230         9.814097866
    72.391855366        76.186841647         9.779184153
    76.297221517        76.209134580         9.728985922
     2.010560635         1.910785954        13.457220371
     5.915081857         1.996993117        13.404177783
     9.860934135         2.026920401        13.364075461
    13.806590828         1.989890666        13.396363613
    17.706558828         1.969694051        13.448843581
    21.638211624         1.970695278        13.452813179
    25.544673052         1.941980416        13.493009272
    29.459036119         1.916449141        13.530579803
    33.364167568         1.902729209        13.558398249
    37.271567804         1.898810346        13.573995333
    41.172318145         1.898669549        13.619192495
    45.082769510         1.883314802        13.649355192
    48.998227855         1.844798872        13.689613798
    52.927220692         1.808520057        13.711524732
    56.718990985         1.800432024        13.745156921
    60.642272736         1.812931711        13.692551926
    64.564224508         1.824320662        13.655512759
    68.482186342         1.855749786        13.598500572
    72.391620664         1.857611442        13.557616832
    76.292996878         1.897066022        13.503761570
     1.995171995         5.801645861        13.472973739
     5.910763337         5.877238459        13.416149092
     9.861012369         5.945392257        13.375015299
    13.788909930         5.941880143        13.387549229
    17.682775674         5.867366992        13.413711071
    21.600737508         5.874876190        13.448374731
    25.537319050         5.869353801        13.461971387
    29.444562818         5.830259036        13.489164700
    33.351493650         5.826449682        13.517577023
    37.260771504         5.818283429        13.552178170
    41.175916912         5.782239276        13.582340867
    45.105926792         5.781417958        13.608877790
    48.963570165         5.762332078        13.654074951
    52.899995239         5.753195887        13.699897246
    56.761159144         5.726694674        13.702616577
    60.641333927         5.693708955        13.682674815
    64.549829440         5.732733321        13.630194847
    68.497129048         5.762285146        13.613034928
    72.395532367         5.788543874        13.568900494
    76.306609605         5.782794644        13.491383924
     2.005491067         9.742793932        13.455782564
     5.924282183         9.809907393        13.393331715
     9.842001492         9.856839884        13.364950648
    13.791413420         9.846436515        13.350041211
    17.693024336         9.823439595        13.386017651
    21.588454760         9.770327660        13.423963262
    25.515569980         9.758594537        13.435559491
    29.433766517         9.740838411        13.475911867
    33.345156691         9.757655887        13.509168976
    37.253182800         9.696878312        13.555960228
    41.162773590         9.726289339        13.570932179
    45.096929875         9.699772482        13.592561802
    48.987900959         9.675758691        13.626256505
    52.891389492         9.651353796        13.654387518
    56.781187064         9.614355349        13.683206178
    60.669732891         9.634145216        13.665139816
    64.555696995         9.635944295        13.625443831
    68.485706875         9.667701947        13.579121429
    72.429407716         9.695235675        13.542613625
    76.313337734         9.743576140        13.484632481
     1.981942615        13.659857813        13.460971173
     5.929758567        13.703505029        13.401177142
     9.818453040        13.755521873        13.350947655
    13.803539700        13.757712056        13.332506213
    17.698031316        13.726501950        13.361168589
    21.588611229        13.714221281        13.392487784
    25.508841851        13.719070972        13.420431257
    29.432671241        13.684575592        13.462002644
    33.316601258        13.643978987        13.490477481
    37.257407439        13.640224388        13.541707181
    41.139303371        13.616836364        13.557273009
    45.069156783        13.600801096        13.600594769
    48.986570980        13.576317980        13.613191212
    52.896787642        13.555589463        13.634414499
    56.766166124        13.528916165        13.659419844
    60.655416058        13.498018942        13.635477226
    64.559061059        13.534626284        13.599500785
    68.492122068        13.556684555        13.561617687
    72.400226411        13.602365512        13.529985926
    76.326950461        13.640537271        13.475036680
     1.991213351        17.594208495        13.441467004
     5.928201710        17.680251394        13.370889417
     9.824633530        17.695895558        13.338382469
    13.764892073        17.672272871        13.295998409
    17.701317146        17.669848026        13.353291906
    21.581648397        17.648963067        13.389674683
    25.512284150        17.609226892        13.408334922
    29.413503895        17.617048974        13.423181845
    33.316523024        17.569725379        13.472379862
    37.238240094        17.545007601        13.496072427
    41.170127592        17.530380308        13.540019321
    45.074085529        17.497605785        13.548271085
    48.981642234        17.489392600        13.607283699
    52.909070390        17.471323591        13.603345357
    56.760767974        17.406165650        13.635008376
    60.645089162        17.422592021        13.627663055
    64.578541341        17.430492324        13.593999609
    68.469981829        17.472966228        13.542926192
    72.416029692        17.506444738        13.524140926
    76.306453136        17.542035210        13.466941199
    60.675913382        21.316267878        13.605627095
     2.000710966        21.504467165        13.398551580
     5.955129874        21.538102117        13.386549015
     9.857491837        21.608422632        13.306813220
    13.763640328        21.615697168        13.304156402
    17.686609143        21.594264664        13.319847257
    21.602536892        21.563210999        13.374608962
    25.470898331        21.538258558        13.413117194
    29.399734700        21.509082193        13.437841229
    33.315114811        21.494454901        13.472192322
    37.256312162        21.490152756        13.488070716
    41.156045460        21.439231003        13.527922985
    45.074476699        21.397695749        13.533517931
    48.991656194        21.395896670        13.587623246
    52.915407349        21.348573076        13.620442762
    56.754274547        21.329174313        13.624599901
    64.562503358        21.348807738        13.572776323
    68.458559655        21.368910488        13.521952959
    72.418063777        21.429375180        13.469879327
    76.331488036        21.453076088        13.447249490
     2.008534372        25.416681356        13.369795433
     5.927137726        25.475972735        13.309970145
     9.844661450        25.553958891        13.289340735
    13.737901321        25.529788658        13.306313113
    17.690990250        25.507965050        13.306906990
    21.565453946        25.470810162        13.321128780
    25.520576960        25.470575499        13.368295113
    29.414129768        25.431308649        13.386173935
    33.333421582        25.400176763        13.467597590
    37.229243177        25.405965104        13.487976946
    41.179124509        25.376788739        13.499760715
    45.085038298        25.338069434        13.541738438
    49.001983090        25.318905334        13.567743997
    52.873317423        25.276274988        13.597937951
    56.769217253        25.231689122        13.595156107
    60.654633717        25.258440642        13.574682980
    64.568840317        25.263681437        13.540581941
    68.447528653        25.286756578        13.504386704
    72.397566453        25.321877725        13.456657751
    76.318735884        25.377805609        13.422087862
     1.988975857        29.315206903        13.344415008
     5.912922597        29.361826511        13.281651592
     9.827919361        29.444114811        13.226077212
    13.766769690        29.429252855        13.276525496
    17.680663354        29.397025878        13.300468114
    21.597842848        29.381538157        13.338038645
    25.494368550        29.369413930        13.348509633
    29.408966320        29.341332656        13.365544525
    33.314880109        29.306524393        13.438403849
    37.246454670        29.304021326        13.481319273
    41.164572973        29.283371031        13.488070716
    45.102640962        29.266475334        13.510137933
    48.970298295        29.217978427        13.541644668
    52.881375532        29.218525973        13.555678918
    56.758342718        29.155088890        13.592999396
    60.679120979        29.127711604        13.589779957
    64.564928614        29.175191640        13.526672718
    68.474832340        29.194590403        13.497322694
    72.378868512        29.254429328        13.439622860
    76.325698716        29.297528998        13.386830325
     1.988459512        33.214671101        13.350853885
     5.919204792        33.292266152        13.261366006
     9.832144000        33.360552925        13.229202880
    13.756755730        33.341545267        13.224139298
    17.659931327        33.319721659        13.263428947
    21.569600351        33.279203275        13.300093034
    25.495072656        33.271146531        13.338538752
    29.397152976        33.273414935        13.374640219
    33.324346430        33.218503921        13.427807834
    37.226504984        33.225465573        13.452219302
    41.168406442        33.190813751        13.477912295
    45.087072383        33.182209461        13.496041170
    49.000574877        33.147714081        13.503261463
    52.873082721        33.144194144        13.563211778
    56.753570440        33.031790829        13.566274933
    60.645167396        33.059011674        13.540519428
    64.549594738        33.084276998        13.515951676
    68.437201756        33.144428806        13.465847216
    72.368072211        33.170319897        13.425119760
    76.289789281        33.206536136        13.375359123
     1.964707651        37.160989568        13.298186376
     5.903299808        37.186880658        13.269148919
     9.810864335        37.275974169        13.230203094
    13.749401729        37.252429703        13.213043176
    17.654533177        37.237489527        13.246737879
    21.581335461        37.188132191        13.289465762
    25.461744946        37.145814729        13.302124718
    29.393788912        37.133612281        13.329224261
    33.308308448        37.127511058        13.379047411
    37.238161860        37.147692029        13.406990884
    41.143762713        37.099899109        13.426432540
    45.068530911        37.062040233        13.447468287
    48.963804867        37.068532561        13.489696063
    52.885052533        37.033724297        13.522203012
    56.754743951        36.949402256        13.558742073
    60.648609695        36.966454394        13.521640392
    64.547951823        36.998290267        13.493946972
    68.457073208        37.015655289        13.459752163
    72.359701167        37.073460473        13.406271981
    76.289241643        37.092937456        13.368388883
     1.957815230        41.028539671        13.297029879
     5.900960609        41.105196073        13.223045314
     9.792870501        41.174656159        13.206885610
    13.745333557        41.148765068        13.187975318
    17.665564180        41.141725194        13.230984511
    21.567722734        41.080478294        13.262585016
    25.493195039        41.100033499        13.293872954
    29.398248253        41.045670030        13.342164527
    33.301893254        41.030573413        13.369889204
    37.187700890        41.004525880        13.371545808
    41.156045460        41.015789678        13.403083799
    45.048659459        41.005777413        13.440029197
    48.995489663        40.986222209        13.459595879
    52.899212898        40.946094930        13.502573816
    56.756386866        40.909956912        13.556929185
    60.645010928        40.888993733        13.522921916
    64.561642783        40.902369493        13.459658393
    68.466539530        40.964476822        13.436278395
    72.379885555        40.963303509        13.387986822
    76.268744318        41.020091823        13.333662710
     1.953035129        44.957727779        13.262897583
     5.876496818        44.991519172        13.231234565
     9.823303551        45.063560545        13.172565774
    13.740874216        45.046899511        13.175128821
    17.625430106        45.013108118        13.196227081
    21.569443883        45.003017633        13.239173762
    25.471915374        44.973763047        13.300936964
    29.369301650        44.978143413        13.325848539
    33.273963694        44.949827477        13.348697174
    37.214144003        44.935356625        13.377578347
    41.112625556        44.908917989        13.380766529
    45.071738507        44.919477799        13.426932647
    48.993846747        44.898983945        13.465284595
    52.889120704        44.876691012        13.486851705
    56.773441892        44.836485512        13.508981436
    60.654790186        44.828585209        13.505761998
    64.556088165        44.836485512        13.434996871
    68.490557387        44.878724754        13.402771232
    72.368619850        44.890614318        13.363481584
    76.281183534        44.930194051        13.314408594
     1.948763549        48.867438904        13.260021968
     5.896735970        48.900291647        13.212418042
     9.816731890        48.959895910        13.176785426
    13.742204195        48.957392844        13.184224516
    17.655315518        48.918908202        13.193632777
    21.531969768        48.897945023        13.247363012
    25.463622563        48.906627533        13.278650950
    29.352090156        48.871506386        13.278744720
    33.283977654        48.843503334        13.332193646
    37.179799249        48.813857644        13.346290409
    41.129602347        48.822383713        13.381547946
    45.013688833        48.803063171        13.410085296
    48.967794805        48.814170527        13.416086579
    52.876916190        48.810963473        13.473473846
    56.765305550        48.753705835        13.478287375
    60.696254239        48.765517178        13.456282671
    64.572673786        48.751124548        13.399145457
    68.485237471        48.775216560        13.378984898
    72.411335648        48.809790161        13.336538324
    76.300272645        48.825199662        13.298186376
     1.980002410        52.765260464        13.236829511
     5.924994113        52.814461358        13.196070798
     9.811255506        52.838084045        13.128275056
    13.730782022        52.836597849        13.176722912
    17.614555571        52.831357055        13.187381441
    21.530639789        52.823378531        13.214012133
    25.425913745        52.799990507        13.250332397
    29.338399196        52.805465964        13.265866968
    33.198546058        52.777462911        13.292747714
    37.140525750        52.757203720        13.351416505
    41.068970949        52.748208326        13.378015941
    44.999372000        52.748364767        13.414992595
    48.931963604        52.716919999        13.426370027
    52.875977382        52.684693022        13.465565905
    56.783847022        52.689229829        13.454563554
    60.706346433        52.667015117        13.439685373
    64.603732709        52.721065702        13.400239441
    68.517548138        52.732564162        13.343789875
    72.433397653        52.729513550        13.312970787
    76.328280440        52.787396955        13.247550552
     2.032270587        56.680994591        13.199352750
     5.999512057        56.722451624        13.212074219
     9.813054889        56.730586589        13.154686952
    13.714587571        56.760388721        13.203541145
    17.586156607        56.729804381        13.189444382
    21.505135484        56.737078917        13.228171410
    25.429590746        56.724407145        13.294279291
    29.326742320        56.713456230        13.284589720
    33.234768429        56.709310527        13.337100945
    37.120106660        56.691789064        13.352385462
    41.057157606        56.677552875        13.378578561
    44.970268929        56.645638782        13.404709147
    48.939552308        56.640945533        13.424307086
    52.808696088        56.611534505        13.437341122
    56.850033039        56.585095869        13.440029197
    60.755008019        56.605824385        13.411210536
    64.668354044        56.617244625        13.395926019
    68.607204374        56.673328951        13.334725437
    72.496376073        56.669809014        13.287715388
    76.382731347        56.660109633        13.266429588
     2.035032249        60.618395885        13.213512026
     5.964611842        60.593208782        13.196727188
     9.888472525        60.622463367        13.207854567
    13.763953264        60.649136666        13.259240551
    17.661026604        60.663998622        13.246612852
    21.544956622        60.645460288        13.282120442
    25.483885185        60.617770118        13.321566374
    29.365702883        60.614015519        13.342102014
    33.301736786        60.588202649        13.391268774
    37.181676867        60.589375962        13.419243504
    41.129837050        60.588515533        13.438372593
    45.016818196        60.603142826        13.463971815
    48.976635254        60.545337641        13.496416250
    52.858061781        60.544946537        13.506512158
    56.776258318        60.598058472        13.490633764
    60.723479692        60.554411256        13.446499330
    64.654037211        60.572949590        13.399770591
    68.575597812        60.559730272        13.379891342
    72.508580587        60.585543142        13.314846187
    76.387112455        60.607757854        13.274024962
     2.047338467        64.511837079        13.242111890
     5.960457613        64.501277269        13.235704270
     9.859447688        64.574883058        13.271274374
    13.800645039        64.619156041        13.285933757
    17.696544868        64.598349304        13.297905066
    21.602458658        64.611177518        13.330599555
    25.513770597        64.582079373        13.365075675
    29.424926068        64.554076321        13.411366820
    33.352119522        64.532487375        13.432746390
    37.240978286        64.544768044        13.483882321
    41.161365377        64.520910694        13.489352240
    45.072520848        64.517625420        13.518420954
    48.986883916        64.508942909        13.552209426
    52.887243087        64.486337093        13.573620253
    56.762723825        64.430878533        13.552428223
    60.683971491        64.448791100        13.516076703
    64.635730440        64.445662268        13.478912508
    68.541253059        64.493298746        13.414023638
    72.434101760        64.511837079        13.367201129
    76.358948192        64.524430631        13.324567015
     2.039249065        68.415525201        13.305437926
     5.983677483        68.405904040        13.296217205
     9.886829610        68.489834977        13.320253593
    13.801818550        68.493198473        13.326411160
    17.734488389        68.509077299        13.376734417
    21.636490475        68.528241399        13.379735058
    25.561806311        68.500394788        13.433371524
    29.460209630        68.475833451        13.458658179
    33.399842300        68.460345729        13.491102614
    37.261006206        68.440477642        13.502730100
    41.202516493        68.424520595        13.560898784
    45.108195580        68.424755257        13.579965359
    49.013014093        68.433437768        13.637071316
    52.908209815        68.414821213        13.635195916
    56.769999593        68.355686275        13.613253725
    60.692029599        68.375476142        13.577402312
    64.579401916        68.401210791        13.508856409
    68.536871952        68.403166312        13.461533794
    72.449357402        68.433437768        13.433777860
    76.356053532        68.414351888        13.371608321
     2.054191771        72.359027718        13.402646206
     5.943762465        72.331259328        13.351291478
     9.890663079        72.407602846        13.393644281
    13.855174181        72.438812952        13.373796289
    17.741764156        72.424498543        13.422212888
    21.686482040        72.434197924        13.449531228
    25.587936488        72.424733205        13.475099193
    29.523579221        72.397668802        13.496916357
    33.406805132        72.399937206        13.528110525
    37.339944375        72.351518520        13.563868169
    41.225752010        72.357385081        13.608658993
    45.112733156        72.350892753        13.635508482
    49.024514500        72.350188766        13.669859575
    52.900934047        72.282605980        13.701053743
    56.783142916        72.278616718        13.668140458
    60.681311533        72.275644327        13.611815918
    64.590980557        72.281589109        13.571869879
    68.507064774        72.291053828        13.537550043
    72.423774864        72.328052275        13.476880824
    76.338842038        72.337908098        13.432496336
     1.982013025        76.200060965        13.438060026
     5.913994404        76.217191324        13.404865430
     9.923599619        76.332332367        13.368451396
    13.851653648        76.334835434        13.423306872
    17.768989610        76.327248014        13.445124036
    21.694931319        76.317392191        13.457220371
    25.587154147        76.293534842        13.500792185
    29.500578406        76.282114603        13.531142423
    33.430353585        76.286260306        13.571025949
    37.292691001        76.251373821        13.584810145
    41.225517308        76.246915235        13.615035356
    45.117896604        76.235182112        13.656544229
    49.017238732        76.203189798        13.715119250
    52.936295844        76.202564031        13.702210241
    56.716643963        76.156570190        13.743219007
    60.646575609        76.125203643        13.703554278
    64.581436001        76.161889206        13.643416423
    68.469277722        76.168850859        13.589717444
    72.378007937        76.178315578        13.539956807
    76.319283523        76.185746555        13.510450500
    11.602111423         0.268081515         3.839445722
    11.688872998         0.274994671         0.020629410
    15.568108972         0.280315251         3.796811608
    19.490373681         0.278638979        31.256337619
    19.490999553         0.236592160         3.844665587
    23.429849882         0.269779689         0.030855502
    27.298758960         0.256450079         0.075758694
    27.338736566         0.225093700         3.882236119
    31.250048505         0.280499852         0.090696575
    35.123808095         0.232220399         0.151290777
    39.068838915         0.229513958         0.184173744
    39.047402782         0.193042720         4.010576053
    42.931567502         0.191235819         0.195208603
    46.847886421         0.179270381         0.217909705
    50.707407412         0.106650956         0.249468014
    58.525259013         3.614787354         0.657328011
     3.822672747         3.724249566         0.407940327
     7.717946704         3.853697197         0.312022010
    11.617992938         4.227803901         3.763398216
    15.527192558         4.203054834         3.755521532
    19.456420098         4.163913137         3.787278320
    23.381188296         4.190015424         3.789810112
    23.343714180         4.207638574         0.023442511
    27.265900654         4.168629853         3.862825719
    31.214921411         4.181184294         3.878579087
    35.079371148         4.158492435         0.105553813
    38.986380214         4.154550105         0.144861591
    42.909114326         4.157334767         0.170034784
    46.779744553         4.119593222         0.216215281
    50.677913170         4.100264858         0.221328874
    54.576160021         3.980563541         0.267279946
    62.452061296         3.649360955         0.600012634
    66.382227645         3.657042239         0.562929707
    70.268817621         3.666178431         0.507964833
    74.179112517         3.725485455         0.497481342
    78.117336974         3.701416909         0.429791873
     3.823142151         7.652608533         0.399451012
     7.794952491         7.726198678         0.310383848
    11.579814716         8.152721152         3.772431397
    15.518039173         8.142083121         3.742299956
    19.384053590         8.108213507         3.773306584
    23.339176604         8.084747262         3.789310005
    27.264648909         8.071997269         3.801750164
    31.144432521         8.080914442         0.018043607
    31.187383021         8.051346973         3.857011977
    35.057152674         8.050642986         0.054161578
    38.967212868         8.029523365         0.106118621
    42.866398528         8.023735024         0.140470340
    46.779979255         8.018024905         0.157814672
    50.666882167         7.915555634         0.152901747
    54.566458997         7.912348580         0.275975868
    58.526823694         7.481891599         0.598124730
    62.478973814         7.538601692         0.603900965
    66.406323736         7.550178373         0.524943462
    70.290097285         7.594380957         0.506114437
    74.209467333         7.613005333         0.463077113
    78.161460985         7.628234926         0.404977193
     3.827233793        11.578558299         0.360001954
     7.755201764        11.643638020         0.295118710
    11.621122301        12.080579507         3.711855948
    15.501375317        12.035680757         3.718701161
    19.409401426        12.046240568         3.745831961
    23.317818705        11.991173112         3.784652759
    27.247280947        11.989530475         3.791310432
    27.226627155        12.003453780        31.223768157
    31.144588989        11.963639384         3.804500752
    31.139816712        11.993754399         0.018005005
    35.062863760        11.976154715         0.042308419
    35.086177511        11.952923132         3.856168046
    38.951566056        11.910292787         0.071749712
    42.849187034        11.928283575         0.118360613
    46.744852161        11.910292787         0.119555556
    50.642081970        11.860153243         0.197825412
    54.564268444        11.801565850         0.213894160
    58.548650997        11.386839076         0.623830225
    62.483746092        11.453874316         0.568255846
    66.414851249        11.468970934         0.538036886
    70.304257651        11.492906504         0.486344586
    74.233876361        11.512539929         0.444535649
    78.169519094        11.531000042         0.440444150
     3.854099370        15.524329221         0.336018703
     7.826066178        15.498359909         0.268104185
    11.568157840        15.988569773         3.741362255
    15.482207972        15.936944033         3.699759612
    19.392894039        15.923646494         3.746457094
    23.325329175        15.893687921         3.757396933
    27.237266987        15.872411859         3.766742681
    27.205503958        15.881563694        31.223611873
    31.173144422        15.895330558         3.828037033
    31.129255113        15.884536086        31.242928502
    35.068966017        15.833614333         3.840946042
    35.036968286        15.868813701         0.026569742
    38.948201991        15.874680263         0.075765258
    38.990526619        15.855125058         3.874078125
    42.845510033        15.842609727         0.105955149
    46.757056675        15.818674157         0.141148922
    50.648262461        15.750622046         0.133073758
    54.571935382        15.757583699         0.221884930
    58.532378312        15.296628421         0.563064111
    62.470915705        15.347863056         0.564276870
    66.369162556        15.385174386         0.531882445
    70.323112060        15.407936644         0.462489487
    74.215021952        15.433514851         0.436265131
    78.182349480        15.445717299         0.361789836
     3.832561532        19.406037292         0.317480365
     7.748739631        19.483397681         0.268990625
    11.564637308        19.863941958         3.657375552
    15.447159112        19.849627549         3.704354344
    19.425830579        19.847906691         3.702541457
    23.307882979        19.816070818         3.718232311
    27.222246047        19.795811626         3.747269768
    31.121822877        19.778290163         3.791966823
    35.075068274        19.801208863         3.825411472
    35.045182862        19.791196598         0.019379142
    38.962127654        19.758969621         3.869545906
    38.911275514        19.754198151         0.047982132
    42.856697504        19.769529432         0.085472333
    42.838781904        19.742543250         3.913805367
    46.741253395        19.719624550         0.120338224
    50.637544394        19.685676715         0.151127930
    50.670246232        19.655483480         3.947656353
    54.547604588        19.585866952         0.203257198
    58.538871739        19.207825741         0.584184250
    62.478739112        19.264457613         0.548895457
    66.389112242        19.324531200         0.516385383
    70.314428079        19.314675377         0.460439049
    74.233250488        19.337124752         0.399235341
    78.134157297        19.399779627         0.361483521
     3.804483328        23.322866511         0.300305756
     7.774541224        23.367843481         0.234395730
    11.555327454        23.783430685         3.659094670
    15.499341232        23.770289588         3.652343227
    19.367233267        23.737984390         3.675098091
    23.323138622        23.727033476         3.707136189
    27.231321198        23.708338700         3.741956132
    31.148500693        23.680570310         3.771524953
    35.066149591        23.659294248         3.791122892
    34.991436062        23.676111723        31.251119441
    38.968621081        23.642007447         3.866764061
    38.945854969        23.686827975         0.029381281
    46.760968378        23.646857138         0.080762576
    46.776536957        23.611814211         3.888987562
    50.632459180        23.558076510         0.101894594
    54.579445852        23.539303513         0.197808534
    58.519313224        23.101970922         0.534332969
    62.468099279        23.151484700         0.540027937
    66.377377133        23.234711650         0.503910841
    70.300345948        23.226029139         0.442560227
    74.225505316        23.265452431         0.376164784
    78.154419920        23.269441693         0.337340860
     3.826725271        27.249473332         0.275810207
     7.762102008        27.292573003         0.231711406
    11.556657433        27.693845797         3.605208151
    15.463588265        27.661305937         3.627650448
    19.376934290        27.659741520         3.683318598
    23.306553000        27.639169445         3.669815711
    27.214344407        27.600528361         3.719920172
    31.119554090        27.607959339         3.764836023
    35.065758421        27.593566709         3.790966609
    38.923949432        27.545539127         3.819910296
    42.860765676        27.531381159         3.829287300
    46.749937375        27.523089752         3.876016039
    46.740627522        27.520195582         0.067982657
    50.634571500        27.523871960         0.099613793
    50.678304340        27.484526889         3.898489593
    54.554723888        27.414675699         0.153996043
    58.541844634        27.023962715         0.530991630
    62.434849803        27.077543975         0.483250175
    66.397796223        27.114229539         0.450283753
    70.292287839        27.173677360         0.416054561
    74.222610656        27.173912022         0.330751952
    78.134861404        27.213726419         0.267664716
     3.791840703        31.151127712         0.264764096
     7.764769790        31.208150688         0.205057271
    11.562055584        31.614429615         3.654031087
    15.492613102        31.581655092         3.620398898
    19.396883976        31.564368292         3.647904778
    23.300059573        31.549193453         3.675598198
    27.197837020        31.538086097         3.664252022
    31.135357370        31.509848382         3.709042847
    35.015845089        31.485912812         3.780026770
    38.978009169        31.498271701         3.831444011
    42.842850075        31.463619879         3.829568610
    46.767148869        31.435538605         3.851854624
    50.621819348        31.408083098         0.054494461
    54.576394723        31.370302443         0.170188567
    58.530813631        30.903167721         0.508655605
    62.441577932        30.988819516         0.483559616
    66.353359276        31.033561824         0.425572221
    70.329840189        31.052960586         0.393443478
    74.208372056        31.104977430         0.335709261
    78.145110066        31.130633858         0.310323210
     3.787389185        35.052312768         0.226336819
     7.717047012        35.131237573         0.152418519
    11.573008352        35.527582455         3.576358234
    15.471881076        35.520307919         3.624024673
    19.402986233        35.451942925         3.586047805
    23.276432886        35.475643832         3.665596059
    27.211136810        35.443807960         3.660063627
    31.124013431        35.430979745         3.704791938
    35.063802569        35.420967481         3.722639503
    38.944055586        35.381153085         3.792404416
    42.875943084        35.407982825         3.768680595
    46.771217040        35.335863231         3.842290080
    46.731708839        35.321548822         0.011252405
    50.603434343        35.337818752         0.068706562
    54.557462080        35.241372484         0.069580499
    58.521894948        34.840412573         0.501472820
    62.426713460        34.901190148         0.455744295
    66.362903831        34.940456999         0.428600993
    70.295730138        34.974483054         0.393906077
    74.202817438        35.005693160         0.315939410
    78.111156483        35.073901713         0.292375311
     3.790189964        38.989401178         0.213455628
     7.762673117        39.030936432         0.153940094
     7.683985297        38.984082163         3.926089243
    58.499285304        38.754269401         0.441866329
    62.462231724        38.825685007         0.456569471
    66.362825597        38.857364438         0.381987904
    70.292287839        38.881769333         0.348849570
    74.187483562        38.917359805         0.292318111
    78.140494256        38.968437999         0.262558937
    11.564637308        39.450591119         3.594987216
    15.471724608        39.405614148         3.551696712
    19.353620540        39.400295133         3.588173260
    23.289497975        39.382460786         3.651405526
    27.176713823        39.323716952         3.653124644
    31.123231090        39.323247628         3.695883784
    34.998007723        39.293601938         3.713981402
    38.939596244        39.344680132         3.763335702
    42.834479031        39.296574329         3.795405057
    46.786003278        39.279052866         3.826192889
    46.743913353        39.267789068         0.011877539
    50.696298175        39.243149510         3.815346820
    54.559652634        39.190037575         0.082135370
    54.613477669        39.153195570         3.881048365
     3.803740104        42.903023343         0.189819638
     7.710099827        42.967711960         0.123215714
     7.665021361        42.938770257         3.937685471
    11.572304246        43.346378937         3.539444093
    15.463510031        43.311961778         3.564543208
    19.394928125        43.311492453         3.548789841
    23.289732677        43.282863634         3.579171335
    27.175227376        43.233897402         3.619429941
    31.096318573        43.244144329         3.693508276
    35.023824963        43.217079926         3.678161245
    38.923480028        43.224276241         3.736986320
    42.839642479        43.217705693         3.759334847
    46.765349486        43.161073821         3.780745674
    50.676035553        43.160448054         3.831975375
    50.628782179        43.175544672         0.053452364
    54.565129018        43.102877532         0.065794689
    58.514853882        42.716857798         0.462405094
    62.441656166        42.719986630         0.439475192
    66.388799306        42.747755021         0.379409228
    70.304022949        42.803682905         0.332158502
    74.230903466        42.830356204         0.275617041
    78.125864487        42.876115382         0.237214145
     3.806767762        46.808745206         0.175205264
     7.774251758        46.823059616         0.114207225
     7.647262228        46.835027401         3.913649083
    11.526850256        47.255464295         3.585860265
    15.427678831        47.231294063         3.537568692
    19.356671668        47.201335490         3.557072861
    23.254762051        47.167700538         3.580734169
    27.158641755        47.157375390         3.626900288
    31.106880171        47.165275693         3.680192930
    35.016392727        47.146033372         3.672097449
    38.923010623        47.137585523         3.737142603
    42.847074715        47.121706697         3.750958056
    46.747825056        47.090731253         3.794811181
    46.739219309        47.124913751        31.220017355
    50.640360820        47.071488932        31.253362827
    54.597830856        47.026433741         0.028011644
    54.624586906        47.005235900         3.835851203
    58.507421646        46.624065856         0.415648224
    62.450574849        46.651834246         0.414326067
    66.351951063        46.689849563         0.347718078
    70.270069366        46.695403242         0.308634724
    74.214004909        46.744682357         0.251512201
    78.158253389        46.790519756         0.225920480
     3.808402854        50.734804481         0.168160008
     7.725277235        50.766014588         0.088143842
    11.563229095        51.136077276         3.497591397
    15.416960764        51.092351839         3.508374952
    19.334296726        51.099235270         3.558104332
    23.247173347        51.069276697         3.559417113
    27.150505412        51.069120256         3.621492882
    31.059626798        51.043542048         3.651968146
    34.955448393        51.030713834         3.687913330
    38.885771210        50.993637167         3.710855734
    42.820788070        51.013974579         3.718201054
    46.743678650        50.994341154         3.795686368
    50.671810913        50.979088095         3.839101898
    50.638170267        50.992698517         0.034577704
    54.627403332        50.939899465         3.875203365
    54.591885068        50.859410244         0.015628341
    58.569539492        50.557947213         0.420083547
    62.464578746        50.559824513         0.366431454
    66.396309776        50.610668044         0.337784705
    70.271164642        50.640704838         0.269629824
    74.194994032        50.659008509         0.245240548
    78.102707204        50.686542237         0.216359374
     3.803223759        54.643655177         0.079216933
     7.699757284        54.704667415         3.911773682
     7.803972878        54.649991063         0.096478436
    11.579345311        55.032803744         3.530348399
    15.447628517        54.996900389         3.575576817
    19.361522180        54.996822168         3.553603370
    23.204692251        54.973590585         3.631151197
    27.137675026        54.969757765         3.639809297
    31.038112431        54.964986295         3.683037288
    34.941757432        54.961075255         3.689976271
    38.857450479        54.912109023         3.726077738
    42.775881718        54.917740922         3.739736908
    46.669590994        54.920243988         3.814034040
    46.740001650        54.934401956        31.236802193
    50.625887519        54.927205641         3.812189895
    50.585988147        54.884418853         0.000000000
    54.594779728        54.821294654         3.871577590
    54.524447306        54.722267098         0.228895491
    58.547946891        54.523116897         0.335615491
    62.512301524        54.516311686         0.307289124
    66.409374864        54.558472707         0.285764210
    70.322095017        54.575055520         0.239833454
    74.224018869        54.592733425         0.193001569
    74.221828315        54.531564745         3.981663622
    78.154185217        54.584285576         0.139733620
     0.320176811        58.413272817         3.564230642
     4.244855040        58.415541221         3.550008851
     8.058812513        58.776139190         3.903959512
    11.900965541        58.834022595         0.113115742
    15.847482808        58.787872312         0.154128259
    19.718191270        58.869143742         0.180183204
    23.659545089        58.841922897         0.202750528
    27.557479004        58.805628438         0.236944712
    31.476223179        58.766283367         0.250916136
    35.359683792        58.769021095         0.305083027
    39.284999629        58.746493500         0.314079638
    43.180899458        58.749544112         0.378730958
    47.167316097        58.706053337         0.384138364
    51.062746522        58.846146821         0.436730856
    55.133655948        58.423050419         3.832756792
    55.133499480        58.450349484         0.025630479
    59.022905882        58.356875608         0.006671864
    59.041682057        58.355936958         3.840102112
    62.934843694        58.370720692         3.752114554
    66.839896909        58.381202282         3.737986534
    70.720854032        58.413272817         3.649561382
    74.644135783        58.424301952         3.637183736
     0.286169247        62.343868900         3.588610853
     4.235553010        62.312189469         3.588423313
     8.033151740        62.681782832         0.174151914
     8.124137955        62.706187727         3.921775821
    11.967308026        62.749913164         0.195223919
    15.861643174        62.764384015         0.231194733
    19.784924925        62.753902425         0.236904391
    23.695923928        62.730357959         0.282435061
    27.584469755        62.729732193         0.329779869
    31.537715152        62.721284344         0.303808067
    35.410614167        62.715574225         0.373461081
    39.323960192        62.714635575         0.413085176
    43.278692036        62.666607993         0.450039951
    47.202756127        62.685772093         0.462083150
    51.122282643        62.754215309         0.519764230
    55.106039324        62.294980889         0.092519777
    59.039335035        62.272296852         0.029312610
    59.045593760        62.312658793         3.865357511
    62.910043496        62.279102063         3.769524525
    62.920057456        62.234516197        31.254962325
    66.841305122        62.311016156         3.765679953
    70.704424879        62.305149595         3.732297818
    74.642571102        62.341991600         3.638277720
     0.314682433        66.246461930         3.653906061
     4.225108763        66.241142914         3.638058923
     8.080952752        66.606825236         0.214182971
    11.952600022        66.671435631         0.264228044
    15.928220361        66.651567544         0.282089987
    19.807925739        66.703349725         0.293092026
    23.751157176        66.655869689         0.336496930
    27.648230516        66.660328275         0.359545607
    31.565722946        66.645935645         0.390589743
    35.444645984        66.657668768         0.421555737
    39.372230608        66.584923407         0.473032366
    43.292382997        66.592119722         0.510946720
    47.208623682        66.605026157         0.530925991
    51.113833365        66.616602838         0.563795517
    55.093130704        66.227376050         0.152948007
    59.021967074        66.175984973         0.096563767
    58.979094807        66.193897540         3.906460047
    62.923969160        66.165894488         0.041484180
    66.810167965        66.219241085         3.804813319
    70.707241305        66.228705804         3.744487923
    74.598603559        66.213296303         3.695414934
     0.299712345        70.128013560         3.760678884
     4.189066330        70.122068778         3.688538464
     8.028379462        70.585527122         0.297050685
    12.011197335        70.618927411         0.306277658
    15.936904342        70.606255638         0.323478522
    19.860811965        70.613451954         0.361886732
    23.762031710        70.574967311         0.380325048
    27.682027631        70.567692775         0.427072541
    31.593339570        70.568240321         0.444404371
    35.504182105        70.548919779         0.478586678
    39.415259342        70.567536334         0.515113236
    43.343078669        70.503004159         0.536227124
    47.220593494        70.527487275         0.581027326
    51.147317543        70.544226530         0.599850099
    55.068565209        70.115811112         0.157727466
    59.010701369        70.077717574         0.164264488
    62.860364867        70.078578003         0.081144846
    66.801718686        70.083505915         0.047980569
    66.774414999        70.119252828         3.860481468
    70.692846238        70.106737497         3.816034467
    70.667576636        70.102278911        31.250336336
    74.608148114        70.157659250         3.768430541
    74.626141949        70.116827983         0.010939839
     0.234106825        74.084891837         3.822067007
     0.255922394        74.079807484         0.017312138
     4.165236235        74.032874993         3.816159494
     8.015079672        74.508066460         0.388783106
    12.069638179        74.521363999         0.343773485
    15.975082564        74.521207558         0.386748296
    19.908847679        74.546238219         0.387948553
    23.834319984        74.517844062         0.421211913
    27.764408098        74.519643141         0.433717712
    31.669774249        74.491092543         0.490064131
    35.566769355        74.507753577         0.529660095
    39.443580073        74.456831825         0.586169050
    43.350745607        74.463949919         0.584846892
    47.248523054        74.435086437         0.569087273
    51.205367217        74.459100228         0.643515683
    55.057534206        74.095216985         0.162997030
    58.940212479        74.006905682         0.208116675
    62.838772266        73.991652623         0.177464810
    66.729586881        73.994703234         0.141242692
    70.660066166        74.024818249         0.081003253
    70.628068434        74.062364242         3.867045371
    74.561833549        74.044764558         3.885768124
     3.761525004        78.013923503         0.444304350
     7.730581505        78.126326818         0.350553059
    54.583122853         0.061794446         0.248590014
    58.525650183        77.927176617         0.662279069
    62.417951245        77.954866786         0.629287642
    66.365329087        77.968007884         0.574110222
    70.251527893        77.959560035         0.506367616
    74.149148871        78.006961851         0.489564024
    78.045752807        78.035043124         0.432730001
     7.708190916        78.104894314         4.181550100
    11.642558434         0.347012577         7.604094205
    15.590562148         0.263580689         7.568586614
    19.508289281         0.260809325         7.621910513
    23.406614366         0.220249485         3.861294142
    23.442289098         0.216429962         7.615315353
    27.325045605         0.236217483         7.698489383
    31.218911349         0.238258264         3.909116865
    31.236201076         0.185468598         7.657886953
    35.172704384         0.215020423         3.940123493
    35.128110968         0.181534873         7.744155394
    43.012148586         0.161895973         3.989040199
    42.947683719         0.180544598         7.786383171
    46.848121124         0.169438024         4.046833803
    46.901085584         0.137111707         7.839144449
    50.757477211         0.123236116         4.062055807
    50.768977619         0.102954240         7.872589098
     3.808152505         3.692405871         4.186957506
     7.718173582         3.823230188         4.131508153
    11.641932561         4.259358179         7.561835171
    15.505834659         4.188990731         7.552051830
    19.471206335         4.175302088         7.562210251
    23.372817251         4.139547353         7.578119902
    27.308381750         4.175051782         7.617503321
    31.179950786         4.127172819         7.655167622
    35.109647730         4.143411461         3.896895502
    35.096269705         4.112005803         7.655448932
    39.030191288         4.131052572         3.934341007
    38.986771384         4.093420537         7.754345072
    42.917798307         4.072785885         3.967285549
    42.923509394         4.094140168         7.767097798
    46.837715993         4.094789401         3.985977044
    50.698097558         4.007275950         4.034612441
    50.722271883         4.032533452         7.835674957
    54.574282404         3.964911555         4.086029682
    54.667224470         3.925895012         7.860617789
    58.501554092         3.563943822         4.366089547
    62.404573221         3.605369567         4.422570371
    66.371040174         3.618964346         4.359525644
    70.259820703         3.652411567         4.311452868
    74.173088494         3.700963229         4.274757524
    78.094649096         3.708089145         4.232029641
     3.802472712         7.657520801         4.175611331
     7.685393510         7.689067256         4.112129011
    11.593662145         8.117287122         7.504385391
    15.524532600         8.092178240         7.523483223
    19.416520726         8.075360764         7.555552578
    23.330336155         8.043524891         7.559615947
    27.254009076         8.059325496         7.586215383
    31.172831486         8.063549420         7.643008773
    35.065132548         8.036015693         3.867482965
    35.081014063         8.036719680         7.652698344
    38.972298082         8.047983478         3.940154749
    39.012510390         7.998000375         7.704897002
    42.887756427         7.997374609         3.925932959
    42.897379217         8.002458962         7.751688254
    46.809629965         7.996592401         3.965410148
    46.820191563         7.974221247         7.747249806
    50.716873733         7.951458989         3.990978113
    50.707720348         7.891385401         7.792509480
    54.592745642         7.892871596         4.049584391
    54.593527983         7.855482046         7.847740036
    58.510238073         7.482603408         4.407910987
    62.434693335         7.510888056         4.385687487
    66.368301982         7.535754454         4.354774629
    70.292366073         7.572494772         4.307858350
    74.199218671         7.583124981         4.264036482
    78.116163463         7.647907462         4.218870578
     3.824151371        11.572613517         4.130101602
     7.736550764        11.596314425         4.080559762
     7.680277003        11.599990803         7.836331348
    11.579971184        12.095597903         7.537955067
    15.520464429        12.025512051         7.496633734
    19.441868562        12.009946108         7.539392874
    23.348251755        11.958163927         7.543393729
    27.268482378        11.973964532         7.588872201
    31.153116502        11.954018224         7.604906878
    35.080544658        11.952140924         7.675234412
    38.979260914        11.922729897         3.886111947
    38.976444488        11.918349531         7.678422593
    42.883218851        11.910214566         3.892081973
    42.858809824        11.902861809         7.709429221
    46.776145786        11.885653229         3.969536030
    46.763002464        11.895039727         7.776005953
    50.681668405        11.850140978         3.990227953
    50.716326095        11.844117975         7.768223039
    54.610504774        11.822216146         4.049084284
    54.642658974        11.750956981         7.812388730
    58.512350392        11.378704110         4.369809092
    62.455425361        11.422429548         4.374060001
    66.363373236        11.455595174         4.355055939
    70.314584547        11.483207123         4.297012281
    74.209545567        11.495174908         4.229716646
    78.133296723        11.512696371         4.219620738
     3.826177633        15.480838446         4.133571094
     7.703176113        15.543258659         4.035706424
    11.566749627        15.938977775         7.479036222
    15.475245141        15.928339743         7.503854027
    19.400326275        15.926775327         7.530109640
    23.323216856        15.889385776         7.525952501
    27.230460624        15.896973196         7.578088646
    31.165086314        15.874132717         7.608845220
    35.042835840        15.828060655         7.626974095
    38.968464613        15.810852075         7.688143421
    42.848404694        15.828529980         3.912992693
    42.882905915        15.784256997         7.693519570
    46.799381303        15.821881211         3.949531754
    46.789914981        15.776200253         7.706272296
    50.684250129        15.746241680         3.979194344
    50.709441497        15.714484028         7.777381247
    54.621926948        15.677798465         4.009919662
    58.528623077        15.302416761         4.357994067
    62.451983062        15.305467373         4.345522651
    66.376594792        15.328855398         4.309796264
    70.284229731        15.436565463         4.272507043
    74.220967740        15.411143698         4.232592261
    78.156219303        15.415445843         4.167265797
     3.801604314        19.381084852         4.101501739
     7.721514177        19.492393075         4.063399844
    11.579345311        19.905242550         7.514543812
    15.504348212        19.852599940         7.475191650
    19.410183767        19.834609152         7.479255019
    23.322982153        19.795811626         7.504354134
    27.234059391        19.792291690         7.534016725
    31.122214048        19.775474214         7.581964474
    35.046278139        19.752007968         7.624723614
    38.958137717        19.726195099         7.669764492
    42.885018235        19.739179754         7.681673288
    46.757213143        19.666121511         3.879766841
    46.802510665        19.666277952         7.694488527
    50.709754433        19.645940540         7.714774114
    54.614103541        19.602136882         4.004762310
    58.515088585        19.186315016         4.351461420
    62.452687169        19.238879405         4.359525644
    66.343580018        19.288314962         4.306920649
    70.310281674        19.287532754         4.251565066
    74.223549465        19.314284273         4.197553521
    78.121405145        19.363563388         4.172641946
     3.768988533        23.323257615         4.122537485
     7.672938648        23.369016794         3.989102712
    11.579423545        23.739157702         7.421367645
    15.477357460        23.777720565         7.429525639
    19.428255835        23.758400023         7.492445338
    23.321026302        23.726955255         7.492882932
    27.234841731        23.711623974         7.528984399
    31.149204799        23.666647004         7.553895974
    35.058482653        23.661327989         7.600312146
    38.958920058        23.651159283         7.671546123
    42.859983335        23.644041188         3.844353021
    42.862095655        23.605243663         7.667951605
    46.796408408        23.598516672         7.677453636
    50.692230004        23.570982944         3.942592770
    50.711319115        23.555417002         7.716368204
    54.640703122        23.517792789         3.989884129
    58.528075439        23.104317547         4.326924925
    62.438213867        23.168380396         4.318548135
    66.390833392        23.197009216         4.285916159
    70.291427265        23.194897254         4.220245872
    74.198983969        23.251059801         4.184832052
    78.121874550        23.301121124         4.146948954
     3.797770845        27.220453409         4.068713480
     7.713737711        27.302585267         4.018483993
     7.677577928        27.273643565         7.751063121
    11.547347580        27.712540572         7.429056789
    15.464370606        27.663574340         7.385672515
    19.413469597        27.662244586         7.462095101
    23.329240878        27.651919439         7.469127854
    27.240318116        27.618753812         7.530859800
    31.190042980        27.598807503         7.536642286
    35.065132548        27.575263037         7.596436318
    38.998506493        27.558367341         7.606782279
    42.897379217        27.521212452         7.633537999
    46.771060572        27.506506939         7.643133800
    50.684171895        27.494460933         7.689737512
    54.594545026        27.425783055         3.972849238
    54.641954867        27.388628167         7.707928900
    58.512428626        27.005111498         4.281790277
    62.477409133        27.070034777         4.280446240
    66.385591709        27.084270965         4.248970762
    70.278909815        27.128856831         4.180518630
    74.207746184        27.133393639         4.117317620
    78.096448479        27.179778584         4.087530002
     3.778141919        31.143696735         4.042895461
     3.751972625        31.095278049         7.796103999
     7.675528195        31.205569401         3.940811140
     7.685174455        31.210497313         7.769692103
    11.591549825        31.598472568         7.388173049
    15.462492988        31.576648960         7.426149917
    19.387339421        31.554590689         7.409740159
    23.301154850        31.556780872         7.458094246
    27.248845628        31.519391321         7.472878656
    31.141381393        31.511412798         7.529640789
    35.031413667        31.481767108         7.571899823
    38.954460716        31.469955765         7.591685302
    42.896831578        31.446098415         7.626130165
    46.806500602        31.420833091         7.643665163
    50.640751991        31.412307022         3.898083256
    50.725870650        31.372257964         7.656699199
    54.619345224        31.332365347         3.929871301
    54.616450563        31.309133764         7.716837055
    58.508282221        30.923505133         4.317329124
    62.423818800        30.950256653         4.250314799
    66.358913894        31.039428385         4.220527182
    70.258412490        31.038646177         4.151012322
    74.201174523        31.052178378         4.138822216
    78.097309054        31.109436017         4.090936981
     3.795595938        35.040579645         4.029642628
     3.739322177        35.034400200         7.793478437
     7.685620389        35.137338796         3.985601964
     7.665326473        35.100183908         7.737810288
    15.471959310        35.477755794         7.375826660
    19.373648460        35.461642306         7.407052085
    23.295209061        35.436689865         7.436120799
    27.239848711        35.436533424         7.481943094
    31.130819795        35.373722107         7.479255019
    35.061768484        35.399691418         7.509917823
    38.969716358        35.372939899         7.563460519
    42.878603042        35.351742057         7.593123109
    46.777397531        35.343450651         7.595686157
    50.681668405        35.328510474         3.862106816
    50.686284215        35.314665390         7.651229280
    54.586486917        35.266246704         3.912305046
    54.607140710        35.214855627         7.681048154
    58.504448752        34.828835892         4.249252072
    62.432189845        34.853319008         4.274913807
    66.358209788        34.926768355         4.197866088
    70.296747181        34.961341957         4.161608337
    74.195854607        34.967990726         4.128507512
    78.100281948        35.012811255         4.082685217
    78.069770664        35.004206965         7.849084074
     3.722141977        38.953341381         7.790977903
     3.784916989        38.954592914         3.988665119
     7.662533517        38.992060686         7.749000180
    11.532483108        35.534153004         7.412834571
    58.502414666        38.753017868         4.277695652
    62.406137902        38.794318459         4.214557156
    66.348743466        38.827171203         4.195584350
    70.241670401        38.868393573         4.118536630
    74.172932026        38.895457976         4.124537913
    78.087764499        38.945910404         4.054522947
    11.545235260        39.425795119         7.354665887
    15.469846990        39.404440836         7.368700137
    19.408619086        39.368224598         7.363323987
    23.299511935        39.376516004         7.424430800
    27.233433518        39.329974618         7.438777616
    31.129020411        39.290551326         7.493851889
    35.030553093        39.273264525         7.515075176
    38.932085774        39.296417887         7.549207472
    42.835261371        39.283589673         7.583402281
    46.780918064        39.279052866         7.619409978
    50.683467789        39.174549853         7.602656397
    54.594936196        39.156871949         7.664294573
    58.525493715        42.647788816         4.242406859
     3.779119845        42.882607710         3.978569211
     3.744039691        42.843653743         7.756751837
     7.644218923        42.914600024         7.704271869
    11.528258469        43.329717903         7.343632278
    15.427522363        43.283958725         7.358104122
    19.393832848        43.261509350         7.367543639
    23.274555269        43.266437262         7.405457994
    27.208555086        43.262917325         7.436339595
    31.113060662        43.202296191         7.460344727
    35.031335433        43.215359068         7.483881008
    38.943977352        43.204173491         7.504260364
    42.870231997        43.214029314         7.557678033
    46.758621356        43.150983335         7.588747174
    50.686831853        43.144960332         7.634569469
    54.612773562        43.117348384         3.896707962
    54.626699225        43.053520196         7.633537999
    62.399644475        42.716936018         4.209181006
    66.332236079        42.746581708         4.173485876
    70.268113514        42.782954388         4.141666575
    74.179581922        42.803839347         4.079465778
    78.077828773        42.839742702         4.037831879
    78.081740476        42.791324016         7.787695951
     3.776858880        46.776831113         3.982663836
     3.726437027        46.764863328         7.736341224
     7.651510338        46.838078013         7.727651866
    11.520747999        47.230668296         7.342694578
    15.441604494        47.208688246         7.339443883
    19.363399798        47.162616185         7.345070085
    23.273851162        47.181545623         7.382109253
    27.178200270        47.156514961         7.415991496
    31.110948343        47.122488905         7.428056575
    35.015297451        47.139384602         7.507823626
    38.940300351        47.120611606         7.514512556
    42.830802030        47.091357020         7.541111991
    46.767696508        47.112241978         7.617096984
    50.661640485        47.036367785         3.820535429
    50.673297360        47.027763495         7.596905168
    54.607923050        47.020567180         7.668451712
    58.509064562        46.624222298         4.227559935
    62.406998477        46.627664013         4.158451412
    66.331453738        46.671311230         4.124881737
    70.258334256        46.678429324         4.099063718
    74.176687261        46.728177764         4.053772786
    78.106775376        46.730602609         4.013732977
    78.088155669        46.702364894         7.803824399
     3.747262934        50.689436407         3.916180875
     3.765311533        50.666830591         7.720775396
     7.666679923        50.747945579         3.870639890
     7.638640835        50.743017667         7.661200162
    11.558926221        51.141709174         7.306218030
    15.458815988        51.117147838         7.320439821
    19.347909453        51.095558892         7.355509817
    23.264228373        51.058716887         7.377920858
    27.162475224        51.086876381         7.406395694
    31.077855334        51.039865670         7.429056789
    34.985881443        51.042759840         7.478098522
    38.904782087        51.012957709         7.488757050
    42.820631602        51.045732231         7.533860441
    46.738749905        51.027428560         7.560678674
    50.667195104        50.998017533         7.609720407
    54.666285661        50.851431720         7.564585759
    58.569304790        50.473312288         4.182987907
    62.448697232        50.565299970         4.155919621
    66.392163371        50.577033092         4.140009970
    70.282273879        50.586419591         4.083404120
    70.258177788        50.567959478         7.853491266
    74.189361179        50.637654226         4.032080649
    78.088625073        50.635933368         3.966129052
     3.840776109        54.566294788         3.879423017
     3.801893780        54.576619936         7.688049651
     7.664904009        54.682609144         7.725526412
    11.492661970        55.026154975         7.339287599
    15.438709834        55.014030748         7.344663749
    19.318180510        54.991659594         7.367606153
    23.249363901        54.977892730         7.387016552
    27.137049154        54.971165740         7.440527991
    31.058844457        54.968349791         7.462814004
    34.928222939        54.950359003         7.497727718
    38.846732413        54.946682624         7.525514907
    42.720100832        54.925406562         7.552520680
    46.697598788        54.940737842         7.584933859
    50.587396360        54.905929578         7.622848213
    54.582575214        54.764193457         7.664638397
    58.559369064        54.392018807         4.125788180
    62.511988588        54.505517213         4.117911497
    66.423456996        54.472977353         4.079778345
    70.311455184        54.537665969         4.020828244
    70.313723972        54.470552508         7.788789935
    74.257424813        54.511774878         7.781725925
    78.176951329        54.561523318         3.964441191
    78.131732041        54.525228859         7.723744781
     0.311429461        58.425866369         7.401519652
     4.167653668        58.393717613         7.330160648
     8.073911687        58.753142269         7.680454277
    11.932728570        58.892375325         3.896239112
    11.938830827        58.871568587         7.697489169
    15.834417720        58.870160612         3.915774538
    15.860469663        58.858505711         7.737560234
    19.701683883        58.876731161         3.977350200
    19.745416723        58.908410592         7.761409082
    23.653912236        58.870395275         3.973036778
    27.542223362        58.833787932         4.045864846
    27.569057645        58.900823173         7.793791004
    31.467539198        58.848571667         4.063462358
    35.348574556        58.850448966         4.097094547
    39.288285460        58.809070154         4.088405189
    43.165487348        58.805080892         4.185457185
    47.167629034        58.812277207         4.187551383
    51.146769905        58.825965850         4.188301543
    55.094304215        58.425084160         7.605438242
    59.013283093        58.305562751         7.611970888
    62.962460318        58.352573463         7.590528805
    66.852805529        58.362116402         7.507229749
    70.748001252        58.377917007         7.467971357
    74.620509096        58.408344905         7.416960453
     0.285339183        62.327990074         7.396049733
     4.194644419        62.297171072         7.348508320
     8.059907789        62.712367171         7.732027802
    11.991012947        62.762115611         3.976099933
    11.989604734        62.790744430         7.792165657
    15.870248921        62.813741351         4.039425970
    15.911556505        62.829541956         7.785664267
    19.825215467        62.800600253         4.018859073
    19.808160441        62.814836442         7.801980255
    23.714465401        62.792856392         4.087748799
    27.641893557        62.774161617         4.088717756
    31.546242665        62.727933114         4.110191096
    35.459197519        62.742560407         4.141228981
    39.352046220        62.706187727         4.213213118
    43.278535568        62.687180068         4.228122555
    47.184449357        62.728089556         4.263036269
    51.158661482        62.742638628         4.272131963
    55.031404029        62.346371966         3.878078980
    55.091644257        62.357009997         7.683486175
    59.012657220        62.298891930         7.635319629
    62.908557049        62.286689482         7.585027629
    66.816426690        62.262753912         7.542643569
    70.740177845        62.332526881         7.504885498
    74.632009503        62.325095903         7.456937748
     0.275179708        66.229566233         7.425837350
     4.219507204        66.213139861         7.453530770
     8.099024821        66.598690271         4.011076159
     8.124450891        66.659624288         7.735090957
    12.012292612        66.699673347         4.039957333
    12.041395683        66.713440211         7.830048755
    15.914216464        66.724860450         4.085467061
    19.835542363        66.716256160         4.084935698
    19.861281369        66.764205521         7.869713483
    23.737466215        66.690990836         4.150574729
    27.660043859        66.678866609         4.145917483
    31.534742258        66.662909562         4.226841031
    35.482980674        66.649064478         4.180456116
    39.423004515        66.628335961         4.221246085
    43.329387708        66.606121249         4.280008647
    47.228964538        66.634202522         4.317923001
    51.157566205        66.672608944         4.307764580
    55.084133787        66.243411318         3.960284052
    55.024206495        66.299495644         7.700552324
    58.970097890        66.200389868         7.681079411
    62.890954385        66.188422083         3.876859969
    62.908791751        66.213296303         7.630474844
    66.810950306        66.222369918         7.601562413
    70.703877240        66.220805501         7.543331216
    74.635451802        66.255066220         7.493164242
     0.278927120        70.156877041         7.512168304
     4.242398491        70.141702203         7.452311760
     8.137672447        70.550249533         4.017358752
    12.050001430        70.627531701         4.097938477
    15.934713788        70.628392130         4.106315268
    19.852049750        70.665077693         4.133946174
    23.784954291        70.594991841         4.173860956
    27.727872791        70.631912066         4.184644511
    31.608438744        70.595617607         4.239937581
    35.513022554        70.590611475         4.266411990
    39.450151734        70.519821635         4.326893669
    43.347538011        70.545947388         4.317360381
    47.244846053        70.545478063         4.365558184
    51.149742799        70.578017923         4.377623263
    55.019355984        70.152183792         3.983820333
    58.943185373        70.094769712         3.960190282
    58.930433221        70.118783503         7.728339513
    62.863494229        70.092188425         3.907303977
    62.853871440        70.095786583         7.713305050
    66.754152376        70.135288096         7.648791259
    70.674226531        70.136226746         7.599905809
    74.611433945        70.139355578         7.526608891
     0.265790838        74.072454727         7.595936211
     4.232619233        74.074253806         7.569117978
     8.113185186        74.430706072         4.120193234
    12.073158712        74.558284225         4.150605985
    16.047292603        74.584018874         4.108972086
    19.922460406        74.552574105         4.163827562
    23.863814225        74.556015821         4.175611331
    27.698926188        74.538416137         4.229435336
    31.685890466        74.535052642         4.224965631
    35.564735269        74.508692227         4.300981880
    39.462825652        74.489058801         4.310265114
    43.376484614        74.469425376         4.359806954
    47.277156721        74.475917704         4.388594358
    51.123847325        74.475995925         4.443231037
    55.044703820        74.113755319         4.016139742
    55.003709171        74.162565109         7.786539454
    58.899296064        74.018404142         4.012513967
    58.881536932        74.033187877         7.808325361
    62.761789949        74.014962426         3.959658918
    62.797229979        74.001430225         7.772192637
    66.715817686        74.012224698         3.952376112
    66.714409473        74.061816696         7.707241253
    70.653259802        74.070264544         7.698864463
    74.567075232        74.085204720         7.648853772
     3.669881623        77.988267075         4.151793739
    54.608705391        78.184090311         4.002386802
    58.465957593        77.864599963         4.393751710
    62.380790066        77.922874472         4.383749572
    66.301803029        77.929679683         4.332207305
    70.201771029        77.955101449         4.321986370
    74.098844369        77.982009410         4.253815548
    78.053654447        77.983808489         4.219370685
     7.693302974        78.124136635         7.931664226
    11.607431340         0.250887015        11.372430976
    15.590875084         0.257275309        11.379401216
    19.534810628         0.256464159        11.385121189
    23.434152756         0.209593463        11.410501614
    27.370421361         0.207495581        11.453198241
    31.237609289         0.175862300        11.465513373
    35.162768658         0.134859729        11.499426873
    39.081434599         0.161342952         7.746312105
    39.052566230         0.148859691        11.538622751
    42.974752704         0.109558424        11.554938739
    46.907657245         0.146920597        11.628548224
    50.818421546         0.074363123        11.659179772
     3.766328575         3.713674111         7.982893927
     7.665834995         3.792716248         7.886185755
     7.743623123         3.808360411        11.712441157
    11.607509574         4.210032131        11.331641007
    15.548393989         4.167816356        11.335516835
    19.486305509         4.127164997        11.355177288
    23.381657700         4.131005639        11.362397581
    27.298289556         4.097574062        11.412658325
    31.186991851         4.078065790        11.449978803
    35.080388190         4.043672097        11.492987996
    39.036841184         4.059144174        11.511491952
    42.922022946         4.020166741        11.521181523
    46.790149683         4.057298163         7.799073383
    46.843427080         4.014331468        11.556782883
    50.743003910         4.024500174        11.623859721
    54.639920782         3.942540402        11.670057097
    58.516809734         3.559774653         8.190125725
    62.407389647         3.599722024         8.176372785
    66.332861952         3.608529688         8.113984449
    70.251214957         3.623579374         8.086572339
    74.124896312         3.641343321         8.051346059
    78.044266360         3.664598370         7.996209273
     3.760766134         7.634805475         7.952699973
     7.718204876         7.747240078         7.919442864
     7.667000682         7.695622161        11.666775145
    11.587325186         8.137702755        11.319575928
    15.525471409         8.055492676        11.292413871
    19.416990130         8.051581635        11.323826836
    23.349894671         8.043368449        11.349207262
    27.274662869         7.989630748        11.378776082
    31.196145236         7.984468174        11.391466295
    35.090089214         7.984311732        11.467826368
    39.034807098         7.949503468        11.473296287
    42.929064012         7.953649172        11.522463047
    46.834899567         7.929713602        11.515274010
    50.738701036         7.911175268        11.570191999
    54.646179507         7.850554134        11.629798491
    58.488176067         7.437986254         8.159650461
    62.420141799         7.491583158         8.176247758
    66.347882892         7.515737747         8.121329769
    70.250119680         7.562091403         8.095136670
    74.148992403         7.580121302         8.045157236
    78.076342325         7.586777893         8.009337079
     3.779151138        11.556500029         7.936540268
     3.719474196        11.543046048        11.699157067
     7.706172477        11.624239257        11.691124100
    11.582083504        12.021601010        11.277848258
    15.527114324        11.975763611        11.297196144
    19.448049053        11.988904708        11.294164246
    23.378684806        11.955973744        11.338579990
    27.273880528        11.918114868        11.360834747
    31.151317119        11.890111816        11.392779076
    35.084612830        11.906381746        11.438476344
    38.979260914        11.883932371        11.486017756
    42.870466699        11.881116422        11.502740081
    46.820426265        11.843961533        11.536778607
    50.733302886        11.821042834        11.567941518
    54.675595514        11.791162482        11.623703438
    58.495921239        11.394348274         8.168808668
    62.412553095        11.390202571         8.125455651
    66.351325190        11.435805307         8.113546855
    70.294087223        11.433302241         8.060441754
    74.176921963        11.522943298         8.032216970
    78.081975178        11.509332876         7.986332162
     3.780434177        15.454399810         7.921787115
     7.688209937        15.575720298         7.862555703
     7.643718225        15.537470318        11.643863998
    11.573399523        15.956655679        11.288694326
    15.543778179        15.914807542        11.278442135
    19.415973087        15.884692527        11.298071331
    23.330962028        15.893140375        11.366742260
    27.278418104        15.854264629        11.330703306
    31.163443398        15.849727822        11.394873273
    35.076320019        15.793799937        11.424379581
    39.011649816        15.793643496        11.444540140
    42.905672027        15.776200253        11.470576956
    46.843818250        15.765562222        11.507116016
    50.737449291        15.733491687        11.538497724
    54.597987325        15.685073001         7.817764879
    54.658305786        15.661450314        11.589008522
    58.488958408        15.291935172         8.119110545
    62.401130922        15.306562465         8.146835221
    66.337399527        15.308987310         8.085947206
    70.273902835        15.374379913         8.052971407
    74.177156666        15.414741855         8.002054273
    78.105993035        15.434297060         7.963921121
    78.092693244        15.444700428        11.750918132
     3.764787364        19.384370126         7.898157064
     7.685565625        19.421055689         7.812701297
     7.677640515        19.459305669        11.628860791
    11.608996021        19.865584596        11.231557113
    15.510763405        19.829446578        11.263126361
    19.455950693        19.811455790        11.267439783
    23.361473312        19.788771753        11.289038150
    27.243369244        19.761707350        11.345112636
    31.159296993        19.745280978        11.353489427
    35.078979977        19.707969648        11.427505249
    38.992951875        19.726116878        11.440945622
    42.898709196        19.682626103        11.431287307
    46.822538585        19.674569359        11.495488531
    50.728139438        19.641090849        11.526964009
    54.635696143        19.568736593         7.751875794
    54.667224470        19.587431368        11.528026736
    58.515636223        19.200316542         8.155055728
    62.434928037        19.221279721         8.129800330
    66.346474678        19.204227583         8.030091516
    70.267487642        19.274000552         8.058160016
    74.199375139        19.345416159         7.997584567
    78.083931029        19.368804183         7.930038879
     3.746574475        23.287901806         7.880403269
     3.750556588        23.271553655        11.663962044
     7.669159942        23.376213109         7.823266055
     7.671882488        23.361038270        11.610606889
    11.563072626        23.816518091        11.247873100
    15.505834659        23.764110143        11.260282003
    19.440773285        23.709433792        11.211021473
    23.338003093        23.730944516        11.278785958
    27.234998199        23.675720619        11.320701168
    31.136687349        23.644823396        11.350770096
    35.082969914        23.660389339        11.383964691
    38.968855784        23.638565731        11.416690437
    42.898083323        23.599377101        11.460918641
    46.837324823        23.581464534        11.466701127
    50.747541485        23.554791235        11.498614199
    54.627794502        23.490259061         7.780350631
    54.643832485        23.488538203        11.540935746
    58.507265178        23.091098229         8.134301292
    62.441812634        23.098763869         8.093636349
    66.361104448        23.121056802         8.052033706
    70.252936106        23.204831297         8.009524620
    74.171758515        23.229236193         7.955950668
    78.102785438        23.260446299         7.937477969
     3.736998625        27.247596033         7.849584181
     3.755055047        27.205122129        11.608231381
     7.704161862        27.280292334        11.575755689
    11.570191926        27.676715438        11.170856637
    15.473993396        27.670927097        11.214178398
    19.429194644        27.643393369        11.228337675
    23.356075162        27.631347364        11.262126147
    27.277088125        27.603813636        11.278254595
    31.181671935        27.593019163        11.334891702
    35.070139528        27.562747707        11.395748460
    39.001322919        27.498606636        11.405031695
    42.908019049        27.538108149        11.417065517
    46.816358094        27.464033035        11.412720838
    50.703495708        27.434074462        11.487330537
    54.641876633        27.423201768        11.565253444
    58.544035188        27.013402905         8.097199611
    62.429764589        26.997680520         8.074882340
    66.355471596        27.072459622         8.023371329
    70.257630150        27.112430460         8.003929674
    74.173088494        27.158893625         7.920536848
    78.087060392        27.162335341         7.889999070
    78.090424457        27.159206509        11.698656960
     3.752911434        31.133136924        11.621359187
     7.685393510        31.168336292        11.532215131
    11.586308143        31.624207217        11.169762653
    15.482207972        31.537460330        11.189141796
    19.391798762        31.531202665        11.198768854
    23.334795497        31.521659725        11.212740590
    27.262849526        31.528934261        11.260844623
    31.156949971        31.512977214        11.326546168
    35.089698044        31.474101468        11.377400788
    39.001244685        31.445941974        11.408594956
    42.905750261        31.438276334        11.402531160
    46.844678825        31.409099969        11.408876267
    50.732911716        31.361150608        11.451072786
    54.635461440        31.315938975        11.522338020
    58.530500695        30.874069577         8.072850656
    62.404338518        30.926477524         8.028622452
    66.349682275        30.961598671         8.039718574
    70.247850892        31.012051099         7.972297912
    74.179816624        31.024097105         7.896000353
    78.102628970        31.093009645         7.889248909
    78.062260194        31.084327134        11.675276962
     3.717541814        35.016018308        11.569066759
     7.672109367        35.103547403        11.549156253
    11.574729502        35.554099312        11.161979740
    15.505599957        35.490427567        11.175638910
    19.406976170        35.438488944        11.170887894
    23.303345404        35.411737424        11.242184384
    27.247359181        35.403524239        11.246310266
    31.195988768        35.408843254        11.270471681
    35.066227825        35.377007381        11.306448121
    38.983563787        35.358390827        11.357115202
    42.884861767        35.316777352        11.372837313
    46.845382931        35.337349427        11.395748460
    50.731268801        35.285489025        11.411408058
    54.647118316        35.224085683        11.510866818
    58.497016516        34.806621180         8.044719643
    62.425539949        34.868650288         8.041656488
    66.331140802        34.884607335         7.992677268
    70.278596878        34.920588911         7.932226846
    74.158771661        34.935998412         7.897563187
    74.163622173        34.972918638        11.701126238
    78.083461625        34.959151774        11.632674106
     3.697521718        38.946379729        11.575411865
     7.643045412        39.000352093        11.506678423
    54.631471503        39.109861237        11.441476985
    58.472607489        38.703582311         7.987113579
    62.431251036        38.776171229         8.023777666
    66.326603227        38.787122144         7.991583284
    70.245816806        38.859632842         7.916942329
    74.186779455        38.837496350         7.913910431
    74.137726698        38.833741751        11.697031613
    78.075325283        38.871522406         7.839769583
    78.006322840        38.904218708        11.636893758
    11.545939367        39.419302792        11.175076289
    15.523750259        39.390908635        11.146101346
    19.412217852        39.365252207        11.161948483
    23.336281944        39.347417860        11.191986154
    27.230069453        39.292037521        11.237214572
    31.148970097        39.330835047        11.275128927
    35.050424545        39.281243049        11.288319246
    38.988179597        39.277410228        11.303228683
    42.916546562        39.260358090        11.359897047
    46.808925858        39.228052893        11.406406989
    50.733537588        39.202944010        11.422848003
    66.318153948        42.682284196        11.742947678
     3.710993623        42.816824003        11.547687189
     7.634275374        42.953319329        11.507491096
    11.573555991        43.289981728        11.096965842
    15.484633228        43.283567621        11.123565278
    19.402595063        43.253921931        11.140756453
    23.313202896        43.241954146        11.177639337
    27.224280133        43.219895875        11.186922572
    31.121979345        43.232332985        11.243372138
    35.028206071        43.201670425        11.282880584
    38.951409588        43.186964911        11.323670553
    42.902777367        43.166314615        11.338048626
    46.816279860        43.165141303        11.400937069
    50.735258738        43.119538566        11.384371028
    54.665190384        43.076908221        11.439351531
    58.513602137        42.685100146         8.018495287
    62.423349396        42.674071010         8.013994325
    66.316354564        42.695034190         7.922412248
    70.232204079        42.721551047        11.699719687
    70.248398530        42.756985077         7.902282946
    74.147662424        42.776383840         7.863899741
    74.101817264        42.752448270        11.656397927
    78.039885252        42.784440584        11.596572639
     3.733775382        46.766505965        11.544874087
     7.647911571        46.799280487        11.489268451
    11.545157026        47.214085483        11.145663752
    15.498715359        47.180450531        11.117063889
    19.382645377        47.166918330        11.144944848
    23.312185853        47.152682141        11.165105408
    27.185319570        47.105671430        11.192204951
    31.122839920        47.120924489        11.208864762
    35.039862946        47.091513462        11.282911840
    38.959232994        47.061163784        11.278598418
    42.885565873        47.069924516        11.287850396
    46.807908816        47.081422976        11.359646993
    50.735571674        47.045519621        11.354614668
    54.640937825        46.995849402        11.428755516
    58.515949159        46.559455461         7.992208418
    62.398236262        46.605918626         7.966859249
    66.334817803        46.623909414         7.904908507
    70.237211059        46.663567369         7.910597223
    70.246990317        46.659734549        11.667118969
    74.138117869        46.693917046         7.847396213
    74.144767764        46.651130259        11.638612875
    78.042466977        46.667713072        11.565378470
     3.740816448        50.645945633        11.517274438
     7.676459180        50.730893441        11.458199310
    11.558300349        51.079601845        11.071335364
    15.450053773        51.069980685        11.117032632
    19.414408406        51.068963814        11.105686457
    23.271973545        51.016555866        11.146007576
    27.219820791        51.035407083        11.194424175
    31.095536232        51.018902491        11.211552837
    34.985255571        51.034781317        11.266127002
    38.904860321        51.000364157        11.308979913
    42.846996481        50.983312019        11.293570369
    46.774815807        50.983233798        11.350707582
    50.704121581        51.010611084        11.377869639
    54.607375412        50.899772186        11.425473564
    58.532769483        50.489347556         8.004273497
    62.467316939        50.504522395         7.927694628
    66.363295002        50.561154266         7.888592519
    70.268895855        50.564283099        11.630829961
    74.183884795        50.569602115         7.812545013
    74.195072266        50.553253964        11.601261141
    78.112329994        50.619585217         7.774568145
    78.065858961        50.591034619        11.535028233
     3.774238039        54.575290182        11.492019039
     7.646996233        54.697158216        11.483392195
    11.575277140        55.021461726        11.118220386
    15.437301620        54.965064516        11.150227228
    19.364808011        54.986262358        11.138412202
    23.248972731        54.994084440        11.183140513
    27.141821431        54.939408088        11.185203454
    31.041476495        54.943475571        11.247091683
    34.968278779        54.937452568        11.256906281
    38.859562799        54.947621274        11.303166170
    42.787460359        54.912656568        11.321638869
    46.689227743        54.925093678        11.355646138
    50.723210692        54.943084466        11.341049268
    54.586408683        54.799862150        11.403343834
    58.563124299        54.410087816         7.911722463
    62.506433970        54.459366931         7.906721394
    62.520907271        54.455064786        11.671682444
    66.416102994        54.502231939         7.874308216
    66.403585544        54.492610778        11.670713487
    70.323894400        54.509350033        11.614388947
    74.198436331        54.532738058        11.543279997
    78.170457902        54.510601566        11.504396685
     0.274215864        58.437599491        11.142006720
     4.215877144        58.418513612        11.122440038
     8.081735093        58.755723556        11.559908551
    11.969655048        58.872820120        11.477703479
    15.855853853        58.899024094        11.462356448
    19.710211395        58.886586984        11.547530905
    23.635683700        58.872429016         7.799948571
    23.682076499        58.872272574        11.570442053
    27.571795837        58.855533319        11.601667478
    31.455412919        58.852952033         7.871588884
    31.484515990        58.841453572        11.628767020
    35.401695484        58.878452019         7.861774286
    39.301898186        58.855455099         7.897094336
    39.331783598        58.826748059        11.674026695
    43.253735370        58.829720450         7.928913638
    47.143532942        58.806332425         7.976736361
    51.087233784        58.833787932         7.975329810
    55.101579983        58.491728297        11.360522180
    59.059832360        58.352651683        11.414377442
    62.915050476        58.375961487        11.328202772
    66.840913951        58.378386332        11.320419858
    70.733449716        58.433140905        11.221429948
    74.655870892        58.400835707        11.234745294
     0.290981424        62.360138830        11.160166852
     4.219460264        62.312345910        11.174138589
     8.140645342        62.745845681        11.491737729
    12.039283363        62.809595647        11.556751626
    15.919614614        62.860282737        11.556970423
    19.834447086        62.852695318        11.566253658
    23.707580803        62.797158537         7.857335838
    23.729408106        62.815931534        11.645520602
    27.627811426        62.794107926         7.875245916
    27.652220453        62.812959143        11.635174640
    31.560794200        62.762193832         7.906377571
    31.558447178        62.796141667        11.716754579
    35.452860560        62.777681554         7.955294277
    39.368866544        62.757109479         7.951574732
    43.271650970        62.714088029         8.023808923
    47.231155092        62.732078817         8.014150608
    51.111251641        62.781045049         8.034311168
    54.997293978        62.380554463        11.416909234
    58.981598297        62.316413393        11.422441666
    62.873351721        62.301707879        11.356708865
    66.814627307        62.318134251        11.336454536
    70.715377648        62.293260031        11.276379194
    74.630757758        62.372575940        11.243278368
     0.311783079        66.281504856        11.216147569
     4.234661142        66.250607633        11.176326557
     8.135560128        66.643119696        11.548406092
    12.033572276        66.720636526        11.609231595
    15.943476003        66.722200942         7.860305222
    15.934479086        66.773983123        11.620327716
    19.870356521        66.780553672        11.640550789
    23.776817948        66.738783755         7.897844497
    27.686643440        66.712266898         7.925069066
    31.602571190        66.660719379         7.980455906
    35.515134874        66.704210154         8.007430422
    39.402194254        66.661266925         8.029903976
    43.324224260        66.617150384         8.065474079
    47.228495134        66.632794548         8.110639984
    51.135191264        66.673000048         8.107483059
    55.058003610        66.274464982        11.532590212
    58.957736908        66.232851507        11.473233774
    62.864354804        66.205630663        11.435788269
    66.778639638        66.242472668        11.362710148
    70.703094900        66.249668983        11.317794297
    74.606270497        66.262731860        11.253343020
     0.323600334        70.193640826        11.302791090
     4.217465295        70.126449143        11.267939890
     8.125076763        70.525922859         7.843395358
     8.158873878        70.594522516        11.612951140
    12.055321346        70.651701933         7.857367094
    12.082703268        70.633163600        11.633861860
    15.976412543        70.646304697         7.909784549
    19.883969247        70.675481062         7.921849628
    19.889758568        70.715451900        11.711878536
    23.804043402        70.638247953         7.933477114
    27.720753492        70.632616054         7.993208632
    31.658039140        70.597729569         8.000241385
    35.526478813        70.598277115         8.023621383
    39.457427502        70.569178971         8.092073515
    43.369365314        70.577470377         8.083446671
    47.254860013        70.553613028         8.135238992
    51.163199058        70.602188156         8.141584099
    55.045955565        70.196769658         7.807137607
    55.021311835        70.197630087        11.567378898
    58.923000985        70.090389346        11.540029302
    62.828836540        70.117453749        11.488455777
    66.723015220        70.135131654        11.428567976
    70.666168422        70.151870909        11.390684878
    74.572082212        70.184176107        11.318013094
     0.246226846        74.079416380        11.393091642
     4.195035589        74.046641857        11.334954215
     8.196895632        74.442126311         7.895375219
     8.130240211        74.428828772        11.694687362
    12.151549242        74.609518861         7.866494045
    12.122680873        74.578778079        11.696031399
    15.987443546        74.602635429         7.916567249
    16.049091987        74.583236666        11.660711349
    19.973469015        74.589025006         7.900688855
    19.907830636        74.578230534        11.759138639
    23.850123264        74.528951418         7.978955585
    27.788660658        74.513620138         8.005680048
    31.628310196        74.533488226         8.034748762
    35.595090086        74.510100201         8.070318865
    39.469710250        74.485695306         8.106264049
    43.386185637        74.547020427         8.105545145
    47.280677253        74.495238246         8.187000057
    51.199421429        74.501495911         8.186812517
    55.016852494        74.100692442        11.631111272
    58.908918854        74.044451674        11.580100367
    62.800359341        74.048753819        11.546499435
    66.734906797        74.040384192        11.523869598
    70.585430870        74.055167926        11.448759792
    74.549550802        74.087707787        11.457730460
     3.741622259        77.945871392         7.921318265
     3.697928535        77.965974142        11.670150867
     7.679838892        78.124449519        11.718286156
    54.644223655        78.218661034        11.620952850
    54.626308055         0.014079747         7.840300946
    58.520252033        77.886110688         8.194782970
    62.350200547        77.900190435         8.156649819
    66.313303436        77.922405147         8.101950627
    70.209907372        77.953067707         8.061254427
    74.146175977        77.934451153         8.025277987
    78.002880541        77.980523214         7.980362136
     7.705421430        78.176622804        15.448083439
    11.693410574         0.239785134        15.108979702
    15.570534228         0.136234851        15.155114564
    19.534497692         0.188730406        15.176806701
    23.406066727         0.131069931        15.200468009
    27.358529784         0.134269162        15.245321347
    31.260062465         0.088434892        15.275046451
    35.165272148         0.123083585        15.324306981
    39.080339322         0.067770282        15.331527274
    42.997127646         0.082605877        15.339654011
    46.885438771         0.053018070        15.413200983
    50.801444754         0.056834542        15.447270766
    58.494434792         3.533680188        11.959681507
     3.705392064         3.681149895        11.697437950
     3.750853878         3.711679481        15.563608134
     7.650555882         3.779457819        15.466962475
    11.624955770         4.170647950        15.118387963
    15.544404052         4.130465916        15.162772451
    19.493111873         4.094007193        15.142799432
    23.408961388         4.077893704        15.142643148
    27.304470047         4.061561198        15.214377232
    31.242146865         4.057955218        15.238788700
    35.134369693         4.058784359        15.267576104
    39.060311402         4.041309828        15.295675861
    42.977099726         4.013916898        15.338122434
    46.868618448         3.989425960        15.379818847
    50.781182132         3.979437161        15.394134407
    54.682010707         3.919426150        15.422765527
    62.422645289         3.583569426        11.977185248
    66.338885974         3.587003319        11.944303220
    70.255517830         3.622421706        11.874006943
    74.128338611         3.643689946        11.809243099
    78.077750539         3.670277202        11.804460827
    78.026272526         3.662275212        15.566671289
     3.735160125         7.610564844        11.749605351
     3.724739348         7.593004270        15.524849849
     7.654624054         7.685070173        15.485310147
    11.629728047         8.100078542        15.046528853
    15.546046967         8.046419061        15.093632672
    19.447110244         8.011845460        15.089663073
    23.348095287         7.988379215        15.149300821
    27.301888323         7.992133814        15.208719773
    31.198883429         7.956856225        15.202781003
    35.121382839         7.985328603        15.242101909
    39.028313671         7.937926787        15.290237198
    42.973344491         7.921187532        15.280110033
    46.826450288         7.878713629        15.321931473
    50.772263449         7.876679887        15.351500294
    54.655176424         7.841167636        15.438018788
    58.502023496         7.463533173        11.993595006
    62.389630515         7.489439908        11.957087202
    66.328872014         7.473944364        11.929675093
    70.234629335         7.523231301        11.861129190
    74.161901024         7.561097999        11.842468951
    74.133502059         7.544507363        15.656878071
    78.077828773         7.585291698        11.823214836
    78.038711742         7.576906426        15.607148691
     3.720233066        11.537179487        15.526912790
     7.684525112        11.564634994        15.461586326
    11.627537494        12.046240568        15.073503369
    15.567013696        11.971305024        15.103978633
    19.476682720        11.945335713        15.087943956
    23.384943531        11.918349531        15.139329940
    27.265665952        11.923042780        15.156021008
    31.207723878        11.891285128        15.206062955
    35.091966832        11.879786668        15.240320278
    39.035276502        11.863673179        15.264481692
    42.924995841        11.838329635        15.313523426
    46.867444937        11.834418594        15.301208293
    50.749419103        11.807119528        15.372254730
    54.727699400        11.770590407        15.394884567
    58.515792691        11.332710270        11.922954906
    62.435006271        11.394113612        11.922079719
    66.310408776        11.399667290        11.891041834
    70.256534873        11.442688739        11.872256569
    74.156581107        11.481720927        11.814650505
    78.093397351        11.517076737        11.790707887
    78.059209066        11.468892713        15.574798026
     3.740198399        15.466602257        11.727944471
     3.723620601        15.439459634        15.501969958
     7.642435187        15.513143644        15.442144670
    11.610404234        15.916293737        15.024867973
    15.540179412        15.891888842        15.051873745
    19.444215584        15.867249285        15.087568875
    23.347860585        15.847068314        15.128327588
    27.281547466        15.849649601        15.171586835
    31.184175425        15.807566801        15.174493707
    35.100885515        15.805298397        15.193654052
    39.003278771        15.748744746        15.237882257
    42.935713907        15.763137377        15.278859766
    46.837246589        15.727938009        15.309991421
    50.761154212        15.689844471        15.305552972
    54.672779088        15.667864421        15.374130131
    58.571730046        15.317826262        11.948210305
    62.444785529        15.298818604        11.931487980
    66.330045525        15.322597732        11.877601461
    70.243000380        15.386973465        11.872069029
    74.166908004        15.385800153        11.796396603
    74.139760784        15.378525617        15.609024092
    78.071335345        15.397689717        15.576360860
     3.734080495        19.339549597        11.674120465
     3.714201220        19.410574100        15.512159636
     7.649421489        19.423558756        15.468744106
    11.603363168        19.853460369        15.034307490
    15.566466057        19.819825417        15.025555620
    19.464321738        19.779619917        15.065689198
    23.357952779        19.741213496        15.096539543
    27.237188753        19.739805521        15.126921037
    31.183158382        19.735034051        15.160303173
    35.091497427        19.682391441        15.190809694
    39.017047966        19.665730407        15.232162284
    42.918971818        19.659003416        15.262387495
    46.872608385        19.639604654        15.265982013
    50.768899384        19.583363886        15.338622541
    54.741312126        19.583285665        15.376130559
    58.501162921        19.170123307        11.900262555
    62.431798674        19.199534334        11.915171993
    66.346396444        19.227224503        11.846219753
    70.285794412        19.274469877        11.847126197
    70.235802846        19.246936149        15.630247379
    74.149774744        19.299265876        11.785300481
    78.095822607        19.325235188        11.752512222
    78.053732681        19.315692248        15.543041237
     3.696105681        23.265921756        15.463024133
     7.659599740        23.358300542        15.436080874
    11.616193555        23.743538068        14.990423110
    15.544404052        23.739705248        15.023242625
    19.465025844        23.729927646        15.038683426
    23.369218484        23.682369389        15.048404254
    27.268169442        23.691990549        15.120450904
    31.169780357        23.626128621        15.134860235
    35.129753884        23.616820344        15.193841592
    39.016813264        23.594605631        15.196467154
    42.949717804        23.592962994        15.216596456
    46.831379034        23.537113330        15.260637121
    50.744725059        23.494874089        15.291143642
    54.683653623        23.471720727        15.335965723
    58.538089399        23.077331365        11.928424825
    62.419359458        23.133963237        11.884196621
    66.322143885        23.134432562        11.826746841
    70.225397716        23.190751550        11.828059621
    70.214053777        23.158368132        15.635092164
    74.170037366        23.241829744        11.774735723
    74.143750721        23.188952472        15.564702118
    78.076342325        23.255283725        11.703001639
    78.036364720        23.254970842        15.515597871
     3.718793559        27.194092993        15.444676461
     7.612940945        27.250020878        15.392133979
    11.577311226        27.722005291        14.976138806
    15.543778179        27.654500726        14.994267681
    19.435062199        27.614842771        15.028087411
    23.367888505        27.569240034        15.039683640
    27.260971908        27.585118860        15.094382832
    31.195832300        27.557272249        15.113074328
    35.098382025        27.538029928        15.164179002
    39.051549187        27.521603556        15.190965978
    42.949717804        27.496807557        15.214971109
    46.863846170        27.478191003        15.241695572
    50.765457086        27.441974764        15.279266103
    54.708375586        27.415379686        15.355594919
    58.513210967        26.984382981        11.860222747
    62.447680189        27.016688179        11.869005874
    66.311973457        27.055876809        11.820370478
    66.307905286        27.051340001        15.645750693
    70.251449659        27.049462702        11.795927753
    70.206230371        27.044613011        15.584550110
    74.162683364        27.133080756        11.724881316
    74.125600419        27.104217274        15.534133083
    78.056392640        27.171878281        15.511972096
     3.705947526        31.072985116        15.436143387
     7.621961333        31.162391510        15.345030161
    11.599764402        31.612395874        14.936192767
    15.521481471        31.547316153        14.980702282
    19.442103264        31.551461857        14.999393777
    23.354588715        31.500618325        15.029368935
    27.253148502        31.467530919        15.064501445
    31.161096377        31.447741053        15.099571441
    35.105579558        31.458770188        15.152926596
    38.999210600        31.425057015        15.194685523
    42.962939361        31.400339237        15.171430552
    46.848121124        31.369989560        15.221159932
    50.741048058        31.341908286        15.278172119
    54.650169444        31.279175191        15.306646956
    58.540279953        30.875712214        11.882883841
    58.494278324        30.899100238        15.685102855
    62.409736669        30.934690710        11.820526761
    62.388457004        30.921862496        15.651408152
    66.334191931        30.957844072        11.811087243
    66.300629518        30.936724451        15.599803371
    70.219921332        30.992417674        11.780111872
    70.210767946        31.008374720        15.589363639
    74.167846812        31.033405382        11.714097761
    74.132328548        31.026913054        15.507408621
    78.041606402        31.062816409        15.485935280
     3.705845822        35.032601122        15.416514191
     7.627171721        35.047228414        15.340466685
    11.581848801        35.495903024        14.939818542
    15.516787428        35.447171455        14.970887684
    19.441164455        35.437472073        14.991923430
    23.353336970        35.400160743        15.041684067
    27.226470687        35.370123949        15.075159973
    31.182610744        35.400942952        15.082317753
    35.104484282        35.368481312        15.104541254
    39.003904643        35.344702184        15.135110288
    42.911070178        35.309659257        15.173556006
    46.881605302        35.286036571        15.186496272
    50.748480294        35.279153139        15.196810977
    54.704150947        35.223694579        15.311991848
    58.514697414        34.807012284        11.808742992
    58.495608303        34.801536827        15.655877857
    62.416308330        34.839473923        11.829872509
    66.326446758        34.849955513        11.758576018
    66.292023771        34.865521455        15.612524840
    70.240418656        34.890552117        11.736790112
    70.194808198        34.908934009        15.537071211
    74.129746824        34.915973883        15.509721615
    78.041997572        34.972371092        15.435486997
     3.714373335        38.902263187        15.365409517
     7.600040149        38.993233998        15.320806232
    58.479648554        38.727987206        11.839874647
    62.402773837        38.766941173        11.801553955
    66.339042442        38.763812340        11.777548824
    70.204822158        38.815829184        11.715754365
    70.186906557        38.789859873        15.532757789
    74.115038820        38.804878270        15.468275255
    78.026272526        38.872069952        15.438518895
    11.575824779        39.408664760        14.905529963
    15.519838556        39.348747614        14.928159800
    19.467842271        39.358681658        14.964542577
    23.375633677        39.311436284        15.001613002
    27.257451375        39.274281396        15.007489258
    31.169389187        39.267710847        15.051748719
    35.103467239        39.253161775        15.121607402
    38.994203620        39.272247655        15.118856814
    42.938060929        39.246356564        15.146362693
    46.849685805        39.231181725        15.176119054
    50.755051955        39.193166408        15.216502686
    54.678959579        39.123080555        15.254729608
    58.543565783        42.619316438        11.796990480
    58.511568052        42.638324097        15.630966282
    62.380320661        42.650995869        15.599053211
    66.299143071        42.663432979        15.525787549
     3.688955088        42.831451295        15.331527274
     7.614709035        42.872595445        15.268295008
    11.570191926        43.312509323        14.909718358
    15.507321106        43.256112114        14.923377528
    19.425361175        43.251731748        14.945350975
    23.335030199        43.225136670        14.989266612
    27.234763497        43.190250186        15.022961315
    31.159140525        43.195960305        15.048154200
    35.078667041        43.176639763        15.063344947
    38.991152491        43.169130565        15.107416868
    42.907784347        43.175466451        15.132328443
    46.857978615        43.128612181        15.151770099
    50.777583365        43.115705746        15.183214321
    54.716668397        43.082070795        15.236788273
    62.393855154        42.670707515        11.808555452
    70.219999566        42.717405343        15.509252765
    74.126539227        42.740636926        15.470369453
    78.017353843        42.754247348        15.411856945
     3.658193455        46.724344944        15.295582090
     7.604781133        46.789893989        15.292643962
    11.583648185        47.198988865        14.895465311
    15.499028295        47.150491958        14.911156165
    19.420432429        47.151899933        14.951727338
    23.325016239        47.129998104        14.982577683
    27.236875817        47.140479693        15.012646610
    31.125265176        47.104341676        15.022148641
    35.067636038        47.096128490        15.051404895
    38.982781447        47.078998131        15.064688985
    42.904263814        47.042390788        15.119044354
    46.825355011        47.055062561        15.141830474
    50.743160378        47.054436794        15.171586835
    54.668632683        46.986306462        15.210313864
    58.537619994        46.588318942        11.812431281
    58.475189213        46.580809744        15.603429146
    62.408093753        46.585268330        11.752668506
    62.401835028        46.579949315        15.557544338
    66.336851889        46.611706967        11.711722253
    66.302741838        46.598252986        15.531820089
    70.221642481        46.642917073        15.494405841
    74.116681736        46.648236089        15.448114696
    78.008982798        46.668338839        15.407043417
     3.681546322        50.656270781        15.312835779
     7.646425124        50.686151133        15.241320492
    11.554936284        51.098218400        14.901716648
    15.513345129        51.066930073        14.921627154
    19.405411489        51.056292042        14.923471298
    23.297556083        51.057934679        14.963886187
    27.219116685        51.030479172        14.970762657
    31.082940548        51.008812005        15.006989151
    35.005361725        50.999973053        15.036839282
    38.931851072        50.997861091        15.073940962
    42.855211057        50.976272145        15.107198071
    46.816201626        50.972517546        15.124826840
    50.746759145        50.943888727        15.139923817
    54.748196724        50.926680147        15.166554510
    58.575172344        50.456885917        11.733601930
    58.534099462        50.486688048        15.556950461
    62.455112425        50.520010116        11.712222360
    62.449557806        50.480977928        15.558357011
    66.346474678        50.519697233        11.685685437
    66.315650458        50.502019328        15.477277180
    70.304492353        50.500142029        15.461430042
    74.140464890        50.551142002        15.391852669
    78.074073538        50.564126658        15.387945584
     3.735027127        54.530313212        15.244602443
     7.656814607        54.637241070        15.332871311
    11.519496254        55.017550685        14.878274137
    15.469455820        54.966159608        14.915469587
    19.354481115        54.982351317        14.932473222
    23.299668403        54.992363582        14.963354823
    27.190639486        54.967098257        14.992329767
    31.073552461        54.949420353        15.018116529
    34.986585550        54.910153502        15.047622837
    38.895941638        54.938938763        15.062282220
    42.814529345        54.913673439        15.089663073
    46.758699590        54.892944922        15.118262937
    50.641143161        54.876440330        15.172399509
    54.683966559        54.792352951        15.132328443
    58.579709920        54.387560220        11.703064152
    58.518609117        54.421351613        15.513628700
    62.451748360        54.442001909        15.474495335
    66.388799306        54.448572458        15.487216804
    70.289706115        54.463356192        15.409919031
    74.224097103        54.480955876        15.355157325
    78.095822607        54.503952797        15.360752271
     0.281289006        58.441354090        14.917876352
     4.157412829        58.453243655        14.869678549
     8.123668550        58.852091604        15.278609712
    12.001574545        58.866875338        15.329308050
    15.868449537        58.947364559        15.300833213
    19.769043410        58.909818567        15.311460485
    23.680981222        58.908645255        15.374161388
    27.623117382        58.898241886        15.435549510
    31.465035708        58.907471942        15.454553572
    35.383545181        58.840827806        11.653897392
    35.404277208        58.883849255        15.497719049
    39.310895104        58.887134530        15.496593809
    43.226118746        58.804455126        11.747323613
    43.252483625        58.863277180        15.525287442
    47.164264969        58.815484261        11.748980217
    47.094167249        58.847398354        15.566577519
    51.107965810        58.828468917        11.734945967
    51.032704642        58.840671364        15.536602361
    55.033281647        58.451288134        15.147737987
    58.984805894        58.389102584        15.112230397
    62.916849860        58.397472212        15.120044568
    66.808290348        58.407875581        15.060156766
    70.739943143        58.428838760        15.035151421
    74.625907246        58.450271264        15.002581959
     0.301216004        62.401439421        14.954540439
     4.206786346        62.354350489        14.942725414
     8.149876961        62.781123270        15.306803239
    12.045542088        62.845811886        15.343342300
    15.943084832        62.879525058        15.352406737
    19.810976867        62.859891633        15.412607106
    23.752643623        62.836660050        15.410075315
    27.637434215        62.805293502        15.487029264
    31.585750866        62.837755142        15.474339052
    35.458024009        62.784721427        11.737196448
    35.457789306        62.824535824        15.578486314
    39.349855667        62.769546589        11.767359146
    39.396874338        62.820311899        15.534101827
    43.300128169        62.772675422        11.774829493
    43.283151377        62.807718348        15.633748127
    47.214960641        62.744359486        11.833467027
    47.205181383        62.801460682        15.593645805
    51.163981399        62.769859472        11.837561652
    51.097717148        62.818434600        15.639249303
    55.008950853        62.374453239        15.263262682
    58.945532395        62.305540699        15.213408275
    62.857704909        62.316178730        15.168054830
    66.779109042        62.294589785        15.125889567
    70.689482173        62.374375019        15.040840137
    74.579436213        62.377190968        15.012052733
     0.275124944        66.293159758        15.014178187
     4.197226143        66.269067746        14.959916588
     8.136420702        66.737532222        15.380068900
    12.079730373        66.727911062        15.428985607
    15.968354435        66.789236183        15.452021781
    19.886863908        66.754584361        15.471869774
    23.768290435        66.757556752        11.698188110
    23.784093716        66.766552146        15.491811537
    27.681245290        66.741521484        11.699594661
    27.687347547        66.720088980        15.532288939
    31.619547981        66.708355857        11.740072063
    31.598111848        66.717507693        15.553074632
    35.504729744        66.664943304        11.770172247
    35.533363410        66.711719353        15.596208853
    39.380132249        66.696231631        11.819182724
    39.457114566        66.687862003        15.616619466
    43.329074772        66.638973992        11.857034565
    43.339479902        66.672296060        15.642281201
    47.238509094        66.670575202        11.875038414
    51.154984481        66.678240843        11.896230444
    54.942608368        66.230348441        15.295675861
    58.935909605        66.250294750        15.261543564
    62.831574732        66.211184341        15.208188409
    66.757203505        66.284555468        15.161803494
    70.639334139        66.280253323        15.095976923
    74.578184468        66.318268640        15.069408744
     0.262446332        70.182064145        15.090538260
     4.179615656        70.177683779        15.004613643
     8.155196877        70.621978023        15.436612237
    12.092951930        70.674620633        15.424640928
    15.993545803        70.642393656        11.676996080
    15.963582157        70.679313882        15.493999504
    19.923633917        70.692376758        15.534758217
    23.810302127        70.654752545        11.757013184
    23.841830454        70.674855295        15.539290436
    27.724352258        70.662418185        11.764014681
    31.629561941        70.625732622        11.814369195
    31.658430310        70.628470351        15.596333879
    35.533050474        70.618223423        11.835248658
    39.469240845        70.570743387        11.852814913
    43.329074772        70.588186629        11.886697156
    47.217464131        70.579034794        11.926799478
    51.114068067        70.572542466        11.981873751
    54.985558869        70.181594820        15.375505425
    58.888734466        70.134505888        15.319118372
    62.817570835        70.165403111        15.288393054
    66.744060182        70.155860171        15.224473140
    70.659518527        70.182689911        15.173024643
    74.557530676        70.198099412        15.135422855
     0.213574296        74.123376479        15.132766037
     4.283925131        74.208871833        15.154458174
     8.060846598        74.532080251        15.568921770
    12.123854384        74.571190660        15.466837448
    16.015373106        74.584018874        15.554762493
    19.948825285        74.575649247        15.536352308
    23.869994716        74.565011215        11.737258962
    27.719814683        74.532080251        11.811618607
    27.799613426        74.518548050        15.599053211
    31.666331950        74.541857853        11.784394037
    35.555894820        74.464341023        11.864098575
    39.475264868        74.485773527        11.882540017
    43.371790570        74.485538865        11.927549638
    47.290691213        74.479281199        11.938020627
    51.179315275        74.473727521        12.006629042
    54.936114941        74.115319735        15.417951998
    58.883492783        74.066431724        15.431392371
    62.768283376        74.065336633        15.366878581
    66.704551981        74.138551318        15.318837061
    70.585822041        74.090132632        15.238944984
    74.543448545        74.158106522        15.214502259
     3.717088057        77.979741006        15.515847925
    54.679663685        78.043178089        15.570422090
    58.458447124        77.876802410        12.011192518
    62.405824966        77.907856075        12.000440219
    66.296639581        77.908716504        11.854002667
    70.226805929        77.912549324        11.875944857
    74.136787890        77.942507897        11.831685396
    78.074230006        77.966991013        11.796990480
    78.023299631        77.994681182        15.574641742
    11.578562971         0.205263158        19.145561314
    15.576323549         0.187546925        19.164596633
    19.472927485         0.242569795        19.191946229
    23.437360352         0.196282626        19.174036151
    27.313623432         0.196889620        19.286372664
    31.254899017         0.166247397        19.260304591
    35.129519181         0.170511996        19.302063518
    39.066257191         0.139057841        19.361263672
    42.949874272         0.134265251        19.410774256
    46.869635491         0.076227516        19.430278425
    50.712257923         0.072537371        19.514390155
    54.631080333         0.050799571        19.445031579
    62.402695603         3.588997950        15.770871189
     7.699632110         3.754622709        19.515734192
    11.599060295         4.139891524        19.070639048
    15.553557437         4.137083397        19.120868535
    19.470111058         4.135620668        19.160564521
    23.417801837         4.143082934        19.187664064
    27.321446838         4.108360713        19.219452109
    31.210227368         4.114821752        19.229641787
    35.131162097         4.079583274        19.284340979
    39.035980609         4.042788201        19.310158998
    42.927812267         4.069680518        19.370390623
    46.881918238         4.019079472        19.363607924
    50.744646825         4.029318577        19.420557597
    54.660887511         3.966546370        19.436529761
    58.480039725         3.562035234        15.840073481
    66.314242245         3.608678308        15.765088702
    70.219373693         3.623962656        15.671287401
    74.128260377         3.648883808        15.635310961
     7.722546867         7.661377087        19.502356332
    11.581614099         8.107196637        19.085079635
    15.509902830         8.069103098        19.098770062
    19.434279858         8.048609244        19.141279148
    23.360925674         8.025768766        19.161908558
    27.278574572         8.013253435        19.185976203
    31.177525530         7.992133814        19.222734060
    35.116454093         7.980635354        19.255897399
    39.005625793         7.956230459        19.276933146
    42.923744096         7.954822484        19.271400713
    46.831770205         7.939256541        19.319160923
    50.701148687         7.919935999        19.426527623
    54.671292641         7.890837855        19.413431074
    58.547399252         7.437798524        15.805847415
    62.414117776         7.476588227        15.776559905
    66.288972643         7.480209851        15.717453520
    70.203022774         7.537420557        15.683883844
     3.746402360        11.545158010        19.531425046
     7.714715637        11.566042969        19.478319944
    11.583648185        11.995084153        19.047040254
    15.545108158        12.015656228        19.080985010
    19.440773285        11.967002879        19.113210648
    23.380797125        11.949012091        19.177818209
    27.247437415        11.955113315        19.179130990
    31.190747086        11.930473758        19.203636228
    35.085786341        11.893944636        19.235361760
    39.007894581        11.883384825        19.249552293
    42.928125203        11.861013672        19.301344614
    46.859856233        11.845056625        19.342134583
    50.727435331        11.803286708        19.372140998
    54.675908450        11.783809725        19.427340297
    58.521738480        11.373306874        15.790781695
    62.388144068        11.359696452        15.781936054
    66.297656624        11.369317612        15.705919804
    70.236819889        11.427122797        15.656940585
    74.172853792        11.448242417        15.648688821
     7.735666719        15.512361436        19.463222967
    11.598825593        15.942419491        19.058636483
    15.493082507        15.899867366        19.064919076
    19.425517643        15.869517689        19.087673940
    23.347234713        15.867640389        19.152906634
    27.245638032        15.854968617        19.149062062
    31.159375227        15.799197174        19.173661070
    35.088055128        15.801230915        19.219702162
    39.015170348        15.779798411        19.242957133
    42.925543479        15.763763143        19.302407341
    46.834743099        15.782536139        19.320723757
    50.749106167        15.761103635        19.330882178
    54.673561429        15.698214098        19.404647946
    58.522833757        15.255406050        15.765682579
    62.408406690        15.273944384        15.731175203
    66.329654355        15.277855425        15.695761383
    70.243000380        15.328620735        15.666411359
     3.758528639        19.347449900        19.472599972
     7.704654736        19.427156913        19.457659278
    11.588733399        19.813645973        18.999748895
    15.502314126        19.833357619        19.053729184
    19.427317026        19.788693532        19.094425383
    23.369766123        19.797688926        19.125400754
    27.236484647        19.769529432        19.144654870
    31.168919783        19.733391414        19.173160963
    35.082344042        19.737771780        19.188101657
    39.004999920        19.676290217        19.197134838
    42.912478391        19.685833157        19.270619296
    46.849764039        19.640386862        19.286341407
    50.737996930        19.625133802        19.296499828
    54.665268618        19.586883823        19.378923697
    58.494747728        19.160032821        15.736582609
    62.401600326        19.154479143        15.717172210
    66.335130739        19.199065009        15.681383310
    74.168629153        19.277520489        15.606336017
    78.083383391        19.337281194        19.553523520
     3.733994437        23.287197818        19.500668472
     7.729126351        23.352981526        19.449157461
    11.604223743        23.799231290        18.990246864
    15.503018233        23.747683771        19.011751461
    19.440069179        23.726094826        19.066231856
    23.321652174        23.691755887        19.111303991
    27.219194919        23.686280430        19.156813719
    31.159922866        23.632699170        19.120024605
    35.069591890        23.662031976        19.182913048
    38.989353108        23.595466060        19.217983045
    42.904889687        23.587252875        19.246957988
    46.805796496        23.550801974        19.283246996
    50.701931027        23.547360258        19.300313144
    54.661122213        23.529917015        19.367733805
    58.519156756        23.068257750        15.712483708
    62.406842008        23.095947919        15.692541945
    66.330280228        23.121682568        15.639593126
    78.071178877        23.268346601        19.563588171
     3.735559119        27.202384400        19.458565722
     7.682710082        27.226867516        19.422870592
    11.568470777        27.646522202        18.972711865
    15.495351295        27.647226189        18.975274913
    19.395632231        27.631269143        19.022316219
    23.334013156        27.644644903        19.088486613
    27.261284844        27.572681750        19.086267389
    31.196067002        27.592393396        19.150968720
    35.081639935        27.527157235        19.170816712
    39.019082052        27.536856616        19.192196282
    42.901212686        27.510809084        19.225672188
    46.826997927        27.476783028        19.231548444
    50.689257109        27.436342865        19.263180206
    54.638981973        27.398092886        19.296874909
    58.512272158        26.991813959        15.708326569
    62.412944265        26.995646779        15.683414994
    74.132563250        27.130499469        19.558243279
    78.084400434        27.151149764        19.532862854
     3.709256827        31.123672205        19.471537245
     7.667759553        31.167945188        19.369859260
    11.555562156        31.615837590        18.937391815
    15.495194826        31.576257856        18.954926814
    19.430915793        31.526040091        19.002780793
    23.339020136        31.498819246        19.044696003
    27.243525712        31.521972608        19.069232498
    31.145762500        31.509300836        19.127526209
    35.060829675        31.486616799        19.137247037
    38.989744278        31.442578479        19.203386174
    42.910991944        31.450478781        19.204636442
    46.794374323        31.411681256        19.215107430
    50.685267172        31.358256437        19.292217663
    54.629515652        31.372727289        19.344009984
    74.131859144        31.047641571        19.531768870
    78.049273340        31.079946768        19.522329352
     3.694494059        35.035417071        19.420307544
     7.677640515        35.051687001        19.347291936
    11.564402606        35.460312552        18.868845913
    15.490500783        35.486125422        18.985933442
    19.381002462        35.416039569        19.018784214
    23.329866751        35.436768086        19.024785497
    27.229912985        35.387176088        19.059292873
    31.173222656        35.406027305        19.101083056
    35.075694147        35.392260441        19.123087760
    39.016656796        35.383343268        19.157782676
    42.916311860        35.353462915        19.170410376
    46.813932838        35.307781958        19.189695748
    50.704590985        35.271409278        19.249958630
    54.618015244        35.253809594        19.269494056
    62.407937285        34.806230076        15.648595051
    74.135066740        34.953989200        19.525798844
     3.728752755        38.937071451        19.419619897
     7.667618731        38.981422655        19.333789049
    58.472294553        38.698185074        15.615212915
    62.369602595        38.739798549        15.624871229
    66.287877366        38.752548543        15.567734016
    70.214757884        38.838122117        19.544271542
    78.074934112        38.880987125        19.438467676
    11.560569136        39.379019070        18.897101953
    15.482364440        39.364235336        18.935297618
    19.397353381        39.342333507        18.972243015
    23.308587086        39.315347325        19.031411913
    27.260737206        39.315894871        19.044727259
    31.185818340        39.302284448        19.076890385
    35.066071357        39.289534455        19.102833430
    38.986458448        39.266302872        19.122681423
    42.918658882        39.253083554        19.144686127
    46.813932838        39.223203202        19.180818850
    50.709519731        39.212799833        19.235049193
    54.627794502        39.188003834        19.271556997
     3.732578401        42.825506513        19.353261962
     7.676334006        42.874629187        19.302126031
    11.567688436        43.278874372        18.891038157
    15.495977167        43.266202599        18.952551306
    19.427317026        43.238668872        18.952144969
    23.320400429        43.249463344        18.985214538
    27.228348304        43.238277768        19.020378305
    31.159062291        43.231941881        19.058917793
    35.033917157        43.208632078        19.082172764
    38.971828678        43.183601416        19.095738164
    42.913260731        43.164828420        19.154657008
    46.818235712        43.153095297        19.169066338
    50.712649094        43.123527828        19.204042565
    54.629280949        43.086685823        19.227360049
    70.228527079        42.717327123        19.544365312
    74.143281317        42.759175260        19.478194918
    78.075403517        42.786474325        19.423433212
     3.721531751        46.755789713        19.390363643
     7.650837525        46.805147049        19.305439239
    11.553136901        47.211738858        18.885974574
    15.462649457        47.161051768        18.942080318
    19.393832848        47.147832450        18.954833044
    23.270017693        47.169186734        18.996748253
    27.221541941        47.133126937        18.993184992
    31.120727600        47.123896880        19.038194613
    35.020460899        47.108565600        19.071014129
    38.971515742        47.115057928        19.061637124
    42.891276960        47.088697512        19.122337599
    46.805874730        47.054202132        19.142091822
    50.733537588        47.073757336        19.187882860
    54.645788337        47.017673010        19.216451467
    62.394872197        46.616321995        19.572215015
    70.231265271        46.630010638        19.489916173
    74.150791787        46.676786687        19.446938236
    78.051542128        46.720355682        19.407398534
     3.757316011        50.627016195        19.313534720
     7.646691120        50.700387322        19.256116196
    11.528727873        51.101503674        18.868283293
    15.463744733        51.085468407        18.898571017
    19.379046610        51.065443877        18.931109222
    23.277684631        51.052224559        18.963584914
    27.165995757        51.026959235        18.966366759
    31.108836023        51.024456169        19.042508035
    35.003562341        51.028367210        19.072045599
    38.944916161        50.997000662        19.046727687
    42.861626250        51.013035930        19.095769420
    46.776615191        50.975802820        19.134121368
    50.706390369        50.966807426        19.153094174
    54.614651180        50.917762974        19.201604544
    66.347569955        50.523060728        19.549866488
    70.256378405        50.549812248        19.454471096
    74.179347219        50.573826039        19.446531899
    78.063746641        50.601907312        19.376579446
     3.797465732        54.616043228        19.346604289
     7.596769965        54.704432752        19.155969789
    11.570583096        55.017472464        18.875503586
    15.459363626        55.000185663        18.905041150
    19.375604311        54.995257752        18.928514918
    23.255544392        54.975467885        18.953426493
    27.172958588        54.974529235        18.989934297
    31.054776286        54.943866675        19.027536085
    35.003092937        54.952940289        19.033599881
    38.903217405        54.927440303        19.064919076
    42.835261371        54.946369741        19.114617199
    46.723572496        54.870886652        19.134371422
    50.675487914        54.909058411        19.137715887
    54.565676657        54.819652016        19.159751847
    62.472793323        54.493940532        19.506232161
    66.384105262        54.475636861        19.502700156
    70.260915980        54.500745743        19.423495725
    74.203130374        54.543845414        19.374985356
    78.084322200        54.553075470        19.303657609
     0.297982590        58.432045813        18.918106443
     4.242468901        58.440962986        18.872346661
     8.057560768        58.858583931        19.337227284
    12.034198149        58.880016435        19.274995232
    15.875177667        58.856237307        19.333320199
    19.760281195        58.900588510        19.332882606
    23.666116750        58.875401407        19.376673216
    27.585721500        58.862651414        19.442937381
    31.466600389        58.875010303        19.462691604
    35.413743529        58.814702053        19.464817058
    51.118605642        58.765110054        19.591031538
    54.800613546        58.503539640        19.032505897
    58.950382907        58.366809651        19.142216849
    62.897838983        58.394030496        19.111772841
    66.819321350        58.405607177        19.061730894
    70.737752589        58.412490609        18.998217317
    74.665963086        58.438772803        19.007938145
     0.297961467        62.388063662        18.974149673
     4.189590499        62.347623499        18.934391174
     8.068122366        62.781279711        19.370328110
    12.005642716        62.857857892        19.351042738
    15.890433309        62.847141640        19.418400886
    19.828892468        62.864741324        19.391520140
    23.683719414        62.831732139        19.465004598
    27.602385355        62.850192252        19.448594840
    35.466473287        62.775804254        19.534581971
    55.020138324        62.311094377        19.242488283
    58.964152102        62.312111248        19.212544382
    62.886729746        62.293572914        19.168597488
    66.797024643        62.330180257        19.123400327
    70.729303311        62.356384230        19.078296935
    74.612685690        62.360999259        19.018815471
     0.301563363        66.283460376        19.026348331
     4.221079709        66.286745651        18.980619806
     8.089167329        66.708277637        19.430997329
    12.055712516        66.750595099        19.402960085
    15.942067790        66.777659502        19.445094092
    19.883265141        66.756852764        19.499480718
    23.774940331        66.737219339        19.514671465
    47.264091632        66.697561385        15.711108414
    51.157018567        66.657903430        15.712983814
    54.952387626        66.241846901        19.286560204
    58.938726031        66.260463456        19.225359622
    62.860834271        66.229722675        19.202917324
    66.771833275        66.235119911        19.192446336
    70.694880323        66.249981866        19.118711824
    74.607991646        66.283851480        19.070420252
     0.288246361        70.181594820        19.126807305
     4.216370018        70.172442984        19.039069800
     8.119287443        70.625889064        19.432903986
    12.048671451        70.631364521        19.498793071
    27.759635820        70.640281694        15.586988132
    35.557224799        70.636057770        15.626496577
    39.470727293        70.594913620        15.681320796
    43.372807613        70.575905961        15.695448816
    47.242811967        70.593662087        15.731925363
    51.154984481        70.586935096        15.803878244
    55.045720862        70.178387766        19.412087036
    58.927069156        70.127231352        19.342697204
    62.861225442        70.107910810        19.314003570
    66.748128354        70.109709888        19.232204835
    70.664916677        70.135835641        19.201885854
    74.573333957        70.143814165        19.133652518
     0.273934222        74.098032934        19.150906206
     4.176861817        74.147781374        19.053510387
     8.162003241        74.472945313        19.441593344
    23.833772345        74.558127783        15.588707249
    31.654362139        74.514637009        15.641812351
    35.592586596        74.485929969        15.690416490
    39.459930992        74.500791924        15.752523517
    43.366314186        74.475057275        15.737989160
    47.267220995        74.474744392        15.794001133
    51.205054281        74.464575686        15.831602921
    55.074902168        74.188690862        19.583686218
    58.893037339        74.089115761        19.380424018
    62.832435307        74.029198615        19.369859260
    66.735532670        74.058609642        19.279277397
    70.665386082        74.088568216        19.268618869
    74.565354082        74.092635698        19.214513553
    58.507421646        77.882356088        15.834978642
    62.380007725        77.912862207        15.789312631
    66.283574492        77.911219570        15.720704215
    70.185263642        77.949547771        15.679757962
    74.143281317        77.955727215        15.643062618
    11.644436051         0.171109603        23.118754375
    15.558720885         0.210927910        23.226027306
    19.510166898         0.223623149        23.209304981
    23.401529152         0.216396327        23.230840835
    27.315970454         0.199722778        23.246719229
    31.222353647         0.180204337        23.318672110
    35.128736841         0.150187881        23.346615583
    39.026044883         0.178481915        23.390312424
    58.462202359         3.583452094        19.823925071
    62.434380398         3.580792587        19.797794485
     3.748146979         3.712579020        19.545334269
    11.655154118         4.176976014        23.144041031
    15.548550457         4.172681691        23.178986000
    19.466355823         4.147549342        23.179642391
    23.370783165         4.159955164        23.235841904
    27.292030831         4.144146737        23.228996691
    31.221258370         4.138436617        23.298824117
    35.136325545         4.091817010        23.298792860
    39.016030923         4.107789701        23.365150795
    42.929376948         4.074631896        23.321922805
    46.818001010         4.078746311        23.412160844
    66.299847177         3.613129073        19.783697722
    70.247694424         3.600997024        19.716277060
    74.170037366         3.658583190        19.675143267
    78.080645199         3.677137168        19.627633112
     3.757292541         7.660430615        19.608972873
    11.638490262         8.107040195        23.100875554
    15.514831576         8.074343893        23.113722050
    19.450552543         8.067147578        23.154855842
    23.349816437         8.039770292        23.173891161
    27.251583821         8.053224272        23.215712601
    31.179246679         8.047670594        23.267723719
    35.099633770         8.028584715        23.249594844
    38.995064194         8.001598533        23.321016361
    42.901134452         7.960610825        23.355523737
    46.814324009         7.953962055        23.349960048
    50.713274966         7.898581716        23.388937130
    58.491931302         7.462054800        19.862089479
    62.403947348         7.499459995        19.769444675
    66.348039360         7.499225332        19.752566067
    70.253092574         7.531796481        19.710432061
    74.180129560         7.554942020        19.683019951
    78.088155669         7.568137872        19.612911215
    11.614707108        12.036071861        23.083934432
    15.540727051        12.003062676        23.113440739
    19.436001007        11.993989061        23.128068866
    23.344105350        11.967941529        23.164732954
    27.240787520        11.975685390        23.196052149
    31.153898843        11.931647070        23.230622038
    35.087116320        11.913108736        23.240499150
    39.002652898        11.890581141        23.274256365
    42.909505496        11.867193116        23.338738899
    46.835447205        11.864690050        23.342802268
    58.511333350        11.378078344        19.827300793
    62.406216136        11.403656551        19.793043470
    66.341311230        11.418674948        19.714182863
    70.235333442        11.435101320        19.688021020
    74.187483562        11.470378909        19.646293350
    78.070865941        11.497443312        19.625820224
     3.794453721        15.472625260        19.521704218
     7.734696616        15.497343039        23.490958938
    11.600781444        15.950632676        23.047332858
    15.490031378        15.913399567        23.071400503
    19.392346401        15.892514609        23.145135014
    23.330257921        15.911444047        23.135445443
    27.240943988        15.881407253        23.208742361
    31.159609929        15.883832098        23.203084902
    35.063489633        15.828999305        23.232935033
    38.969794592        15.785977855        23.274944012
    42.873439594        15.797789199        23.322422912
    46.786316214        15.756253945        23.330893472
    50.696063473        15.747102109        23.366057239
    54.648448295        15.701655814        23.411504454
    58.508595157        15.254780283        19.794481277
    62.441186762        15.281844686        19.780947134
    66.336617187        15.304841607        19.725779091
    70.233221122        15.378290954        19.674268080
    74.162448662        15.383062424        19.594032179
    78.086590988        15.412786335        19.599970949
    11.598982061        19.873954223        23.042956923
    15.513423363        19.853069265        23.043519543
    19.421527706        19.811064686        23.090435822
    23.303188936        19.836877556        23.147291725
    27.239535775        19.788380649        23.173828648
    31.147718352        19.778211942        23.210273939
    35.047764586        19.749270240        23.188831855
    38.965413485        19.722518720        23.261816206
    42.865850890        19.697096955        23.305669330
    46.809551731        19.654935934        23.323860719
    50.672045615        19.670580097        23.389030900
    54.616919968        19.608003443        23.402221219
    58.517983245        19.180526675        19.775570985
    62.435162739        19.178101830        19.729717433
    66.316667501        19.233325727        19.679487946
    70.277658070        19.284716804        19.638510437
    74.172306154        19.294181523        19.621381775
    11.581692333        23.784760439        23.010762541
    15.490266081        23.779519644        23.020108289
    19.409557894        23.743459847        23.070025209
    23.309134724        23.719211394        23.139352528
    27.248376224        23.676737490        23.162169906
    31.136139711        23.686123988        23.147666806
    35.072799486        23.644119409        23.187081481
    38.958215951        23.619245189        23.232653722
    42.859826867        23.599220660        23.239967786
    46.812994030        23.554869456        23.297573850
    50.696141707        23.554087248        23.315233875
    54.648917699        23.517479905        23.368589030
    58.512115690        23.079130444        19.757192056
    62.441890868        23.102127364        19.730280054
    66.358053320        23.157742365        19.692897063
    70.250119680        23.181521494        19.653763697
    74.148210063        23.216095095        19.582373437
    11.564637308        27.694784447        23.007074253
    15.497541848        27.677966971        22.998603692
    19.413704300        27.626341231        23.041800426
    23.307648277        27.623212398        23.107814537
    27.247750352        27.594583579        23.107689510
    31.138330264        27.593332046        23.161107179
    35.050581013        27.570804451        23.182893086
    38.944759692        27.536778395        23.194458058
    42.869214954        27.505098964        23.251407731
    46.808925858        27.501813690        23.256190004
    50.676583191        27.464971685        23.314983821
    54.642815442        27.429615875        23.378559911
    58.509377498        26.989623776        19.739063181
    62.425305247        27.028890627        19.679112866
    66.319405693        27.064089995        19.651481960
    70.244017423        27.091701943        19.629445999
     7.700586565        31.154100103        23.401596086
    11.567453734        31.601601401        22.938934687
    15.482833845        31.566714916        22.984038078
    19.422779451        31.567184241        23.026922245
    23.307570043        31.515949605        23.087341410
    27.225531878        31.523849908        23.114941060
    31.151395353        31.484270174        23.146979159
    35.044165820        31.488494099        23.169265173
    38.925905283        31.454468043        23.190957309
    42.863973272        31.451417431        23.221682627
    46.774972275        31.400104575        23.248875940
    50.697706388        31.356300917        23.285852594
    54.638199632        31.338153687        23.326705077
    58.515479755        30.904810358        19.721903263
    62.427730503        30.952994381        19.671611262
    66.342171805        30.947753587        19.627789395
    70.235489910        30.995077181        19.584405121
     7.672586594        35.103547403        23.410504240
    11.564089669        35.493321737        22.921962309
    15.473602225        35.496450570        22.989820564
    19.415112513        35.490349346        23.012794225
    23.321182770        35.458200590        23.037080667
    27.229678283        35.413067178        23.067962268
    31.136061477        35.413067178        23.107408200
    35.049172800        35.354010461        23.135476700
    38.965413485        35.369967508        23.184768487
    42.898396260        35.361050335        23.192707684
    46.809238795        35.354558007        23.243718588
    50.673532063        35.296048835        23.291103717
    54.634992036        35.299177668        23.333737830
    58.493104813        34.800676398        19.671142412
    62.424914077        34.843619626        19.658327173
    66.298204262        34.887110401        19.608410253
    70.241748635        34.904866527        19.586436806
    78.053654447        34.988562801        19.467473876
     3.745878192        38.931048448        23.428883169
     7.682264148        38.975868977        23.355523737
    58.524476672        38.777031658        19.691146688
    62.408171987        38.760370624        19.651857040
    66.307748818        38.813404339        19.620444075
    74.142420742        38.877545409        19.517359540
    11.563072626        39.388014465        22.934496238
    15.475166907        39.384103424        22.955375701
    19.409870831        39.394272130        23.013606899
    23.307961213        39.348043627        23.024109144
    27.215439684        39.309246101        23.048333072
    31.108601321        39.335058971        23.110440098
    35.024059666        39.288048260        23.137602154
    38.944212054        39.287578935        23.154230709
    42.865850890        39.273812071        23.166577098
    46.789758513        39.262313611        23.205022816
    50.668446849        39.225862710        23.232716236
    54.656584637        39.179008440        23.288196845
     3.741880431        42.846704355        23.451731803
     7.678735792        42.883937464        23.339739113
    11.556031561        43.291233261        22.923056293
    15.491908996        43.288417312        22.959345300
    19.400639211        43.260101376        22.966159257
    23.283865122        43.250323773        23.038612244
    27.198306424        43.215359068        23.020389599
    31.126360453        43.233036973        23.085966116
    35.044400522        43.226544645        23.133663812
    38.974958040        43.177030867        23.111033975
    42.874613105        43.195569201        23.162982580
    46.774111701        43.171555410        23.184237123
    50.694264089        43.192596810        23.246781743
    54.644693060        43.106319248        23.278132194
    58.499441772        42.677278064        19.631571454
    62.426087588        42.700274984        19.614130225
    66.309391733        42.727886933        19.551304296
     3.702466110        46.764472223        23.355023630
     7.671726020        46.801470670        23.333581547
    11.563385563        47.230277192        22.883797901
    15.462180052        47.186160651        22.940466264
    19.388121761        47.178338569        22.975036154
    23.296695508        47.150491958        23.010950081
    27.183676655        47.140949018        23.000854173
    31.112434790        47.114666824        23.064367750
    35.042209968        47.128746571        23.055615879
    38.962909995        47.076495065        23.097749885
    42.888695236        47.091122358        23.141227929
    46.796095472        47.090261929        23.173797391
    50.658041718        47.076260402        23.192895224
    54.650091210        47.017985893        23.258284201
    58.496625346        46.595671699        19.628352015
    66.309469967        46.626412480        19.539551783
    78.051463894        46.709013664        23.435884665
     3.720006187        50.654158819        23.324767163
     7.700132808        50.719942526        23.380060232
    11.527241426        51.137172367        22.887611216
    15.429556448        51.089848772        22.924431587
    19.349630603        51.072874855        22.959564097
    23.295130827        51.065756761        23.011012594
    27.190404784        51.034781317        23.018389171
    31.084974634        51.047374868        23.058366467
    34.984394996        51.034390213        23.054990745
    38.925122943        51.001928573        23.084684593
    42.851455822        51.002085015        23.137727181
    46.748294460        51.005292069        23.186456347
    50.673219126        50.982373369        23.212586933
    54.636869653        50.939899465        23.224495729
    58.553892679        50.494588351        19.608972873
    62.449401338        50.514534659        19.547209670
    78.088390371        50.627563741        23.416755576
     3.729449038        54.610176667        23.256846394
     7.664904009        54.643185852        23.336207108
    11.511751082        54.978831380        22.864575042
    15.459833030        55.007460199        22.941779045
    19.371066736        54.981960213        22.956375915
    23.273616460        54.974451014        22.982912838
    27.160832308        54.980082913        22.982569014
    31.078794143        54.981256225        23.015513557
    34.981891506        54.950515444        23.062211039
    38.911119046        54.916332947        23.095905741
    42.796144340        54.928926498        23.145916431
    46.737732862        54.908197982        23.130444374
    50.675174978        54.906790007        23.175391482
    54.821580274        54.778038541        22.995102944
    58.569226556        54.534224253        19.578216298
    74.175357282        54.536570878        23.396313707
     0.317180447        58.445186911        22.961314471
     4.164751184        58.453634759        22.897113247
     8.153553962        58.740626938        23.170859263
    15.911634739        58.909114580        23.364963255
    19.776397412        58.860304789        23.383560980
    23.678008328        58.912478075        23.364713202
    39.331079492        58.813685182        19.518609807
    43.273919758        58.805471996        19.526736544
    47.163404394        58.787324767        19.557711915
    55.046346735        58.434470659        23.275725430
    58.973618423        58.374944616        23.167764852
    62.886103873        58.374240629        23.125849642
    66.800310473        58.363993702        23.097624859
    70.714673541        58.411082634        23.036299250
    74.616753861        58.437130166        22.980381047
     0.308840696        62.354976256        22.997103371
     4.168670710        62.355914906        22.973973427
     8.063975961        62.784956090        23.363337908
    15.898726119        62.890475973        23.409160203
    31.530830555        62.810612518        19.548616221
    39.363859564        62.769155485        19.632571667
    43.282838441        62.752963776        19.604878248
    47.190316912        62.747253656        19.699492222
    51.129793113        62.766574198        19.683426288
    55.033438115        62.336829026        23.286102648
    58.951556418        62.307183336        23.205272870
    62.871474104        62.294433343        23.174234985
    66.820181925        62.311329040        23.130069294
    70.733371482        62.334795285        23.090123255
    74.619179117        62.323844370        23.044457244
     0.283455307        66.269458850        23.047145318
     4.205229488        66.276733386        23.033486148
    27.679524141        66.700064451        19.544959189
    31.565410010        66.688722432        19.595094906
    35.506372659        66.691616602        19.613192525
    39.414789938        66.672296060        19.642073698
    43.351997352        66.663535329        19.702992971
    47.247740713        66.670653423        19.748315159
    51.160069695        66.633733197        19.741970052
    55.003474469        66.215408265        23.346959407
    58.978781871        66.218615319        23.301762245
    62.877889297        66.196322386        23.223526772
    66.816426690        66.206647534        23.197427443
    70.719524053        66.226672063        23.142009346
    74.642571102        66.259368365        23.104657612
     0.290925878        70.188634693        23.100437960
     4.187642471        70.211788055        23.071244220
     8.109977589        70.612356862        23.442542338
    15.966867987        70.672586892        19.522735689
    19.894765548        70.675872166        19.550554135
    23.798254081        70.657803157        19.571746165
    27.711913043        70.632146729        19.595563757
    31.644426413        70.601014844        19.614630332
    35.532659304        70.594600737        19.682582358
    39.463295057        70.587951967        19.711682328
    43.327588325        70.581224977        19.718527541
    47.231937433        70.555724990        19.772726627
    51.132531306        70.545869167        19.800732613
    58.938021925        70.092970633        23.365463362
    62.822890751        70.081081069        23.297073743
    66.807664475        70.092970633        23.294885775
    70.696523239        70.134036563        23.216931612
    74.617145031        70.123476752        23.165514371
     0.255233934        74.121108076        23.172984718
     4.231445722        74.145904075        23.177923273
    12.086302034        74.561021954        19.504856867
    16.028672897        74.569704464        19.581873330
    19.897581974        74.553669197        19.607128729
    23.844646880        74.543891595        19.625163834
    27.725134599        74.539276566        19.649075195
    31.663046120        74.508926889        19.703024227
    35.560119460        74.499149287        19.733061898
    39.528698733        74.489449906        19.745095721
    43.350745607        74.472710651        19.783572695
    47.260571099        74.445959131        19.834271033
    51.149821033        74.465514335        19.860214078
    55.006838534        74.069873440        23.432696484
    58.954607546        74.052273756        23.500804793
    62.824768369        74.007609669        23.370745741
    66.752665929        74.053525289        23.320828821
    70.631119563        74.060017617        23.287665482
    74.566136423        74.086769137        23.251626528
     3.765514941        77.995541611        19.577528651
     7.890374577        78.136730187        19.738844384
    58.472529255        77.935155140        19.887563675
    62.431955142        77.902693501        19.822143440
    66.315806926        77.917007910        19.789824032
    70.218043714        77.926785513        19.726904332
    74.134362634        77.945167405        19.697960645
    78.062573130        77.956978748        19.594282233
    11.638724965         0.212395333        27.235040524
    15.570299526         0.221854576        27.256857688
    19.469641654         0.237522206        27.251106459
    23.378450103         0.209369751        27.283457124
    27.319725689         0.223211707        27.310650437
    31.223761860         0.179781163        27.338343857
    42.949170166         0.112083392        23.402752583
    46.833960758         0.129374103        23.456295278
    50.749653805         0.047741137        23.461452631
    54.578037639        78.191171876        23.649055233
     3.787060602         3.697396359        23.630770074
     7.708542969         3.801351826        23.536749976
    11.609308957         4.180433374        27.161743607
    15.541665859         4.170381999        27.176465503
    19.467372866         4.181700551        27.239166406
    23.390811085         4.155332314        27.222225285
    27.267387101         4.145859773        27.296428647
    31.206550367         4.157710226        27.289239610
    50.730955864         4.014839903        23.411754507
    54.647822422         3.978271671        23.511744631
    58.555926765         3.600590275        23.871509034
    62.449010168         3.602858679        23.827249574
    66.358522724         3.627537347        23.817560002
    70.279222751         3.623524619        23.771643937
    74.180990135         3.672623826        23.716194584
    78.104271886         3.670738705        23.665933841
     3.782867256         7.635626794        23.587979677
     7.749177741         7.668307451        23.536187356
    11.601642019         8.117130680        27.107638291
    15.498324189         8.083652171        27.176871840
    19.417694237         8.088971186        27.161587323
    23.337298987         8.084277937        27.218380713
    27.244073351         8.050642986        27.260608490
    31.172127379         8.043915995        27.262765201
    35.052302162         8.036015693        27.299335518
    54.619579926         7.878948291        23.463484315
    58.522599055         7.481578716        23.844503262
    62.427652269         7.493006777        23.820123050
    66.351325190         7.527908906        23.760766612
    70.277892772         7.578267468        23.726571803
    74.188970009         7.573167471        23.697690629
    78.129463254         7.593364086        23.658025900
     3.785151691        11.567216281        23.591542939
     7.727804195        11.593654917        23.552628370
    11.596009167        12.013309603        27.102105858
    15.524141429        12.016516657        27.138394865
    19.419493620        12.001498260        27.150584971
    23.311168810        11.993285074        27.196969886
    27.249940905        11.954565769        27.210003923
    31.170797400        11.953001353        27.257670362
    35.050346310        11.950263624        27.285801375
    38.969481656        11.891206907        27.297585144
    42.875082509        11.910605670        27.318870944
    50.698019324        11.837547426        23.385811462
    54.643050144        11.795855731        23.464453272
    58.546147507        11.405768513        23.816059682
    62.460197639        11.416954090        23.817560002
    66.362121491        11.424463289        23.761548029
    70.254422553        11.490872763        23.717726162
    74.198592799        11.473038416        23.699909853
    78.119136357        11.524116610        23.648867693
     3.790362079        15.475519431        23.541157168
    11.593349209        15.966198619        27.079976128
    15.496915976        15.939055995        27.135706791
    19.417068364        15.922864286        27.147646843
    23.325016239        15.892749271        27.182873123
    27.215283216        15.882737007        27.221068788
    31.124404601        15.887508477        27.209972666
    35.051989226        15.829703292        27.272923622
    38.972219848        15.807957905        27.313651078
    58.512898031        15.292091613        23.838939572
    62.430938100        15.304372282        23.779426851
    66.355002191        15.368982677        23.736105090
    70.286498519        15.373910588        23.682906219
    74.200705118        15.375787888        23.623612294
    78.124221572        15.420764858        23.602420264
     3.776585061        19.416988207        23.527310458
     7.727835489        19.425748938        23.506243455
    11.587872824        19.864411283        27.065785594
    15.496055401        19.874032444        27.081007598
    19.388591166        19.824596887        27.130424412
    23.306240064        19.810673582        27.156148661
    27.204799851        19.800583096        27.211973094
    31.135122668        19.796202730        27.188811893
    35.017018600        19.761550908        27.218880820
    38.944368522        19.752555514        27.297241321
    42.827594433        19.703276399        27.316682976
    46.767070635        19.704371491        27.365255859
    50.687770662        19.671675189        27.364568212
    58.541609932        19.184124833        23.824436472
    62.453078339        19.216430031        23.776207413
    66.362121491        19.255462219        23.720695547
    70.291974903        19.279241347        23.683500096
    74.185058306        19.314206053        23.638803041
    78.114051143        19.370916145        23.562974332
     3.761282478        23.277263775        23.486020382
     7.771544860        23.343751469        23.461358861
    11.602346126        23.803376993        27.041030303
    15.504269978        23.775295720        27.062191076
    19.392659337        23.748935304        27.137800989
    23.321104536        23.734229791        27.159993232
    27.234137625        23.722809551        27.191406197
    31.148657161        23.659685352        27.203189966
    35.041584095        23.663596392        27.221350098
    38.944055586        23.661249768        27.245480256
    42.850438779        23.637705302        27.300492015
    46.773094658        23.611032003        27.319683618
    58.550372147        23.085388109        23.793429844
    62.430077525        23.123090543        23.774113215
    66.328872014        23.170257696        23.706473756
    70.289236711        23.164234693        23.655619136
    74.171836749        23.215391108        23.599263339
    78.095979075        23.261072065        23.562880562
     3.746973468        27.218419668        23.531592624
     7.690697780        27.249238670        23.435447072
    11.566123755        27.697443954        27.027027309
    15.486902016        27.699243033        27.064128990
    19.385931208        27.683051324        27.075662706
    23.310386469        27.646131098        27.111420349
    27.245559798        27.624855036        27.139332566
    31.120649366        27.582928677        27.179903738
    35.030474859        27.581520703        27.215098762
    38.948280225        27.578470091        27.251200229
    42.852081695        27.536465512        27.272611056
    46.764645379        27.505881172        27.317245597
    58.539888782        26.995255675        23.765267574
    62.427574035        27.031393693        23.715256884
    66.319796863        27.107502548        23.683218785
    70.237758698        27.095925867        23.621236786
    74.160649279        27.169062332        23.595887618
    78.092145606        27.184550054        23.550440403
     3.709898346        31.122655335        23.437478756
    11.553449837        31.613882069        27.015087257
    15.480643291        31.605590662        27.039436212
    19.363243329        31.568748657        27.067442199
    23.289419741        31.575553868        27.098323800
    27.203626340        31.531515548        27.116077595
    31.139503775        31.512273227        27.147771870
    35.047060480        31.514306968        27.180997722
    38.950157843        31.500305442        27.224538280
    42.851534056        31.450087677        27.248199587
    46.771686445        31.418955792        27.289364637
    58.516183861        30.924052679        23.733792096
    62.432346313        30.938523530        23.722070841
    66.319640395        30.992026569        23.676123519
    70.223598333        31.032232070        23.632489192
    74.148679467        31.073297999        23.577696229
    78.075012346        31.062894630        23.523778453
     3.743523346        35.033226888        23.455701401
    11.562603222        35.510373875        26.972359374
    15.475792779        35.514363137        27.033747496
    19.364338606        35.463441385        27.043937174
    23.308352384        35.465318684        27.093635298
    27.233433518        35.451395379        27.104231313
    31.115720620        35.441226673        27.139582619
    35.036811818        35.417995090        27.154273260
    38.967447570        35.385533450        27.220006061
    42.872031381        35.354010461        27.229508092
    46.768244146        35.342042676        27.256701405
    50.690508854        35.285567246        27.268360147
    54.613712371        35.277197618        27.323278136
    58.515401521        34.861141090        23.743981774
    62.415838926        34.850268396        23.692064426
    66.341311230        34.882808256        23.638959325
    70.213114968        34.920667132        23.589448741
    74.161196917        34.955240733        23.544095296
    78.073838835        35.026656339        23.497616611
    58.522911991        38.757711117        23.696440362
    62.410831946        38.784931961        23.661870472
    66.308452924        38.816063846        23.611984808
    70.234081697        38.838200338        23.590073875
    74.123566333        38.866125170        23.531655137
    78.074777644        38.926198758        23.499960862
    11.543122941        39.425169353        26.955668306
    15.446611474        39.389344218        26.998177393
    19.355889328        39.378236862        27.041155330
    23.301233084        39.361341166        27.070536610
    27.197054679        39.346479210        27.116733985
    31.125108708        39.371822755        27.095979549
    35.023824963        39.312453155        27.118453103
    38.964631144        39.294618808        27.184310931
    42.847700587        39.298138745        27.214004778
    46.783812724        39.266302872        27.213911008
    50.667116870        39.262861156        27.286051429
    54.626308055        39.224376514        27.320840115
    62.416386564        42.717952889        23.669934696
    11.554701582        43.330265449        26.950635980
    15.445125027        43.299524668        26.980329827
    19.368876182        43.280438788        27.002115734
    23.296147870        43.267454132        27.053470462
    27.211293279        43.273790019        27.067317172
    31.095223296        43.219895875        27.110763959
    35.043539947        43.224667345        27.118609386
    38.944446756        43.194239447        27.137269625
    42.846918247        43.209961832        27.190531010
    46.766288294        43.168113694        27.238635043
    50.662735762        43.138233342        27.248105817
    58.475267447        42.678764259        23.676967449
    66.336147782        42.734144598        23.594105987
    70.230874100        42.769265745        23.586760667
    74.148992403        42.761287222        23.493428216
    78.047552191        42.809549466        23.492990622
    11.536394811        47.248267980        26.912534085
    15.440352749        47.196485799        26.946541355
    19.371770842        47.205168310        27.004553756
    23.294192019        47.178416790        27.030059208
    27.181799037        47.165119251        27.056158537
    31.105237256        47.142122331        27.100699308
    35.023824963        47.158939806        27.115389948
    38.909945535        47.122723568        27.157586468
    42.798413128        47.116231240        27.183435743
    46.734603499        47.099179102        27.227195097
    50.674157935        47.061789551        27.249856191
    58.500067645        46.587380292        23.696784185
    62.427182865        46.633999900        23.623018417
    66.340372422        46.641821981        23.580540587
    70.253874915        46.688128705        23.556066605
    74.144767764        46.686407847        23.490802655
     7.661187892        50.719707864        27.321527762
    11.554623348        51.105649378        26.877057752
    15.455999561        51.088206135        26.968139722
    19.357297541        51.086328836        26.990394479
    23.256796137        51.095167788        27.015837418
    27.181329633        51.062158603        27.031028165
    31.087008720        51.038535916        27.057064980
    34.993470147        51.004196977        27.080820058
    38.878260740        51.031574263        27.142270694
    42.814294643        51.007404031        27.151616442
    46.731239435        50.990664776        27.226569964
    50.705920964        50.977914782        27.207409618
    54.606593071        50.919874936        27.301617256
    58.531517738        50.517898154        23.651555767
    62.475218579        50.545822986        23.627550636
    66.364781449        50.528927290        23.545283050
    70.275467516        50.574764689        23.500898563
    74.158380491        50.601516208        23.436666082
     3.801087969        54.635285549        27.382134467
     7.601244953        54.713819250        27.189437026
    11.552589262        55.034993927        26.916784994
    15.439648642        55.013639644        26.913409272
    19.364338606        54.994240881        26.973359587
    23.265245415        54.966707153        27.018462979
    27.134702132        55.007694862        27.011930332
    31.056732138        54.968819115        27.059753055
    34.971721078        54.931429565        27.062128563
    38.882876549        54.941441829        27.130080588
    42.815155217        54.916489389        27.161774863
    46.714966750        54.906320682        27.215067505
    50.676348489        54.921417300        27.207847212
    54.626933928        54.752616776        27.314557522
    58.484968471        54.517172115        23.588073447
    62.468725152        54.490733478        23.540281981
    66.377142431        54.498242677        23.507181156
    70.323503230        54.533676707        23.491990408
    78.091597968        54.547443571        23.353679593
     0.298214945        58.424536615        27.001021751
     4.255174113        58.464585673        26.903250851
     8.060455428        58.843487314        27.359129550
    11.960188726        58.850918291        23.368964110
    11.990308840        58.889246492        27.307180945
    27.591980225        58.837933636        23.466516213
    31.490540012        58.833631491        23.470767122
    35.389256268        58.837151427        23.494584713
    39.318170871        58.804533346        23.528373186
    43.257803541        58.786542558        23.578383876
    47.203538468        58.768317108        23.578571416
    51.115554514        58.746258837        23.713912847
    54.919451086        58.369782042        27.241604428
    58.997714514        58.354528983        27.180528872
    62.908791751        58.379090320        27.153241789
    66.825032437        58.391996755        27.100230457
    70.723826926        58.391449209        27.093854094
    74.619413819        58.423206861        27.042843190
     0.285573886        62.314536093        27.071411797
     4.225609461        62.309608182        26.976422742
    11.997506374        62.810064972        23.400689642
    19.809646888        62.819138587        23.470016961
    23.742160259        62.824379382        23.478987629
    27.592919034        62.812802701        23.523278347
    31.542487430        62.785581856        23.536593693
    35.454425242        62.773301188        23.597387938
    39.350794475        62.757657025        23.597856788
    43.270242757        62.735207650        23.654650179
    47.207293703        62.726212256        23.668153065
    51.118527408        62.728949985        23.750076827
    58.980503021        62.301238554        27.260077126
    62.874368764        62.278710959        27.215723895
    66.822450713        62.289427211        27.168651333
    70.719993457        62.324000812        27.118234306
    74.622621416        62.315709405        27.084164523
     0.315309870        66.264765601        27.074318669
     4.231344018        66.258664377        27.032059635
     8.082908604        66.680039921        23.444261456
    12.021758933        66.705461687        23.461890224
    15.958340475        66.752081294        23.492177949
    19.830300681        66.742303692        23.544032783
    23.757807071        66.741521484        23.554722568
    27.676551246        66.729162595        23.597544222
    31.581917397        66.695527643        23.620174059
    35.466629755        66.693728564        23.638115394
    39.411112937        66.640773071        23.677686353
    43.308655682        66.642963254        23.746763619
    47.256189992        66.633498535        23.747826346
    51.141762925        66.637644238        23.779208054
    58.963447995        66.196400606        27.299273005
    62.896352536        66.160810134        27.273736296
    66.781299596        66.213765628        27.220131087
    70.733684418        66.233477274        27.193219085
    74.640849952        66.243098435        27.116890269
     0.308605211        70.136774291        27.197907587
     4.216839423        70.136383187        27.093103934
    12.063692390        70.617910540        23.522028079
    15.976334309        70.666720330        23.569506978
    19.867148924        70.688778601        23.617517241
    23.789335398        70.662887510        23.608452803
    27.708079573        70.621899802        23.630488764
    31.615714512        70.604534780        23.676154775
    35.523427685        70.606490301        23.705629826
    39.397343742        70.572229583        23.753046212
    43.338854030        70.532493407        23.771237600
    47.232798007        70.539533281        23.822873638
    51.152872162        70.557680511        23.872009141
    55.008559683        70.132237484        23.410066646
    66.782081937        70.100166949        27.274236403
    70.719367585        70.107832589        27.294928326
    74.615893286        70.135757421        27.160399569
     0.269576584        74.091071282        27.240416674
     4.146929465        74.143322788        27.162399997
     7.922137606        74.457770474        23.765861451
    12.064396497        74.577057221        23.581665827
    16.010131424        74.559066433        23.604076868
    19.922303938        74.569548023        23.651805821
    23.815778511        74.552026560        23.655837933
    27.748370116        74.525196819        23.687907288
    31.650059265        74.496255117        23.721351937
    35.559728289        74.511821059        23.758641158
    39.459618056        74.501730574        23.775113429
    43.360837801        74.454250538        23.839470936
    47.248914224        74.445880910        23.872509248
    51.200125535        74.463871698        23.912580314
    70.665386082        74.051100444        27.319996185
    74.579749150        74.106011458        27.287989343
     3.775411550        77.973014016        23.633301865
     7.657706476        78.106771614        23.537343853
    58.560855511        77.927333058        23.895295369
    62.404886157        77.891820807        23.840627433
    66.327698503        77.908168958        23.822185991
    70.222972460        77.940552377        23.764454901
    74.141794870        77.961593777        23.714350440
    78.090580925        77.999765535        23.671872610
    15.596038533         0.257379343        31.220475265
    35.112151220         0.178455320        27.383322221
    39.037232354         0.157099472        27.410453021
    42.909270794         0.153921360        27.437021200
    46.831770205         0.124643308        27.462901732
    50.673923233         0.061966688        27.540605842
    54.643910719         0.060350568        27.486813094
     3.792255344         3.731868274        27.642596394
     7.744139468         3.765980372        27.605901050
    11.658674650         4.248329044        31.216672890
    15.508338149         4.237198221        31.234489198
    19.462052950         4.230862335        31.219329708
    27.299541301         4.188630916         0.030985905
    31.176664955         4.179001933         0.065730301
    35.108474219         4.149520507        27.352003026
    39.000071174         4.098888172        27.362849095
    42.891120492         4.090651520        27.394355830
    46.838733036         4.093107653        27.391761525
    50.687848896         4.041341116        27.456806679
    54.661513383         3.994658932        27.474748014
    58.529874822         3.573846578        27.879334499
    62.461605852         3.614302385        27.860205410
    66.332392547         3.633310043        27.807256592
    70.255517830         3.647272459        27.761934404
    74.190534690         3.677012014        27.741242480
    78.122187486         3.681658331        27.672509038
     3.805187434         7.657020187        27.624123695
     7.763682336         7.692219555        27.603806852
    11.624173429         8.116035589        31.154565864
    15.525314940         8.159526364        31.197606314
    19.394067550         8.122136813        31.197074951
    23.317975173         8.122293254        31.233520241
    27.224671303         8.094368423        31.254608468
    38.995533599         8.001754975        27.375851874
    42.900586813         7.977115417        27.388885911
    46.801180686         7.954509601        27.401607380
    50.695437600         7.956543342        27.444147723
    54.638512569         7.926115444        27.472872614
    58.495373601         7.510277934        27.886273482
    62.462153490         7.521651240        27.820009318
    66.367519641         7.541534972        27.779750712
    70.301597693         7.536215957        27.745868469
    74.201174523         7.577070690        27.708923072
    78.138147235         7.592886939        27.693357244
     3.804506798        11.561271499        27.613027573
     7.740102590        11.600851232        27.552077044
    11.606492531        12.059772769        31.154097014
    15.482051504        12.083551898        31.180415140
    19.398526892        12.023243647        31.187604176
    23.281909271        12.017220644        31.213390938
    46.793983152        11.872746794        27.368756608
    50.682685448        11.866489129        27.430457297
    54.639373143        11.838877180        27.477279806
    58.517905011        11.374558407        27.865706586
    62.467316939        11.430799175        27.823978916
    66.378628878        11.445895793        27.768529563
    70.272338153        11.466389647        27.726833150
    74.219481293        11.500806807        27.692138234
    78.118197549        11.515512320        27.645847089
     3.793835672        15.450958094        27.560203782
     7.744976572        15.544666633        27.542199933
    11.590298080        15.966902606        31.121996402
    15.484711462        15.971908739        31.177258215
    19.371927310        15.897129637        31.170663055
    23.284882165        15.930999251        31.194386876
    42.865303251        15.829312188        27.345751690
    46.761672485        15.817266182        27.343688749
    50.668055678        15.761651181        27.414578903
    54.616528797        15.730597517        27.444053953
    58.513680371        15.329950489        27.870645142
    62.462935831        15.324162149        27.823322526
    66.372761323        15.368669794        27.758777479
    70.279300985        15.373050160        27.739773416
    74.186388285        15.420843079        27.654505189
    78.142137172        15.418887559        27.620716717
     3.822578866        19.365206026        27.521820577
     7.722617277        19.390158466        27.508380204
    11.617210597        19.885061579        31.107618328
    15.485650271        19.857918955        31.101773329
    19.371066736        19.860187359        31.191136181
    23.273381758        19.822015600        31.194949496
    27.187823060        19.794403652        31.208014789
    31.096787977        19.786268687        31.241348977
    54.659557531        19.619580124        27.422893180
    58.536055313        19.192963785        27.854422924
    62.423192927        19.249048112        27.812851538
    66.380037091        19.247327254        27.748025180
    70.305196460        19.311155441        27.689575186
    74.234502233        19.300360968        27.666476498
    78.122031018        19.349561862        27.592554447
     3.787099719        23.325056694        27.537167607
     7.738968196        23.368625689        27.510286861
    11.563150861        23.787028843        31.085301058
    15.478922141        23.762545727        31.084019534
    19.394849891        23.783587127        31.135311748
    23.310699406        23.747370888        31.168756397
    27.222011345        23.728832554        31.202826180
    31.115877089        23.719524277        31.233238931
    42.820318665        23.666021238         0.035452266
    50.680181958        23.569653191        27.383572275
    54.629750354        23.548142466        27.429332056
    58.526354290        23.116519994        27.825104157
    62.466925768        23.134667224        27.762747077
    66.362903831        23.177610453        27.759433869
    70.300111245        23.209680988        27.708110398
    74.217916612        23.240265328        27.629999951
    78.136660787        23.235572079        27.590835329
     3.769348410        27.230934998        27.493251970
     7.710780464        27.243215667        27.459838577
    11.597730316        27.738900988        31.066390766
    15.449427900        27.720284433        31.099929185
    19.388043527        27.688213898        31.101710816
    23.264697777        27.644723123        31.144657496
    27.215909088        27.669128018        31.143626025
    31.109774832        27.616798291        31.199200405
    35.036342413        27.602405661        31.223799413
    38.905251491        27.571977763         0.001820295
    42.817658707        27.581129599         0.046531509
    50.681981341        27.459496227        27.306899635
    54.623569863        27.430006979        27.394793423
    58.498111793        26.982505682        27.760027746
    62.431407504        27.078873729        27.761746863
    66.360400341        27.111804693        27.692575827
    70.286342051        27.113681993        27.662913237
    74.206259737        27.135896705        27.592960784
    78.105758333        27.172034723        27.542731297
     3.759404861        31.129382325        27.534604559
     7.693271680        31.186092418        27.455962749
    11.572773650        31.620374397        31.050199805
    15.468047607        31.661127443        31.077111807
    19.361287478        31.567497124        31.073048439
    23.266262458        31.570313074        31.102679773
    27.198932297        31.562490992        31.142313245
    31.117598238        31.508675069        31.170350488
    35.022416750        31.528386715        31.220236152
    38.948280225        31.517279359         0.014065507
    42.826733859        31.468078465         0.009493404
    46.725606582        31.456892888         0.044961173
    50.681590171        31.393846909        27.336468456
    54.615511754        31.334790192        27.361973908
    58.501241156        30.951664628        27.782501300
    62.444785529        30.977555718        27.731834219
    66.352342233        31.004463679        27.686418261
    70.280865666        31.042713659        27.641252357
    74.190769392        31.098406881        27.589928886
    78.109826504        31.087143084        27.561266509
     3.774699620        34.999435495        27.478623843
     7.734884378        35.038702345        27.409515320
    11.576920055        35.546668335        31.033039887
    15.432138172        35.517335528        31.066734589
    19.355028753        35.519760373        31.052168976
    23.260081967        35.470403038        31.096178383
    27.183676655        35.464849359        31.147376827
    31.092485104        35.435125449        31.154097014
    35.006926406        35.440366244        31.192323935
    38.936310414        35.419637727        31.200044335
    42.831975541        35.395467494        31.252690027
    58.500771751        34.845809809        27.759558896
    62.398705666        34.887501505        27.724363872
    66.333409590        34.929114980        27.688418689
    70.248476764        34.977064341        27.627468160
    74.198514565        34.972762196        27.546138275
    78.084009264        34.994194700        27.533791886
     3.765749643        38.959833709        27.473810314
     7.692935274        38.995815285        27.412859785
    58.489427812        38.790954964        27.740304780
    62.418890054        38.779612945        27.717299862
    66.334270165        38.852749410        27.648503907
    70.266783535        38.863387441        27.605744766
    74.187014157        38.899994784        27.532072768
    78.111860590        38.926668082        27.522695764
    11.570817799        39.426890211        31.002627135
    15.450757879        39.416486842        31.021068578
    19.348065921        39.413592672        31.057232558
    23.257343775        39.400686237        31.082175390
    27.169125119        39.347496081        31.123809289
    31.097883254        39.342098845        31.151408939
    35.012011620        39.338970012        31.155441051
    38.909241428        39.319023703        31.207358399
    42.820631602        39.313626467         0.001562834
    50.635823245        39.243618835         0.015223410
    58.523068459        42.676261193        27.706610077
    62.406685540        42.740402264        27.672915375
     3.740237516        42.866885326        27.433332912
     7.681927741        42.912957387        27.363442972
    11.545626431        43.349429549        30.972620721
    15.425410043        43.314073740        30.988030265
    19.318493446        43.338947960        31.022600155
    23.236611749        43.266515483        31.047761784
    27.176400887        43.268001678        31.098210067
    31.073474227        43.244770095        31.134717871
    34.971564610        43.282394309        31.175945434
    38.910414939        43.216610601        31.182228027
    42.806940641        43.224119800        31.211703078
    46.758934293        43.177656634        31.238615080
    54.613555903        43.100218025        27.312150758
    66.323865034        42.744156863        27.601462601
    70.272338153        42.811270324        27.585084100
    74.190612924        42.809549466        27.518476112
    78.081271071        42.851006500        27.506786113
     3.736638749        46.773232955        27.429425826
     7.648936437        46.838078013        27.346689391
    11.508465251        47.253821658        30.959524172
    15.456781902        47.263521039        30.973245855
    19.331871471        47.229494984        31.022443872
    23.255387924        47.200475061        31.021318631
    27.182346676        47.173254216        31.089114373
    31.070188396        47.160191339        31.119495867
    34.994096020        47.153229687        31.125997257
    38.897428085        47.132266508        31.164755542
    42.797709021        47.128042583        31.189354550
    54.621144607        47.046927596        27.294021882
    58.515245053        46.615930891        27.685605587
    62.419672395        46.612098071        27.665601311
    66.337243059        46.650660934        27.608276558
    70.301832395        46.684999873        27.569612043
    74.195463436        46.731071934        27.526946672
    78.082679284        46.767366394        27.456400342
     3.745831251        50.674730894        27.386822970
    11.519965658        51.171589527        30.924454175
    15.430808193        51.110733731        30.985217164
    19.347440049        51.131227585        30.978872058
    23.232465343        51.113315018        31.042385634
    27.159267627        51.082261353        31.087489026
    31.056262733        51.070293568        31.079299775
    34.988854338        51.082261353        31.132436134
    38.859562799        51.040647878        31.159379393
    42.816563430        51.030557393        31.216516607
    46.740627522        51.023595740        31.235896437
    58.569774194        50.517585271        27.684917940
    62.448540764        50.558416538        27.584802790
    66.351794595        50.582899654        27.587834688
    70.273589898        50.595414985        27.523227127
    74.176296091        50.600108234        27.487907077
    78.104663056        50.686776899        27.429238286
    11.521921510        54.999012351        30.927486073
    15.445125027        55.022009271        30.985717271
    19.321075170        55.042894230        31.000407911
    23.249129199        55.028188716        31.044511089
    27.153478307        54.971713286        31.070985498
    31.051255753        54.974685677        31.094553036
    34.930491727        54.945587533        31.123684263
    38.868481482        54.936357476        31.157566505
    42.784174529        54.919148896        31.199606742
    58.530657163        54.500980406        27.644628078
    62.458632958        54.489560166        27.544512927
    66.389112242        54.515842361        27.540512072
    70.266783535        54.541889893        27.504223065
    74.229260551        54.567702763        27.440678232
    78.097700224        54.595784036        27.394168290
     0.329408431        58.419686924        31.001876975
     4.198094541        58.444248261        30.974589892
     8.076258708        58.537643917        31.214891259
    15.838720594        58.861947427        27.394449600
    19.796660034        58.882050177        27.401294813
    23.664004431        58.836838544        27.476279592
    27.578915137        58.838324740        27.462901732
    31.484359522        58.822445914        27.527321753
    35.426886852        58.827452046        27.532760415
    39.301037612        58.805002671        27.598930810
    43.251779518        58.798745006        27.580551881
    47.201895553        58.747275708        27.679635561
    51.190972150        58.740235834        27.655724200
    62.937738354        58.367591860        31.179915033
    66.803283368        58.369860263        31.126841188
    70.764430405        58.396611783        31.125528407
    74.657435573        58.401383253        31.068860043
     0.316384024        62.332135777        31.060514510
     4.243008716        62.313910327        31.031977159
     8.058812513        62.754841075        27.453993578
    12.001339843        62.790979093        27.433958045
    15.867823665        62.789884001        27.470965956
    19.809490420        62.796532771        27.468121598
    23.716421252        62.795203017        27.500003413
    27.604888845        62.773692292        27.537323891
    31.518704275        62.758673895        27.566611401
    35.459041051        62.763836469        27.591741773
    39.352906795        62.705405518        27.661631713
    43.300441105        62.727229127        27.645253212
    47.214882407        62.719407045        27.699577324
    51.135113030        62.722535877        27.784845551
    55.038053924        62.284577520        27.336999819
    66.846546804        62.277068321        31.198075165
    70.723983394        62.288645002        31.146782950
    74.633730653        62.315083639        31.104148837
     0.318148202        66.212905199        31.121402525
     4.229732396        66.200311647        31.053856836
     8.112794016        66.688878874        27.461307641
    12.035606362        66.709763832        27.473372720
    15.898022013        66.717038368        27.505723386
    19.825997807        66.704757700        27.534667073
    23.756633560        66.688253107        27.599993537
    27.665598478        66.687314457        27.614777947
    31.575893374        66.672608944        27.645628292
    35.502852126        66.655947910        27.658849868
    39.402428956        66.611205602        27.724270102
    43.310768001        66.596343647        27.745837213
    47.247584245        66.585549174        27.794128785
    51.135817136        66.624581362        27.815633382
    55.004960916        66.213609186        27.363067892
    66.842791569        66.175280986         0.021254543
    70.735718504        66.199216556        31.197262491
    74.625829012        66.219084644        31.164755542
     0.288830770        70.113542708        31.137593486
     4.228355476        70.135992083        31.128966642
     8.108647610        70.591315462        27.500753573
    12.019490145        70.590063929        27.548920120
    15.924465126        70.640125252        27.571456187
    19.881152821        70.621821581        27.605932306
    23.784641354        70.623385997        27.662038050
    27.700334401        70.609384471        27.673134172
    31.626589047        70.616893670        27.716143365
    35.530859920        70.558619160        27.713173981
    39.419796918        70.556507198        27.785720738
    43.337211114        70.519195868        27.821728435
    47.239760839        70.515050165        27.855829475
    51.163042590        70.513407528        27.878646852
    55.011610811        70.139668462        27.449055022
    58.953121099        70.077326470        27.388885911
    62.855749057        70.061212982        27.370600752
     4.198775178        74.072924052        31.241059103
     8.181092352        74.474196846        27.554296269
    12.062753582        74.556719809        27.601462601
    15.977898990        74.577995871        27.644127971
    19.909395318        74.575883909        27.658005938
    23.840109305        74.533253563        27.695076362
    27.716920023        74.557893121        27.723519942
    31.673685952        74.525275040        27.757589725
    35.545411456        74.534974421        27.802443063
    39.446083563        74.477951445        27.798254667
    43.319451982        74.477091016        27.854110357
    47.258928184        74.457457591        27.857517335
    51.130262518        74.461368632        27.918311581
    55.114175667        74.167336579        27.568955652
    58.938726031        74.091384165        27.402701364
    62.850976780        74.040305971        27.428269329
    66.729430413        74.039367321        27.352628160
    74.561442379        74.017387272         0.063877092
     3.793155035        77.973170458        27.656880697
     7.917287094        78.178343662        27.799629961
    58.472216318        77.909655154        27.924781714
    62.408484924        77.894480315        27.854172871
    66.306653541        77.915130611        27.809069479
    70.215931395        77.938127531        27.801942956
    74.166829769        77.979975669        27.741930127
    78.072039452        78.001799277        27.723863766
     2.008925543         1.916957576        17.354490954
     5.956279915         1.921603893        17.361398680
     9.871730436         2.005151548        17.244467435
    13.804322040         1.972979326        17.322171545
    17.696701337         1.973198344        17.307043311
    21.648460286         1.975020889        17.347989564
    25.550384138         1.941354649        17.369244107
    29.464668972         1.922785027        17.418754691
    33.365810483         1.915651288        17.450042629
    37.287292851         1.897371083        17.460951211
    41.174586933         1.899107586        17.498615512
    45.076901955         1.870306680        17.572818874
    48.994316152         1.857353313        17.569318125
    52.867371635         1.859958066        17.600606063
    56.738627734         1.810256559        17.641521059
    60.657919548         1.804233556        17.633581862
    64.571030871         1.810858859        17.594167187
    68.464427210         1.849593808        17.525840081
    72.393420048         1.869978153        17.476610808
    76.317953544         1.910629512        17.438258860
     2.021137880         5.827638639        17.381934320
     5.949246672         5.886734466        17.344270019
     9.844661450         5.934104993        17.253656899
    13.772793713         5.920197332        17.298166414
    17.697953082         5.894141978        17.320764995
    21.635004027         5.882033395        17.340144137
    25.529573878         5.859083407        17.349208575
    29.464668972         5.843994612        17.378683625
    33.365106377         5.833974525        17.424818487
    37.262492653         5.808779600        17.440040491
    41.167545868         5.804829448        17.476579551
    45.081517765         5.783318723        17.512212168
    48.996819642         5.781535289        17.540186898
    52.884661362         5.769942964        17.581758285
    56.739097139         5.743473039        17.597386625
    60.649548503         5.703416158        17.608607774
    64.560860443         5.729401114        17.600918630
    68.480152257         5.752898647        17.532372728
    72.397097049         5.771554312        17.501928720
    76.320144097         5.798634359        17.449730062
     1.990775240         9.752962638        17.383153331
     5.952743735         9.795280101        17.324984646
     9.859917092         9.845419645        17.252687942
    13.769586117         9.842525474        17.254813397
    17.671901139         9.799973350        17.291446227
    21.608952085         9.793089918        17.294728179
    25.528791537         9.793715684        17.350052505
    29.437443518         9.770875205        17.389779747
    33.339210902         9.738726449        17.410659210
    37.255373353         9.716277075        17.437727496
    41.168562910         9.723316948        17.461357548
    45.095678130         9.717450387        17.497865352
    48.976244083         9.677244887        17.518776071
    52.875351509         9.651197355        17.563191816
    56.775945382         9.615606883        17.605169539
    60.650409078         9.601840019        17.606638603
    64.568057977         9.635709633        17.568786762
    68.510820009         9.659723424        17.497959122
    72.392950643         9.701571561        17.466139820
    76.336182080         9.718389037        17.436289689
     2.009042894        13.663534192        17.364774402
     5.945999959        13.719227414        17.314326118
     9.851624282        13.768975854        17.248468290
    13.762466817        13.754505002        17.238653692
    17.692241995        13.740972801        17.250843798
    21.606057424        13.700376197        17.312919567
    25.509233021        13.718523426        17.325265957
    29.399812934        13.685279579        17.352865606
    33.328884006        13.666271920        17.378558598
    37.231277262        13.647890028        17.424849744
    41.175995146        13.644917637        17.462076451
    45.098885727        13.583748958        17.496708854
    49.003156601        13.599471342        17.526652755
    52.905706325        13.564350195        17.547907299
    56.754665717        13.517887029        17.571162270
    60.655728994        13.536816467        17.577851199
    64.576350787        13.515305742        17.524089707
    68.496503176        13.583123191        17.482143241
    72.412117988        13.582653866        17.446135544
    76.331488036        13.633184514        17.427006455
     1.996189037        17.583101139        17.326735021
     5.944513512        17.615484557        17.281037752
     9.836681576        17.665936985        17.228276474
    13.768334372        17.683849552        17.199489071
    17.678003396        17.649901717        17.244404922
    21.578831971        17.625340380        17.296259756
    25.497106742        17.618691611        17.303042456
    29.425551941        17.615875662        17.334361651
    33.310968406        17.569647158        17.389623464
    37.243481776        17.548527538        17.407814852
    41.177872764        17.536872636        17.438040063
    45.066809761        17.534134907        17.457137896
    48.967012464        17.470384941        17.469109205
    52.923152521        17.453567465        17.491207678
    56.765696720        17.416412577        17.560847565
    60.660266570        17.424860425        17.569630692
    64.584487130        17.452003049        17.529247060
    68.484533364        17.489783704        17.475391798
    72.409066860        17.530223866        17.444322656
    76.357696447        17.536481532        17.391748918
    60.660344804        21.331520938        17.538155214
     1.986933948        21.514635872        17.320327401
     5.949903838        21.571345964        17.290789837
     9.861247072        21.613898089        17.203239872
    13.754878113        21.582218658        17.177328083
    17.688564994        21.559378179        17.214867358
    21.576406715        21.523709486        17.268847647
    25.484041653        21.540057637        17.291039890
    29.401299382        21.518625133        17.315545129
    33.341166754        21.511898143        17.343676142
    37.240900052        21.466138965        17.376558171
    41.168093506        21.453232530        17.417535680
    45.075571976        21.405830714        17.452605677
    48.959423760        21.380408949        17.459575917
    52.899212898        21.388152810        17.503210244
    56.760142101        21.329956521        17.539405481
    64.565789189        21.362574602        17.494177063
    68.475223511        21.388465693        17.475641851
    72.414621478        21.425933464        17.403470174
    76.329688653        21.478419633        17.377683411
     1.976732226        25.406121545        17.288476843
     5.907211511        25.460954339        17.258595455
     9.818374805        25.516804002        17.168732496
    13.755112815        25.509138362        17.148634450
    17.687939122        25.455087777        17.199489071
    21.595339358        25.470497278        17.242717061
    25.491865060        25.435767235        17.296572323
    29.421562004        25.447735020        17.316264032
    33.320747663        25.404557129        17.338862613
    37.258580950        25.389773395        17.369056567
    41.159800695        25.367402241        17.385216272
    45.056091695        25.347534153        17.429256936
    48.946045735        25.305451353        17.434476802
    52.869796891        25.274241247        17.475954418
    56.749971673        25.239354762        17.516775644
    60.640629820        25.232705993        17.517088211
    64.556244633        25.268531127        17.489613588
    68.463097231        25.296612401        17.440290544
    72.367524573        25.356373105        17.405908195
    76.316701799        25.370296411        17.361304910
     1.979892882        29.316614878        17.276974384
     5.899380281        29.379895519        17.220962411
     9.817748933        29.419709916        17.152979129
    13.731173192        29.432459909        17.165731855
    17.656176092        29.418927707        17.176421640
    21.575076736        29.366050435        17.210397652
    25.495072656        29.347120997        17.256595028
    29.426881920        29.338203824        17.292821521
    33.341714392        29.332650146        17.311294220
    37.249975203        29.301909364        17.352803093
    41.165746484        29.281337289        17.377620898
    45.059690462        29.270933921        17.416535466
    48.958250249        29.240193139        17.442666052
    52.877463829        29.223766768        17.510211741
    56.747546417        29.168308208        17.516838157
    60.646966779        29.138193193        17.504585538
    64.574394936        29.185438567        17.452824474
    68.475614681        29.212972295        17.392311538
    72.390603621        29.243947738        17.349177318
    76.296517411        29.302535131        17.333361437
     1.968744528        33.227421094        17.240529093
     5.901132724        33.266296840        17.200333001
     9.790601713        33.317531476        17.127129853
    13.757146901        33.334896497        17.113408170
    17.664860073        33.312916447        17.179297254
    21.579692546        33.297272284        17.198613883
    25.482555206        33.250965560        17.234215244
    29.440181710        33.250183352        17.240810403
    33.306274362        33.245098999        17.292790265
    37.243481776        33.218269258        17.347051864
    41.134844030        33.188388906        17.366180953
    45.052571162        33.180645045        17.366180953
    48.955668525        33.146540768        17.395781030
    52.845779034        33.109072997        17.440915678
    56.732760180        33.063313819        17.504460511
    60.648766163        33.049625175        17.472891263
    64.579793086        33.087014726        17.440446828
    68.478196405        33.136372062        17.407814852
    72.384266662        33.167973272        17.349739938
    76.298238560        33.197931846        17.309731386
     1.977686682        37.141590805        17.232308586
     5.889389791        37.176477289        17.183360623
     9.806874398        37.233578486        17.104374989
    13.737666619        37.229354562        17.108125791
    17.670179990        37.218481868        17.139976349
    21.555831157        37.183126059        17.185642361
    25.477861162        37.173896002        17.221462518
    29.396057699        37.153323927        17.252250349
    33.325989346        37.136662893        17.284538501
    37.232841944        37.109520270        17.302229782
    41.131167029        37.116716585        17.301292082
    45.052884098        37.082377646        17.339175180
    48.980859893        37.071426731        17.375120364
    52.865494017        37.044831653        17.441322015
    56.762567357        36.984445182        17.490113695
    60.629755286        36.984445182        17.448667335
    64.545526567        37.003374620        17.414878862
    68.452926803        37.036540247        17.385685122
    72.388647770        37.077215072        17.338487533
    76.289476345        37.112727323        17.295040746
     1.942051066        41.053335670        17.197863723
     5.883882113        41.104961410        17.149915974
     9.785125329        41.133746671        17.104343732
    13.737040747        41.133512008        17.094997984
    17.644675685        41.106682268        17.123410308
    21.572651480        41.084389335        17.155604690
    25.469255416        41.040194573        17.193081451
    29.394180082        41.048173097        17.231558426
    33.292974571        41.057872478        17.235965618
    37.210232300        41.042619418        17.282413046
    41.133514050        41.034249791        17.300385638
    45.073772593        40.998424657        17.338862613
    48.968577145        40.997877111        17.373495016
    52.868388678        40.951961491        17.399125495
    56.742695906        40.924818867        17.447354554
    60.643368013        40.884848029        17.444916533
    64.564459210        40.921377151        17.386654079
    68.458403187        40.941401681        17.355991274
    72.370732170        40.969795837        17.302354809
    76.282904684        40.984892455        17.283194463
     1.987755405        44.943178707        17.184610890
     5.886972359        45.011543702        17.129474104
     9.791853458        45.040094300        17.091153413
    13.735163129        45.033993076        17.090403252
    17.652029687        45.022651058        17.117565308
    21.547538346        44.986278378        17.132756056
    25.474575332        44.973528384        17.193706584
    29.383931420        44.971103539        17.218805700
    33.292896337        44.944039136        17.229745538
    37.202643596        44.948263060        17.243779788
    41.142980372        44.926048348        17.279412405
    45.062506888        44.930037610        17.310419033
    48.974914104        44.897732412        17.351240259
    52.873160955        44.884747756        17.385403812
    56.750284610        44.836250850        17.420567578
    60.641959799        44.833356679        17.414003675
    64.562816294        44.826551468        17.336080768
    68.469277722        44.870902672        17.328485395
    72.366585764        44.884200211        17.292415184
    76.282122343        44.911890380        17.236778291
     1.986761833        48.860242588        17.165075464
     5.890148662        48.889497174        17.112970576
     9.797251609        48.938463406        17.069273736
    13.733911384        48.921958814        17.066679431
    17.618545508        48.909599924        17.124035442
    21.534316789        48.893251773        17.120690977
    25.435927705        48.888010979        17.170639154
    29.355375987        48.893095332        17.184642147
    33.276858355        48.871428165        17.222431475
    37.169159417        48.830440457        17.244029842
    41.133905221        48.848744128        17.273004785
    45.038723733        48.823087700        17.300979515
    48.972645316        48.819880647        17.334955528
    52.877933233        48.816517151        17.342144565
    56.742382969        48.789061644        17.405876938
    60.672236381        48.759572396        17.379933892
    64.584956534        48.769975765        17.353521997
    68.483907492        48.788748761        17.301854702
    72.379259682        48.812371448        17.265378155
    76.278758278        48.837558551        17.222275191
     2.016177840        52.782077940        17.178234527
     5.882223551        52.803901548        17.072680714
     9.803666802        52.847939868        17.050550983
    13.737197215        52.845515023        17.051519941
    17.615963784        52.818059516        17.100592930
    21.523285787        52.808751238        17.109688625
    25.442108196        52.810550317        17.155823487
    29.335426301        52.778870886        17.183923243
    33.255735158        52.789743580        17.225275833
    37.154138477        52.742419985        17.239185056
    41.086182443        52.780826407        17.261064733
    45.026284517        52.733893916        17.283194463
    48.935014733        52.725680730        17.309043739
    52.870422763        52.704404668        17.328829218
    56.803327304        52.704248226        17.404876724
    60.672940488        52.698694548        17.356147558
    64.607879114        52.699633198        17.325015903
    68.533586121        52.699007431        17.262471284
    72.428155971        52.730452200        17.234902891
    76.315684756        52.748130105        17.188517975
     2.053112141        56.692962376        17.105531486
     5.964291083        56.748342715        17.007354250
     9.786377074        56.747012961        17.108157047
    13.722958616        56.756634122        17.097967369
    17.593432374        56.744979220        17.103281005
    21.479631180        56.733480760        17.114783464
    25.414648040        56.723468495        17.167982336
    29.334331024        56.692493051        17.207146957
    33.235629004        56.702896420        17.224556929
    37.143107474        56.682950112        17.249280964
    41.098230488        56.675675576        17.270129171
    44.994521488        56.646186327        17.322327829
    48.884006124        56.647594302        17.309856413
    52.795943936        56.618574379        17.326234914
    56.828205736        56.619200145        17.323921919
    60.709945199        56.590649547        17.318358230
    64.652707232        56.629603514        17.279006068
    68.570825535        56.627726214        17.235090431
    72.490273817        56.649862706        17.199864151
    76.365206917        56.669730793        17.155635946
     2.033420628        60.613311532        17.124566805
     5.976706828        60.612529324        17.096498305
     9.848807856        60.646790042        17.148353140
    13.797437443        60.657349852        17.145008675
    17.636226407        60.652109057        17.181766532
    21.545973665        60.647806912        17.174577495
    25.448288687        60.647102925        17.227495057
    29.367971671        60.639984831        17.281381576
    33.276310716        60.630598333        17.289727110
    37.226504984        60.610495582        17.344926409
    41.103393937        60.610730245        17.362617691
    45.038801967        60.586403571        17.413159745
    48.950896247        60.570994070        17.410190360
    52.856575334        60.568725666        17.392780389
    56.788619300        60.534464948        17.368462690
    60.718316244        60.541974146        17.353271943
    64.653333104        60.552377515        17.307137081
    68.563784469        60.575217994        17.264565481
    72.460310171        60.590705716        17.214617304
    76.381870772        60.624497109        17.167638512
     2.049411670        64.532956700        17.154604476
     5.971637261        64.531939829        17.133693756
     9.856240092        64.581610049        17.181360195
    13.798532720        64.596863108        17.204146316
    17.695449592        64.601399915        17.238559922
    21.604727445        64.588962805        17.246374093
    25.502661360        64.584973544        17.278505961
    29.443311073        64.555875400        17.316639113
    33.341244988        64.563306377        17.393561806
    37.275792444        64.547662214        17.379340016
    41.159096589        64.524743514        17.443947576
    45.080657190        64.528576334        17.458138109
    48.977730531        64.493768070        17.511149441
    52.896083536        64.494237395        17.471891049
    56.780795894        64.472883112        17.457888056
    60.711040476        64.458255819        17.400750842
    64.629158779        64.460758885        17.357429082
    68.532569078        64.476715932        17.306418178
    72.459840766        64.506674505        17.253438103
    76.361451682        64.524039527        17.202333429
     2.048942265        68.435862613        17.227245004
     5.969337180        68.428979181        17.200051691
     9.846382600        68.478336517        17.266565909
    13.800645039        68.533403973        17.255876124
    17.743250604        68.528632503        17.299104114
    21.643844477        68.504540491        17.331767346
    25.545533626        68.503601841        17.364024242
    29.456454395        68.464726095        17.375307904
    33.371443336        68.460502171        17.404376617
    37.293629810        68.448377944        17.433945438
    41.187260851        68.429996052        17.505648265
    45.103110366        68.421235320        17.492989309
    49.008789453        68.427884090        17.569724462
    52.897178812        68.397299750        17.559190961
    56.760142101        68.357250692        17.506335912
    60.699540069        68.383767549        17.447542094
    64.593718749        68.362882591        17.392874159
    68.522242182        68.394874905        17.367837557
    72.442003400        68.400272141        17.304761574
    76.360434639        68.446422424        17.247124253
     2.028601409        72.340567605        17.232746180
     5.982050215        72.352144286        17.246686659
     9.925946641        72.388047642        17.265753235
    13.804947913        72.432085962        17.314826225
    17.751308712        72.412061433        17.333017614
    21.667627631        72.435840561        17.376276861
    25.591222319        72.395165736        17.393374265
    29.490642681        72.389768500        17.433445331
    33.413376793        72.391880462        17.453168297
    37.318273539        72.344243984        17.516494334
    41.224500265        72.338768527        17.504960618
    45.119461285        72.340020060        17.566286227
    49.011527645        72.322967921        17.594854834
    52.922996053        72.313581423        17.629518494
    56.760533272        72.301144313        17.573787831
    60.677399830        72.258826851        17.541030829
    64.611008477        72.277678068        17.471109632
    68.522007480        72.301066093        17.433664128
    72.452877935        72.325783871        17.375933037
    76.360904044        72.340254722        17.351083976
     2.005045133        76.233304812        17.354334670
     5.927865303        76.282036382        17.332111170
     9.917810299        76.312073176        17.278787271
    13.822159406        76.346099231        17.316357802
    17.772353675        76.320833907        17.353521997
    21.669114079        76.321537895        17.395124640
    25.583320678        76.290718892        17.431788727
    29.489156233        76.269755713        17.454731131
    33.385525467        76.257083941        17.478267412
    37.315691815        76.251373821        17.538374011
    41.224813201        76.258726578        17.546719545
    45.096460471        76.232913708        17.566223714
    48.998306089        76.219694390        17.622423227
    52.914937945        76.188953609        17.685249157
    56.731899605        76.162358531        17.619328816
    60.671141105        76.140926027        17.631456408
    64.577680766        76.145462834        17.575850772
    68.485941577        76.172605458        17.488425834
    72.390290685        76.185511893        17.462013938
    76.316075926        76.220007273        17.392592848
     2.018235396         1.913547148        21.421360290
     5.923030438         1.989131924        21.365129520
     9.878145629         2.016696941        21.333403988
    13.802679125         1.963858778        21.361628771
    17.697796613         1.995186216        21.370411899
    21.645800328         1.989178857        21.356877756
    25.522767514         1.977085919        21.446459405
    29.485870403         1.984634227        21.439958015
    33.344843755         1.943396212        21.496688892
    37.267343165         1.908447151        21.502533891
    41.153463736         1.918123066        21.561202682
    45.083864787         1.876626923        21.562515463
    48.969594188         1.869508828        21.613870191
    52.930506523         1.836452711        21.671163688
    56.722511517         1.807550119        21.701607695
    60.678025702         1.844431234        21.657848341
    64.588477067         1.844869271        21.635906151
    68.465444253         1.864369720        21.580581825
    72.418454948         1.885137348        21.521537954
    76.336025612         1.900202677        21.486405444
     2.018110222         5.839872374        21.403700265
     5.935743473         5.873460394        21.375100401
     9.861716476         5.913994421        21.328059095
    13.770681393         5.915652703        21.315493910
    17.690286143         5.909739209        21.342999789
    21.603240998         5.873992295        21.342906019
    25.519403450         5.898405012        21.394510800
    29.432514772         5.879287844        21.422860610
    33.348598990         5.875728797        21.454773682
    37.253182800         5.847436328        21.487593198
    41.140789818         5.854757796        21.518599826
    45.054214077         5.810680365        21.524788648
    48.969750656         5.775488820        21.581582039
    52.894205918         5.763779163        21.595522519
    56.731195498         5.726006330        21.665287432
    60.671688743         5.707757414        21.626310350
    64.559921634         5.765390512        21.597741743
    68.486332748         5.745178253        21.563265623
    72.402495199         5.806284355        21.525632579
    76.345335465         5.795497705        21.492375470
     2.027834715         9.767824594        21.392197806
     5.966857160         9.798565375        21.358034253
     9.855301283         9.853632830        21.296146024
    13.790787547         9.864661966        21.281330357
    17.689190867         9.834625172        21.307929793
    21.622721280         9.808968744        21.349876259
    25.522376344         9.789257098        21.371599653
    29.421327301         9.797704946        21.393729383
    33.318244173         9.771892076        21.424923551
    37.256155694         9.756717237        21.435550823
    41.142276265         9.714008671        21.493750764
    45.060707505         9.716042412        21.513161163
    48.954964418         9.702823094        21.564234580
    52.889903045         9.691559296        21.607056234
    56.758890356         9.628356876        21.627498104
    60.671219339         9.624054731        21.630967595
    64.602559198         9.639542453        21.574111692
    68.510115902         9.686944268        21.526820333
    72.413682670         9.710645176        21.496282555
    76.332270377         9.725272469        21.470964643
     2.044874094        13.690989699        21.355908799
     5.945780903        13.715238152        21.322839230
     9.836681576        13.768506529        21.270328005
    13.757694539        13.765221254        21.254980974
    17.674482863        13.755365431        21.295458377
    21.592366464        13.726501950        21.312555781
    25.487718654        13.739330164        21.355627489
    29.391285422        13.716646127        21.395198447
    33.306430830        13.688017307        21.392104036
    37.217038663        13.656807201        21.446459405
    41.141885095        13.632715189        21.476403306
    45.041931330        13.617462130        21.510191778
    48.959658462        13.631776540        21.526038916
    52.885130767        13.591023494        21.587677092
    56.747546417        13.542057262        21.620902944
    60.660735974        13.533922297        21.620965457
    64.600446878        13.543621678        21.584676450
    68.491965600        13.569590990        21.509816698
    72.407736881        13.610578698        21.464963360
    76.337199123        13.647029599        21.436707320
     2.022264450        17.598588861        21.354596018
     5.961161720        17.661009073        21.309773937
     9.846930238        17.689246788        21.280173860
    13.763640328        17.715685425        21.243103435
    17.674326395        17.660617969        21.272297176
    21.562950456        17.657958461        21.310617867
    25.471367735        17.647476872        21.331653614
    29.383853186        17.624479951        21.334404202
    33.300719744        17.589515246        21.384508662
    37.233389582        17.572463108        21.418203365
    41.134296391        17.549387967        21.465275927
    45.038801967        17.529519879        21.499189426
    48.956607334        17.513719274        21.511129479
    52.877463829        17.490722353        21.562890543
    56.756856271        17.456226973        21.588989872
    60.650956717        17.452863478        21.585489124
    64.602950368        17.443946305        21.553263485
    68.505187157        17.511998416        21.502377608
    72.426513056        17.526234605        21.461243815
    76.329375717        17.575904824        21.403700265
    56.766166124        21.349511726        21.588177198
    60.672705786        21.357803132        21.569641986
    64.576037851        21.372352204        21.532321509
     2.014558395        21.505327594        21.315806476
     5.953236610        21.554919593        21.282705651
     9.846460834        21.607562203        21.222817849
    13.729139106        21.610925698        21.208002182
    17.668067670        21.587303011        21.234507848
    21.571477969        21.550695668        21.268546374
    25.486232207        21.552103643        21.333841582
    29.382288504        21.513697222        21.328965539
    33.304240276        21.493594472        21.349845002
    37.235423668        21.462697249        21.402793821
    41.133514050        21.463948782        21.436113443
    45.064619208        21.405674273        21.472058627
    48.959814930        21.416234083        21.487999534
    52.854932419        21.384398210        21.538666615
    68.490948557        21.388856797        21.485811567
    72.402104029        21.457612896        21.435550823
    76.336807953        21.489057664        21.406857189
     2.000092917        25.445623058        21.329997010
     5.902932108        25.452741153        21.285393725
     9.829718744        25.530492645        21.218066833
    13.749010558        25.548718096        21.198875231
    17.649917367        25.487862300        21.205689188
    21.569756820        25.479258010        21.261013514
    25.447819283        25.444919071        21.316712920
    29.384166122        25.443823979        21.292864072
    33.287576421        25.414960498        21.346344254
    37.231511964        25.378822480        21.388697057
    41.130854092        25.379057143        21.410576734
    45.062585122        25.349489673        21.458680767
    48.942134032        25.317575580        21.490187502
    52.848517226        25.323285700        21.521069103
    56.740661820        25.229577160        21.550606667
    60.670906402        25.257814875        21.521412927
    64.574316702        25.295908413        21.511004452
    68.476866426        25.332437535        21.471683547
    72.408988626        25.354261143        21.426111305
    76.309895435        25.425050983        21.388665801
     1.983366475        29.313720708        21.306429472
     5.919736784        29.381147052        21.250136189
     9.821034764        29.447478306        21.174151196
    13.738605428        29.444271252        21.168024887
    17.649604431        29.426749789        21.209127423
    21.554735880        29.371447671        21.244228676
    25.478643503        29.357602586        21.296958697
    29.375716843        29.344852593        21.289332067
    33.307682575        29.333588795        21.325433534
    37.218133940        29.313564266        21.340686795
    41.132888178        29.294947712        21.404919275
    45.026675687        29.267883309        21.424861038
    48.959189058        29.235265228        21.456899136
    52.865415783        29.192087336        21.484217476
    56.743634714        29.168151766        21.544230304
    60.673644595        29.172297470        21.508816484
    64.572047914        29.207809721        21.471402237
    68.483438087        29.225565846        21.452616971
    72.393654750        29.278756002        21.413764916
    76.300742050        29.296433907        21.342437169
     1.971216725        33.253233964        21.296958697
     5.911459620        33.304703262        21.243728569
     9.798033949        33.340293734        21.171588148
    13.745177089        33.347881153        21.162054860
    17.643423940        33.326135766        21.173713603
    21.573355586        33.294143451        21.219973491
    25.474653566        33.298210934        21.266889770
    29.387217250        33.247993169        21.300459446
    33.293600444        33.251982431        21.301803483
    37.195367828        33.234539188        21.349438666
    41.104332745        33.212559138        21.396167404
    45.054605248        33.190109764        21.411983285
    48.941429926        33.149513160        21.444240180
    52.882940213        33.135355192        21.500877287
    56.751223418        33.087014726        21.511567072
    60.671845211        33.079427307        21.494250871
    64.575255510        33.093585275        21.469714376
    68.478665809        33.133634334        21.397323902
    72.402886369        33.168755481        21.365442086
    76.307000775        33.222727845        21.344250056
     1.973055225        37.161537113        21.269796641
     5.894029071        37.178823914        21.198562664
     9.811020804        37.239679710        21.128922778
    13.693777310        37.237958852        21.128703981
    17.639825173        37.251178170        21.178808442
    21.515853551        37.198144456        21.199875445
    25.455486221        37.200803964        21.216566513
    29.381036759        37.166465025        21.257012659
    33.313941300        37.157547852        21.309023776
    37.205772958        37.135098477        21.326089925
    41.124125963        37.119610755        21.354095911
    45.050615311        37.096144510        21.382758288
    48.958797887        37.070488082        21.402481254
    52.852741865        37.044362329        21.460337371
    56.758968590        37.007989648        21.489593625
    60.661909485        36.995396097        21.487968278
    64.556088165        37.020192096        21.427580369
    68.494938494        37.049837786        21.408795104
    72.390681855        37.083003412        21.353314494
    76.305983732        37.123834679        21.301084579
     1.983444709        41.075706824        21.250886349
     5.900084388        41.109263555        21.202125926
     9.801945652        41.128427655        21.127328687
    13.704651845        41.163861686        21.112294223
    17.618623743        41.117946066        21.145019969
    21.561776945        41.102927669        21.177370634
    25.448132219        41.080087190        21.183778254
    29.371179268        41.070935354        21.242665842
    33.284368825        41.051380150        21.280267630
    37.185197400        41.033545804        21.300365676
    41.131714667        41.058107140        21.319244711
    45.028631539        40.997798890        21.358284306
    48.935484137        41.004056555        21.401918634
    52.855792994        40.939446160        21.455023736
    56.750597546        40.921455372        21.457993120
    60.670749934        40.944608734        21.467151328
    64.584252427        40.971751358        21.426892722
    68.468338913        40.981920064        21.398730452
    72.366663998        40.994904720        21.334685512
    76.311068946        41.031199179        21.304178991
     1.966303626        44.958744650        21.217973063
     5.910145288        45.006928674        21.155741011
     9.791853458        45.039233871        21.116388849
    13.702539525        45.036496143        21.104698850
    17.643815111        45.036417922        21.141769274
    21.542922536        45.019131121        21.176151624
    25.438978834        44.999888800        21.192811435
    29.348334921        44.983227766        21.236789586
    33.273416056        44.966879615        21.269452818
    37.176669887        44.937703250        21.288956987
    41.100812212        44.948419502        21.310617867
    45.011107109        44.928082089        21.352095484
    48.934154158        44.915097434        21.384352379
    52.872456849        44.881931807        21.428268016
    56.744651757        44.848140414        21.430393471
    60.643055076        44.831792263        21.441145769
    64.558278719        44.873796842        21.398824222
    68.488679769        44.889519226        21.359565830
    72.385440173        44.918460929        21.304366531
    76.301915561        44.925970127        21.257950359
     1.979525182        48.863136759        21.184028307
     5.917123766        48.939167393        21.174557533
     9.759308088        48.959426585        21.080506178
    13.694950821        48.965214926        21.084975884
    17.604698079        48.928138258        21.137955959
    21.523051084        48.936586106        21.171338095
    25.411205742        48.909678145        21.190498440
    29.346535538        48.889966499        21.218754480
    33.243608878        48.885273250        21.242915895
    37.182928612        48.849526336        21.279798779
    41.111452045        48.850543207        21.296677387
    45.025658645        48.844363762        21.321588962
    48.927504263        48.847492595        21.351626633
    52.875429743        48.792816244        21.412483392
    56.750988716        48.766064724        21.417109381
    60.665430018        48.776624534        21.435988417
    64.574003765        48.767003374        21.370505669
    68.499945474        48.782803979        21.320463722
    72.388413068        48.814248748        21.254824691
    76.319439991        48.838418980        21.247416857
     1.986002962        52.809533447        21.120420961
     5.937957497        52.825959818        21.108137085
     9.740375445        52.863505811        21.057219951
    13.700348972        52.867573293        21.053812973
    17.628872405        52.850442934        21.111106470
    21.522659914        52.828541105        21.146051439
    25.431937768        52.809064122        21.169931544
    29.313520764        52.796783453        21.197968787
    33.239931877        52.805074860        21.225318384
    37.163057160        52.763226723        21.250136189
    41.087199486        52.771752792        21.290175998
    44.985915741        52.750554950        21.319307225
    48.925000773        52.741950660        21.359159494
    52.849768971        52.705343318        21.400980933
    56.798085622        52.692280441        21.401074703
    60.686162045        52.724976743        21.403700265
    64.582687746        52.720909260        21.351564120
    68.545242996        52.720674598        21.304554071
    72.419706693        52.769797271        21.234382821
    76.337512059        52.779496653        21.205876728
     2.035853707        56.682559008        21.127016120
     5.981807689        56.725032911        21.139081199
     9.783482414        56.726284445        21.049280754
    13.715761082        56.764221541        21.154209433
    17.616276721        56.740285971        21.147270450
    21.535177364        56.759058967        21.156928765
    25.391960162        56.745839649        21.201344509
    29.320953000        56.742867258        21.236977126
    33.241574793        56.708919423        21.256231242
    37.160240734        56.685531399        21.274985250
    41.059582862        56.683497657        21.318056957
    44.989123338        56.668635702        21.355096125
    48.919837324        56.661204724        21.358284306
    52.835139201        56.635782959        21.401418527
    56.802701431        56.639459337        21.361222434
    60.723479692        56.635939400        21.316869204
    64.659826532        56.650019147        21.304491558
    68.575988983        56.655103501        21.254324584
    72.462187788        56.658388775        21.200656862
    76.366380428        56.661986932        21.194217986
     2.027545249        60.595007861        21.128766495
     5.937550680        60.620116743        21.153021679
     9.880414417        60.651405070        21.138268526
    13.745646494        60.654533903        21.177026811
    17.643189238        60.662981751        21.178464618
    21.523051084        60.654064578        21.219348357
    25.480912291        60.650701083        21.236164452
    29.335426301        60.649840654        21.306116905
    33.265436181        60.597823810        21.301991023
    37.173696992        60.599779330        21.354689788
    41.123421856        60.585308479        21.380789117
    45.031135029        60.571228732        21.450647800
    48.980468723        60.524609125        21.438801518
    52.862129953        60.530241024        21.466026087
    56.777822999        60.528050841        21.377163342
    60.728486672        60.541583042        21.377944759
    64.652316062        60.549405124        21.331341047
    68.549311168        60.536968014        21.285612522
    72.480259857        60.558244076        21.221786379
    76.392667073        60.602282397        21.175276437
     2.052102922        64.520988915        21.202844830
     5.951875337        64.509646896        21.185309831
     9.858117709        64.569876926        21.214128492
    13.791726356        64.594594704        21.236351992
    17.689738505        64.612037947        21.237696029
    21.573512055        64.598349304        21.300490702
    25.482555206        64.571441342        21.301240863
    29.392380698        64.536945962        21.362941552
    33.312141917        64.539840132        21.391103822
    37.216099854        64.544924485        21.418234621
    41.150256140        64.511915300        21.459587211
    45.057265206        64.498383099        21.494000817
    48.990873853        64.489231263        21.529039557
    52.911182710        64.444958280        21.529195841
    56.807551943        64.462245081        21.432956518
    60.722932054        64.462479743        21.403200158
    64.646370273        64.451059504        21.401856120
    68.563471533        64.462166860        21.341812035
    72.495046094        64.496896903        21.267608674
    76.383983092        64.499947515        21.232069827
     2.041165800        68.422565074        21.255824905
     5.972192723        68.454792051        21.245510200
     9.877128586        68.462301250        21.276391801
    13.820751193        68.485532832        21.292770302
    17.727603791        68.520419317        21.312837092
    21.627024153        68.502428529        21.372287300
    25.549054159        68.480683142        21.390291148
    29.449726266        68.478649401        21.414702616
    33.347425479        68.437661692        21.447428362
    37.255138651        68.441729175        21.475465605
    41.169267017        68.393075826        21.521913034
    45.065949187        68.410440848        21.537135038
    49.016143455        68.402071220        21.595866342
    52.890763619        68.385957732        21.568798056
    56.790105747        68.333393342        21.541229663
    60.683815023        68.353104988        21.490906406
    64.630801694        68.346925544        21.455867666
    68.565427384        68.352870326        21.391635186
    72.462813661        68.402931649        21.353314494
    76.395796435        68.411457718        21.280236373
     2.071254620        72.362391214        21.337779923
     5.972865536        72.381868197        21.278360972
     9.882370268        72.400875856        21.330215807
    13.812145446        72.414408057        21.351470350
    17.749274626        72.418710202        21.378413609
    21.670052887        72.412139653        21.403450211
    25.578548401        72.377331390        21.435394540
    29.484853360        72.379599793        21.464619537
    33.389046000        72.373029245        21.489656139
    37.294959789        72.356602873        21.520068890
    41.195006023        72.337751656        21.592490620
    45.094269917        72.304429588        21.614088987
    49.025062138        72.302708730        21.660442646
    52.896787642        72.271733286        21.635999921
    56.822416415        72.279164264        21.643095188
    60.681389767        72.279164264        21.546605812
    64.641597995        72.262659671        21.511754612
    68.520129862        72.288863645        21.445709244
    72.445758635        72.318352893        21.427674139
    76.348934232        72.350970974        21.354502248
     2.013815172        76.232600825        21.388196951
     5.944896858        76.242613090        21.357284093
     9.917106192        76.243082415        21.334904309
    13.801349146        76.286260306        21.370130589
    17.736131304        76.332723472        21.385946470
    21.651198478        76.324275623        21.387603074
    25.569707952        76.303156002        21.449116223
    29.478594635        76.303234223        21.479997824
    33.393505341        76.309335447        21.493938304
    37.289405170        76.249809405        21.545636855
    41.218163306        76.254659096        21.574893109
    45.101467451        76.228220459        21.618496179
    49.020055158        76.208352372        21.675445853
    52.942711037        76.178472019        21.630967595
    56.755135121        76.185824776        21.701326385
    60.697036579        76.150390746        21.614151501
    64.580966597        76.143116210        21.574736825
    68.509177094        76.148513446        21.549950277
    72.397175283        76.210307892        21.501971271
    76.354254148        76.226577822        21.456930393
     2.030854550         1.925788706        25.471194734
     5.971637261         1.959048198        25.440156849
     9.878615033         1.971845124        25.358170574
    13.769194946         1.972916749        25.391271400
    17.705150615         1.984821957        25.385957764
    21.619591917         1.977508311        25.395115971
    25.539900774         1.969334236        25.445720539
    29.430480687         1.953447587        25.494762272
    33.366749292         1.959095131        25.503982993
    37.242464733         1.920579200        25.568027933
    41.183662084         1.939962319        25.544772962
    45.083082446         1.888813726        25.596534027
    48.984067490         1.872809747        25.630009932
    52.834904499         1.862734905        25.710089550
    56.760846208         1.866489505        25.683427601
    60.671375807         1.854068039        25.676238564
    64.567979743         1.853058990        25.640605947
    68.491730898         1.856821412        25.583781301
    72.411100946         1.895689336        25.559932453
    76.332192143         1.900812799        25.516985772
     2.043254649         5.842735256        25.446001849
     5.953322667         5.911952858        25.423403268
     9.862185880         5.916810371        25.331071031
    13.765517945         5.934104993        25.351887981
    17.678159864         5.901682465        25.353575842
    21.586342441         5.913282612        25.404805543
    25.505790723         5.894032469        25.413713697
    29.405211085         5.899953784        25.446845779
    33.330448687         5.874140915        25.466287435
    37.236362476         5.874884012        25.535896065
    41.135313434         5.838331424        25.542960075
    45.039506074         5.839293540        25.550649218
    48.964430740         5.798047703        25.593845952
    52.867919273         5.792212430        25.658516026
    56.768982550         5.746687915        25.664329769
    60.679825085         5.749988833        25.673487976
    64.598960431         5.751279477        25.612818758
    68.517078734         5.784617189        25.572185072
    72.414465010         5.818768398        25.526925397
    76.352298297         5.831510569        25.506796094
     2.047612286         9.789882864        25.432217652
     5.975940134         9.801068441        25.375955626
     9.845991429         9.849643569        25.317693171
    13.760432731         9.853241726        25.316943011
    17.655080816         9.861454912        25.319381032
    21.577658460         9.833921184        25.360108488
    25.479738780         9.805683469        25.392834234
    29.384635526         9.809438068        25.433968026
    33.320982366         9.803727949        25.449877677
    37.252791629         9.756326133        25.488792246
    41.140868052         9.737162033        25.534395744
    45.054683482         9.716902841        25.548555021
    48.950974481         9.716746400        25.577748761
    52.855949462         9.689603776        25.627853221
    56.765149081         9.669266363        25.633135601
    60.696723643         9.637508711        25.643106482
    64.609443795         9.647364534        25.608474079
    68.526623290         9.701962665        25.558213335
    72.424870141         9.719875232        25.525612616
    76.361608150         9.730591484        25.495293635
     2.044318632        13.706555641        25.410650542
     5.972818595        13.730960536        25.367703862
     9.835508065        13.765768800        25.315473947
    13.755347517        13.777893027        25.316349134
    17.645614494        13.756304081        25.318724642
    21.587046547        13.770149166        25.332258785
    25.464874308        13.720009622        25.396678805
    29.391598358        13.736123110        25.398116613
    33.308934320        13.696856260        25.415307788
    37.215865152        13.666428362        25.475977006
    41.118101940        13.683089396        25.487729519
    45.035203200        13.631932981        25.530363632
    48.942212266        13.641241259        25.567590340
    52.856418866        13.587190674        25.604879561
    56.781578234        13.529854814        25.641949985
    60.699853005        13.547610940        25.644200466
    64.608739689        13.572328718        25.578936515
    68.508238285        13.627396174        25.508108875
    72.417594373        13.632715189        25.508577725
    76.345178997        13.657745851        25.458098184
     2.033138985        17.613372595        25.391115116
     5.979061673        17.652326563        25.341416993
     9.863594093        17.690576542        25.285092453
    13.750262303        17.690028997        25.253366921
    17.641624557        17.678686978        25.276621892
    21.550433006        17.663277477        25.322131620
    25.474575332        17.672194650        25.364515680
    29.360148265        17.638559699        25.388333272
    33.311672512        17.596085795        25.412119606
    37.222436813        17.571055133        25.463536847
    41.104332745        17.562294402        25.475851980
    45.014001769        17.553690112        25.522862028
    48.929616582        17.526469267        25.549273924
    52.863225229        17.474295982        25.577561221
    56.763349698        17.449421762        25.620539158
    60.705642326        17.427519933        25.617382233
    64.600446878        17.506522959        25.587500846
    68.537341356        17.525608838        25.526706600
    72.444272188        17.546650238        25.494762272
    76.392510605        17.590532117        25.420902734
    56.765618486        21.352327675        25.585437905
    60.686631449        21.353813871        25.610943357
     2.037668737        21.511898143        25.359483355
     5.957875889        21.582766204        25.317255578
     9.835508065        21.609830606        25.266557241
    13.739857173        21.628134278        25.226861255
    17.654846113        21.598332146        25.275027801
    21.549650666        21.590275402        25.337478651
    25.453139199        21.565322961        25.354763596
    29.369145182        21.548349044        25.355607526
    33.291175188        21.532391997        25.353044478
    37.188013826        21.496488642        25.441625913
    41.117163131        21.498913487        25.486979358
    45.022529282        21.455735596        25.508296415
    48.919993793        21.432895117        25.533207990
    52.894205918        21.410211080        25.581999670
    64.610852009        21.387527043        25.553024726
    68.505578327        21.444471798        25.522174381
    72.427921269        21.449086826        25.485916631
    76.343770784        21.497661954        25.406087067
     1.998465649        25.421218163        25.349324933
     5.946226838        25.466508017        25.297063762
     9.813915464        25.528615346        25.244646307
    13.733207278        25.554897540        25.231455987
    17.655002581        25.518524860        25.251960370
    21.558960519        25.492399107        25.293437987
    25.485606335        25.480587764        25.284498576
    29.381036759        25.442572446        25.344698944
    33.295947466        25.424581658        25.383769796
    37.205851192        25.422626138        25.432811529
    41.121857175        25.396031060        25.461380136
    45.014392940        25.378978922        25.458379495
    48.940647585        25.338616980        25.496481389
    52.866354592        25.291215164        25.522143125
    56.757560377        25.257110888        25.561557800
    60.686474981        25.265949840        25.598878278
    64.595283430        25.293640010        25.543522695
    68.504717752        25.329699807        25.486010401
    72.417046734        25.383359287        25.392521667
    76.338059698        25.402914492        25.363171643
     2.003754271        29.355490624        25.355013649
     5.935837354        29.416581083        25.287030367
     9.816027784        29.448182293        25.206950749
    13.726557382        29.436762054        25.208044733
    17.646553303        29.421508994        25.215358796
    21.542061962        29.419318811        25.290499859
    25.459241456        29.357133261        25.293094163
    29.375090971        29.350640934        25.322506700
    33.290001677        29.338751369        25.354888622
    37.205616490        29.309418563        25.404149152
    41.092128232        29.313486045        25.418058376
    45.038880201        29.268978400        25.457598078
    48.915143281        29.257949265        25.499357004
    52.864789911        29.208591929        25.519298767
    56.777979468        29.165022934        25.550430421
    60.665821188        29.177694706        25.558557159
    64.567275636        29.194277519        25.528456974
    68.487897429        29.242461543        25.486541765
    72.410162137        29.290176242        25.412119606
    76.325776950        29.317240645        25.370079370
     2.000562321        33.252842860        25.303533895
     5.922216804        33.278577509        25.251147697
     9.812585485        33.343579008        25.184821019
    13.712553485        33.357658755        25.186071286
    17.629576511        33.322928712        25.201668370
    21.535803237        33.332236989        25.237676067
    25.460102030        33.301261546        25.272245957
    29.355767157        33.270911868        25.320912610
    33.269660821        33.254954822        25.360796135
    37.195054891        33.256675680        25.380237791
    41.105975661        33.208100552        25.392052817
    45.030743859        33.186824490        25.452440725
    48.943385777        33.135120529        25.465005911
    52.855401823        33.110559192        25.494230908
    56.749189333        33.102111344        25.540240743
    60.656902505        33.100625149        25.532395316
    64.595048728        33.135511633        25.497450346
    68.483907492        33.164218673        25.461661446
    72.381606704        33.218738583        25.385520170
    76.344474891        33.217252388        25.355888836
     2.010294639        37.153636811        25.298782879
     5.906382230        37.215822361        25.268776465
     9.801554482        37.244294738        25.169192678
    13.682198669        37.273862207        25.181914147
    17.625195404        37.238584619        25.215733877
    21.534786194        37.212458866        25.250366280
    25.455251519        37.215978802        25.258899354
    29.364685840        37.192512557        25.281716731
    33.280691824        37.147300925        25.328945577
    37.203269468        37.141356142        25.363109130
    41.129211177        37.121488055        25.391177630
    45.037471988        37.113040206        25.406524660
    48.951522120        37.095675185        25.455378853
    52.857592377        37.092781015        25.491230267
    56.753570440        37.030204361        25.513203714
    60.655885462        37.023086266        25.530707455
    64.559608698        37.020896083        25.479321471
    68.463566635        37.074399123        25.415807895
    72.387943663        37.086445128        25.387176774
    76.325385779        37.127980383        25.328695523
     1.992418156        41.067102534        25.289812212
     5.929250046        41.098938407        25.213514652
     9.802102121        41.173795730        25.166254550
    13.722254509        41.162688373        25.135966826
    17.620579594        41.130617838        25.193791686
    21.526493383        41.111766621        25.218890801
    25.483806951        41.109185334        25.252179167
    29.342232665        41.100346382        25.254710958
    33.275137205        41.100581044        25.288030581
    37.186057974        41.052553462        25.325976192
    41.103863341        41.055838737        25.348668543
    45.024328666        41.035188441        25.392302870
    48.932354774        41.014772807        25.427966744
    52.843744948        40.976444607        25.441719683
    56.726188518        40.935456898        25.487823289
    60.653381972        40.934205365        25.486885588
    64.554445250        40.964867926        25.459254682
    68.481560470        40.989507483        25.432311422
    72.397175283        41.011956858        25.360733622
    76.299803241        41.037926169        25.338416351
     1.989226206        44.986982365        25.234269089
     5.899693217        45.037669455        25.204075134
     9.775971944        45.041189392        25.140467788
    13.711458208        45.050732331        25.114868566
    17.610800336        45.056364230        25.147875621
    21.535490300        45.029690931        25.212889519
    25.430216619        45.022651058        25.210857834
    29.339885643        45.005598920        25.276871945
    33.275997780        44.987999236        25.285311249
    37.191143188        44.954051401        25.314161166
    41.093379977        44.967974706        25.359920948
    45.024641602        44.958744650        25.372861214
    48.902234660        44.946072877        25.423121958
    52.852115993        44.897263087        25.467475189
    56.737532457        44.834842875        25.490792673
    60.660892442        44.843838269        25.479790321
    64.577524298        44.882401132        25.415557841
    68.487349790        44.912985472        25.399460650
    72.400382879        44.924875036        25.346386805
    76.320144097        44.955772259        25.284404806
     1.984493045        48.895989502        25.237019677
     5.871849715        48.919299306        25.168755084
     9.795921630        48.952152049        25.105710358
    13.692525565        48.966153575        25.115743753
    17.592180630        48.952856036        25.159096770
    21.518904679        48.951291620        25.172255833
    25.408936954        48.933926599        25.194385563
    29.336834514        48.900056985        25.242395826
    33.259333925        48.897475698        25.252429221
    37.168142374        48.861885226        25.282341865
    41.073899695        48.865718046        25.335634507
    44.990531551        48.856644431        25.364234370
    48.924296666        48.865639825        25.409837868
    52.861034676        48.800247221        25.419433670
    56.778840042        48.789218086        25.474039092
    60.684597363        48.752923627        25.432874043
    64.597708686        48.792190477        25.409962895
    68.510820009        48.800481884        25.379331347
    72.409927435        48.863606084        25.312692102
    76.326950461        48.851481857        25.257586573
     1.994530475        52.813992033        25.190822301
     5.839836336        52.837458278        25.117744180
     9.789584671        52.866165318        25.120994875
    13.724053892        52.867416852        25.107304449
    17.601021079        52.840665332        25.139029980
    21.516166487        52.864679123        25.168786341
    25.416838594        52.821423011        25.190853558
    29.344344984        52.812975163        25.237019677
    33.250649944        52.827915339        25.264900637
    37.151165583        52.800303390        25.270776893
    41.033609153        52.765416905        25.319068465
    44.977309994        52.758220590        25.367360038
    48.910840407        52.776915366        25.401304794
    52.891858896        52.719735948        25.370141883
    56.787445789        52.688056517        25.441282090
    60.677399830        52.728496680        25.408306291
    64.628298204        52.729513550        25.372236081
    68.514497010        52.747191455        25.319162235
    72.436057612        52.751728262        25.299251729
    76.316623564        52.786614747        25.232737511
     2.043473705        56.687017594        25.176069148
     5.959464041        56.729413277        25.071140468
     9.769634985        56.731916343        25.144499900
    13.707390037        56.770635648        25.126746105
    17.645379792        56.777440859        25.164222866
    21.505683123        56.761874917        25.194854413
    25.404555846        56.754756822        25.200199306
    29.311799614        56.703991512        25.249084756
    33.232656109        56.753583510        25.279935100
    37.147097411        56.711970035        25.323819481
    41.059348160        56.675284471        25.362421483
    44.985211635        56.679117292        25.390677523
    48.892924807        56.647516081        25.386645411
    52.810573706        56.608796777        25.425122386
    56.814905945        56.624128057        25.430123455
    60.748905762        56.607623464        25.378206107
    64.648404358        56.614115792        25.321944080
    68.577866600        56.626631123        25.304315312
    72.450609147        56.662378037        25.247428152
    76.362546959        56.679977721        25.182695564
     2.056953433        60.573888240        25.195917141
     6.006725238        60.584526271        25.142249419
     9.796391034        60.640845260        25.160472064
    13.778191863        60.665719480        25.164379149
    17.646866239        60.670256287        25.242239542
    21.569365649        60.650622862        25.247490665
    25.457911477        60.622698030        25.307222183
    29.372274544        60.627234837        25.318036995
    33.274276631        60.626609071        25.371298380
    37.208511150        60.589063078        25.359014504
    41.101672787        60.555506348        25.400085784
    45.074554934        60.544790096        25.438125165
    48.955590291        60.536655131        25.503826709
    52.899917005        60.537124456        25.499200721
    56.811228944        60.531805440        25.433124096
    60.726609055        60.531101453        25.384363673
    64.641363293        60.540957276        25.347980896
    68.568087343        60.537672001        25.273402454
    72.486831518        60.558009414        25.258680557
    76.402211629        60.566691925        25.210013904
     2.060348792        64.489387705        25.238144917
     5.983474075        64.526151489        25.224860828
     9.858665347        64.527403022        25.262493872
    13.765830882        64.575978150        25.274496438
    17.690442612        64.553528775        25.309847744
    21.595886996        64.569172939        25.310472878
    25.505399552        64.561820182        25.350293890
    29.400282339        64.543751173        25.384019849
    33.305648489        64.547271110        25.424278455
    37.227365559        64.535303325        25.443563828
    41.126864155        64.475777282        25.484728877
    45.075259040        64.470692929        25.532614113
    48.992438534        64.468189863        25.525862670
    52.896083536        64.469832500        25.532364060
    56.789088704        64.421257373        25.510890719
    60.740300016        64.436119328        25.425309926
    64.644492655        64.438622394        25.405430676
    68.573876663        64.458725144        25.376518246
    72.484640964        64.471631579        25.316380391
    76.409722099        64.473665320        25.258805584
     2.048378980        68.420140229        25.274121358
     5.987190193        68.415759863        25.270495582
     9.876893884        68.470514436        25.303627665
    13.794386314        68.474894801        25.304971702
    17.697796613        68.487097249        25.360327285
    21.627728260        68.470436215        25.366297311
    25.520576960        68.455417818        25.422340541
    29.451134479        68.458311988        25.443938908
    33.354231842        68.444154020        25.496700186
    37.259597993        68.407937781        25.493887085
    41.149004395        68.403322753        25.556744271
    45.095599896        68.362491486        25.579936729
    48.993846747        68.388617240        25.625633997
    52.922526649        68.371252218        25.600222315
    56.794878025        68.371330439        25.550024085
    60.727704332        68.326744573        25.506889864
    64.632053439        68.351931676        25.466349948
    68.574424302        68.365933202        25.439687999
    72.475096409        68.386505277        25.364922017
    76.400568713        68.393623372        25.325882422
     2.038670133        72.340724047        25.340385522
     5.955669689        72.345808400        25.344542661
     9.904197572        72.363642747        25.345136538
    13.806669062        72.391098254        25.373486348
    17.733393112        72.401892726        25.435155780
    21.661212438        72.396808373        25.447814736
    25.575653740        72.380382002        25.473570242
    29.480237550        72.376236298        25.509890506
    33.383021977        72.362000109        25.527613044
    37.291361022        72.349171895        25.589907610
    41.207367005        72.314441852        25.594971193
    45.085977107        72.287455670        25.640324637
    49.002374260        72.297467935        25.680489473
    52.931367098        72.302865171        25.688241130
    56.742382969        72.290193399        25.628915949
    60.709162859        72.242478700        25.598284401
    64.593327579        72.252647406        25.523112082
    68.533351419        72.300440326        25.493449491
    72.459527830        72.296059960        25.437093695
    76.356288234        72.345260854        25.384238646
     2.014722687        76.240970453        25.440563186
     5.942894067        76.303703548        25.443845138
     9.925007832        76.310430539        25.402179981
    13.841717922        76.316688204        25.391333913
    17.732063133        76.332254147        25.439031609
    21.665671780        76.304485756        25.434624417
    25.571116165        76.297211220        25.460880029
    29.494241447        76.277499574        25.510203072
    33.397260576        76.260447436        25.523018312
    37.311232474        76.262950502        25.563401944
    41.178968041        76.253094679        25.582874857
    45.108899687        76.229002667        25.638480493
    48.978121701        76.202955135        25.672175196
    52.907192772        76.186372322        25.749597996
    56.725249710        76.204597772        25.623946136
    60.680842128        76.168929080        25.662204314
    64.593718749        76.131226645        25.589532530
    68.494312622        76.178784903        25.565996249
    72.416264394        76.190830908        25.531363846
    76.340641422        76.220554819        25.458504521
     2.036330935         1.956771972        29.484490118
     5.941071213         1.988819041        29.466111189
     9.882683205         2.019434669        29.435323358
    13.787814653         2.022618256        29.393408148
    17.684809759         2.025723623        29.398159164
    21.624755365         2.010071637        29.428071808
    25.528635069         2.013967034        29.452295736
    29.451290947         1.997000939        29.472768862
    33.369487484         1.966846814        29.513933912
    37.275557741         1.962708932        29.580323103
    41.164260037         1.953502342        29.610798368
    45.084725362         1.931162477        29.638929381
    48.943698713         1.910379205        29.652463524
    52.856262398         1.862774016        29.668060608
    56.749189333         1.858643957        29.716258411
    60.686866151         1.850704544        29.717508678
    64.587381790         1.842772953        29.682126115
    68.489462110         1.896299458        29.605109652
    72.404842221         1.909393623        29.576322248
    76.322099949         1.939625969        29.548191235
     2.054629882         5.881235543        29.485552845
     5.967686441         5.903481543        29.443043758
     9.858117709         5.953370781        29.380749192
    13.753313432         5.944524006        29.354556093
    17.674874033         5.946041490        29.391939084
    21.604962148         5.944344098        29.414975258
    25.513457661         5.926267267        29.463141804
    29.416476790         5.909786141        29.464579612
    33.316679492         5.919673253        29.518684927
    37.228539070         5.894501793        29.554098747
    41.136174009         5.869854414        29.572227623
    45.042322500         5.840709337        29.587980990
    48.929460114         5.829601981        29.631552804
    52.853367738         5.761745422        29.654588978
    56.757325675         5.733233934        29.714164213
    60.694689557         5.756973952        29.686439537
    64.620083628         5.785767035        29.660902828
    68.518486947         5.804954602        29.610204491
    72.456320234         5.820817783        29.565038586
    76.371465642         5.822507353        29.514058938
     2.050272245         9.791134397        29.452608303
     5.974782270         9.822657387        29.433135390
     9.860151795         9.879289259        29.345679196
    13.753391666         9.902207958        29.344397672
    17.644284515         9.870293865        29.355681334
    21.551450049         9.861846016        29.409911676
    25.455720923         9.840100629        29.398221677
    29.398404721         9.843542345        29.449388865
    33.290549315         9.806856782        29.482427177
    37.203034766         9.776037779        29.525186317
    41.111139109         9.771188089        29.549160192
    45.024328666         9.756169692        29.577728799
    48.927269560         9.722847623        29.619581495
    52.887477789         9.682798565        29.633897055
    56.768434912         9.639464232        29.693597317
    60.697349515         9.649398276        29.685095499
    64.614294307         9.685614514        29.637897910
    68.545008294         9.695548558        29.597451765
    72.445367465         9.732234122        29.531625193
    76.363564002         9.758359875        29.501181186
     2.062922692        13.708198278        29.467861563
     5.963438331        13.744727400        29.376779594
     9.842079726        13.787592408        29.328581791
    13.738136024        13.797370010        29.309984065
    17.660009561        13.776563273        29.321455267
    21.548946559        13.774373090        29.374341572
    25.465109010        13.750124637        29.393658202
    29.379706780        13.733385382        29.422226808
    33.297981551        13.727753483        29.462766724
    37.216256322        13.706712083        29.487522016
    41.105819192        13.678709030        29.510276880
    44.983568719        13.653913031        29.535000915
    48.915690919        13.648594015        29.602765400
    52.843744948        13.588129323        29.640460958
    56.765540252        13.550035785        29.673311730
    60.690386684        13.565758170        29.653057401
    64.621570075        13.595716743        29.632990611
    68.530769695        13.609796490        29.566538907
    72.450843849        13.650236653        29.524186103
    76.365128683        13.687626203        29.478832659
     2.050303538        17.615953882        29.415131542
     5.948800738        17.642079635        29.397065180
     9.831283426        17.701371015        29.335552031
    13.732894341        17.720691557        29.290136073
    17.634661725        17.682363356        29.333332806
    21.538384961        17.691984517        29.371528471
    25.438744131        17.640515219        29.395658629
    29.373917460        17.654282083        29.420226381
    33.279283610        17.621351119        29.431166219
    37.192707870        17.616892532        29.469361884
    41.078515505        17.599840394        29.523248403
    44.997494382        17.570507587        29.560100030
    48.901765256        17.564484584        29.587730937
    52.843353778        17.499483085        29.591294198
    56.745747034        17.456618077        29.672155233
    60.711431647        17.462875742        29.657558363
    64.632366376        17.509260687        29.617362271
    68.551814658        17.552907903        29.549535272
    72.457571979        17.563389493        29.511370864
    76.380697261        17.566674767        29.477519878
     2.054856761        21.517217158        29.391845314
     5.937973144        21.586051478        29.343428714
     9.825572339        21.616635818        29.286916634
    13.723036850        21.613115881        29.274163908
    17.632940576        21.610065269        29.322330455
    21.533299747        21.596063743        29.352336869
    25.439604706        21.589180311        29.411943360
    29.364216436        21.561724804        29.414506408
    33.284759995        21.527776969        29.437605096
    37.171193503        21.523709486        29.448669961
    41.059895798        21.505249373        29.494648539
    44.984038124        21.482174232        29.533719391
    48.907398109        21.445097565        29.536938829
    52.877776765        21.389873667        29.590512781
    56.763897336        21.339812344        29.626864302
    60.700087708        21.381347598        29.645712081
    64.635965143        21.411619055        29.606609972
    68.543913017        21.460428845        29.557193159
    72.465943023        21.471379759        29.496398913
    76.367006301        21.499382812        29.431478786
     2.029274222        25.444058642        29.381561866
     5.932496760        25.488175183        29.337552458
     9.825102935        25.531509516        29.283478399
    13.719438083        25.536515648        29.286479041
    17.608140378        25.541991106        29.288354442
    21.538384961        25.515161365        29.324237112
    25.467690734        25.495919044        29.355650077
    29.380567355        25.453445140        29.375685610
    33.275450141        25.436001898        29.417632076
    37.184180357        25.437018768        29.447607234
    41.081879569        25.417385343        29.472237499
    44.997650850        25.397126151        29.519060008
    48.916942664        25.360597030        29.537188883
    52.850473077        25.300836325        29.565945030
    56.756386866        25.265011191        29.624613821
    60.691873131        25.273928364        29.598608262
    64.623056522        25.335331706        29.566726447
    68.519895160        25.353166052        29.513340035
    72.436292314        25.394153760        29.465298515
    76.346587210        25.413630744        29.404535527
     2.018430981        29.368084176        29.373841466
     5.942244724        29.387717601        29.323893289
     9.818374805        29.468206822        29.272757358
    13.729139106        29.486197610        29.234905517
    17.609626825        29.431677701        29.261161129
    21.552154156        29.423699177        29.280696555
    25.447584580        29.409775872        29.319423583
    29.367111096        29.370509021        29.348304757
    33.283430016        29.375906258        29.396940153
    37.183163314        29.349311180        29.427196621
    41.099247531        29.337890940        29.452295736
    44.992017998        29.287986059        29.497774207
    48.900200575        29.251300495        29.490147577
    52.841319692        29.209999904        29.537970300
    56.763271464        29.163145634        29.588324814
    60.688196130        29.188880283        29.568383051
    64.592075834        29.234717682        29.537751503
    68.528735609        29.285874097        29.495304930
    72.433945292        29.308792796        29.434229374
    76.340954358        29.339690019        29.406817264
     2.003136222        33.289215540        29.345491655
     5.938012261        33.303451729        29.314360001
     9.826354680        33.357815197        29.244532574
    13.704025972        33.392858123        29.228904234
    17.597109375        33.340841279        29.264099257
    21.514210635        33.327778403        29.269537920
    25.438352961        33.303999274        29.317610696
    29.361243542        33.288355111        29.328831844
    33.263167394        33.285617382        29.379155101
    37.171741141        33.261916474        29.415287825
    41.085634804        33.249244702        29.433479214
    44.979578782        33.210838281        29.457109265
    48.891985998        33.162106711        29.475519450
    52.838816202        33.135511633        29.515746799
    56.742461203        33.091786196        29.572227623
    60.703373538        33.107195697        29.583104948
    64.597317516        33.142082182        29.528093188
    68.532177908        33.183695657        29.473143942
    72.428781844        33.219442570        29.418038413
    76.347995423        33.246115869        29.399096864
     2.029109931        37.163414413        29.320392540
     5.936854397        37.200334639        29.262567680
     9.807734973        37.259860681        29.212588246
    13.689396203        37.270655154        29.206586963
    17.598752291        37.258843810        29.223465571
    21.503883739        37.248909767        29.242657174
    25.445237559        37.222080026        29.317985776
    29.339494472        37.195328506        29.323018102
    33.271616672        37.185629125        29.339865453
    37.180268654        37.163101530        29.369027937
    41.125299474        37.171940482        29.401566142
    45.003831341        37.143624546        29.447325924
    48.919054984        37.111006465        29.451233009
    52.816128324        37.054843918        29.493804609
    56.739957713        37.012370014        29.558505940
    60.668872317        37.031612335        29.562631821
    64.600916283        37.041233496        29.515746799
    68.518174011        37.096144510        29.443168785
    72.442238102        37.118359222        29.385218898
    76.346117806        37.162162880        29.360401093
     2.016498600        41.102458344        29.304795456
     5.929523865        41.136797283        29.255409900
     9.784890627        41.162453711        29.190614799
    13.674609965        41.172074872        29.168891405
    17.589520671        41.155335617        29.225059662
    21.493635077        41.152128563        29.211900599
    25.432407172        41.128036551        29.280102678
    29.349586666        41.096435341        29.321392754
    33.247520581        41.086970622        29.333520346
    37.172914652        41.067806522        29.347335800
    41.085713038        41.059358673        29.390344993
    45.005474257        41.056308062        29.425633787
    48.905364023        41.036831078        29.465517312
    52.843666714        41.004212997        29.481239423
    56.754039845        40.955246765        29.533563108
    60.682093873        40.937959965        29.529280942
    64.574786106        40.980355648        29.491929208
    68.506517136        41.027992126        29.416663119
    72.417124968        41.043479847        29.384937587
    76.329453951        41.062722169        29.338115079
     1.990071134        45.005364257        29.267975085
     5.911592618        45.047525278        29.201835948
     9.781917732        45.084445504        29.170360469
    13.687909756        45.107520645        29.162546299
    17.585608968        45.082489983        29.175580335
    21.493009205        45.058632634        29.222277817
    25.447036942        45.016549834        29.251502814
    29.342936771        45.024606578        29.298669147
    33.253153434        44.998089721        29.310765482
    37.168611778        44.973450164        29.351211628
    41.085008932        44.976735438        29.381405582
    44.999684936        44.949358152        29.428478145
    48.906694002        44.948028398        29.434979534
    52.811043110        44.891005422        29.483021054
    56.768513146        44.850330597        29.514527789
    60.673957531        44.866209423        29.521685569
    64.598803963        44.871919542        29.466111189
    68.502370730        44.923701724        29.403441543
    72.447714487        44.943335149        29.373997749
    76.358400554        44.997542175        29.317860749
     1.997065259        48.935021690        29.268693989
     5.906421347        48.934787028        29.226247416
     9.782387137        48.981641297        29.124944511
    13.676409349        49.007923492        29.139010018
    17.605949824        48.963181184        29.159139321
    21.506778400        48.981563077        29.207962257
    25.420202659        48.936586106        29.250408831
    29.322752383        48.937915860        29.279133721
    33.212393487        48.915622927        29.312859680
    37.156798435        48.903185817        29.325799946
    41.059191691        48.879876014        29.352368125
    44.988888635        48.875964973        29.402847666
    48.901999958        48.850386765        29.429009508
    52.845700799        48.816751814        29.470018274
    56.799572069        48.792346919        29.470237071
    60.711822817        48.775529443        29.481020626
    64.597630452        48.808303966        29.438449026
    68.514497010        48.829345366        29.386594192
    72.427138928        48.863293200        29.354118500
    76.348777764        48.907018637        29.296293639
     2.016271721        52.816495099        29.195897178
     5.931268485        52.845671464        29.185644987
     9.755944024        52.893464384        29.084373339
    13.691899693        52.886972056        29.136415713
    17.573169752        52.881340157        29.153981968
    21.504353144        52.882044144        29.213713487
    25.416447424        52.840430669        29.239343965
    29.307105571        52.839100916        29.247376932
    33.225693278        52.810002771        29.297075056
    37.129807684        52.787944501        29.310202862
    41.058018180        52.786067201        29.354712376
    44.977622930        52.778714444        29.405817051
    48.916003855        52.737413853        29.404160447
    52.859235292        52.711522762        29.459828596
    56.785802874        52.707298838        29.501181186
    60.694846025        52.712539633        29.436761165
    64.614216073        52.744923051        29.404316730
    68.516765798        52.723881651        29.360057269
    72.422366651        52.776211378        29.288479469
    76.321082906        52.774803404        29.281352945
     2.056523146        56.700471575        29.177737046
     5.958384411        56.697812067        29.160108278
     9.806248526        56.745839649        29.075027591
    13.719046912        56.785184720        29.158389160
    17.591398289        56.776893313        29.182019212
    21.516322955        56.773529818        29.204398995
    25.416525658        56.749594248        29.276945753
    29.333313982        56.745839649        29.282228132
    33.236333110        56.706259915        29.307639814
    37.122766618        56.695465442        29.352993259
    41.049021263        56.678178642        29.376342000
    44.988575699        56.688425569        29.414537665
    48.916238558        56.660970062        29.454702500
    52.864946379        56.637269154        29.486271749
    56.809898965        56.634062101        29.441043331
    60.735293036        56.610282972        29.403472800
    64.649030231        56.605198619        29.364495718
    68.556978106        56.618652600        29.323611978
    72.471732344        56.650957797        29.295168398
    76.360434639        56.645404119        29.225809822
     2.073609465        60.574905110        29.211619289
     5.978811324        60.573653577        29.197928862
     9.844504982        60.631380541        29.201617151
    13.727183255        60.641079922        29.264380567
    17.637321683        60.636934219        29.250408831
    21.548711857        60.646164275        29.275632972
    25.454469178        60.646242496        29.328488021
    29.356627732        60.605020125        29.356744061
    33.281630632        60.572636707        29.369027937
    37.173384056        60.573810019        29.441699721
    41.119353685        60.555741010        29.440793277
    45.037315520        60.543616783        29.481739530
    48.970532997        60.546902058        29.509339180
    52.883644320        60.548857578        29.542752572
    56.812871859        60.533056973        29.463266831
    60.744524655        60.510529378        29.408067532
    64.676568621        60.521558513        29.374404086
    68.573798429        60.511233365        29.329456978
    72.502165394        60.532978752        29.296950029
    76.400803415        60.563797754        29.262536423
     2.068555545        64.495567149        29.250502601
     5.977997690        64.486180651        29.246064152
     9.878615033        64.533347804        29.291855190
    13.750966410        64.548600864        29.317485669
    17.662121881        64.531705167        29.317892006
    21.572651480        64.537180624        29.341928394
    25.502191956        64.545784914        29.382687106
    29.400751743        64.499399969        29.417350766
    33.307213171        64.482973598        29.431728840
    37.212109917        64.482034948        29.482395920
    41.158079546        64.428844792        29.511777201
    45.065792719        64.436979757        29.552973507
    48.966151889        64.457708274        29.593982273
    52.912903859        64.460758885        29.588887434
    56.808099582        64.460367781        29.536438722
    60.741395292        64.418363202        29.478676375
    64.675629812        64.417659215        29.459828596
    68.563158597        64.445505826        29.395658629
    72.505685927        64.458255819        29.341553314
    76.393449414        64.479140778        29.292574094
     2.087018784        68.388695460        29.336708528
     5.981799866        68.431169364        29.289667222
     9.848103749        68.461049717        29.350836548
    13.750340537        68.461206158        29.398753041
    17.677612225        68.457686221        29.376279487
    21.598625189        68.456043584        29.401066035
    25.508372447        68.440790525        29.449607661
    29.450117436        68.446422424        29.450295308
    33.343279073        68.411770602        29.490522657
    37.264370271        68.391042085        29.531031317
    41.165902952        68.355999159        29.571352436
    45.084647128        68.350993026        29.606953796
    48.987588022        68.375710805        29.642430129
    52.911573880        68.330812055        29.628645933
    56.811463646        68.349272168        29.566851473
    60.754851551        68.329325860        29.546409604
    64.655758360        68.339807449        29.519872681
    68.562141554        68.348802843        29.458609586
    72.496610776        68.396126438        29.418851087
    76.392041200        68.371017556        29.363214194
     2.056577910        72.355038457        29.419945071
     5.947650697        72.364894280        29.335176951
     9.856396560        72.373420349        29.431697583
    13.787658185        72.366928021        29.398127907
    17.733627814        72.372716361        29.423164509
    21.635160496        72.373811453        29.455827741
    25.564231567        72.359653485        29.517340890
    29.472414144        72.352613611        29.517059580
    33.403988706        72.344713309        29.554442571
    37.290578681        72.330711782        29.584167675
    41.203455302        72.308497070        29.620644222
    45.085977107        72.293009348        29.661590475
    49.012857624        72.292383582        29.696597958
    52.896161770        72.272593715        29.673686811
    56.815375349        72.250379003        29.634397162
    60.687022619        72.269464882        29.564163399
    64.621491841        72.265944945        29.553223560
    68.512149988        72.291679594        29.497399127
    72.464456576        72.312408111        29.472893889
    76.355897064        72.334309940        29.423945926
     2.019854841        76.255206641        29.473706563
     5.916059783        76.251217380        29.437636352
     9.906466359        76.279846199        29.438636566
    13.813006021        76.290562451        29.454671244
    17.730185515        76.304563977        29.448701218
    21.654797245        76.301435144        29.490835224
    25.583711849        76.319347712        29.503369153
    29.489077999        76.293613063        29.544190379
    33.399764066        76.287355397        29.574915697
    37.324688733        76.251921367        29.611392245
    41.184992063        76.235025670        29.637679114
    45.109290857        76.221180586        29.653870075
    49.001591919        76.196228145        29.714789347
    52.914937945        76.179567111        29.681751034
    56.731508435        76.195054833        29.741169986
    60.660657740        76.164157610        29.683939002
    64.581201299        76.177611590        29.634553445
    68.480778129        76.176438278        29.600421149
    72.414699713        76.214844699        29.540502091
    76.312242457        76.227672914        29.529312199
     2.390355713         1.893561730         0.164702707
     0.142908597         1.942833023         1.848838959
     2.251568487         0.099511742         2.219680730
     4.087119524         2.251202952         2.197760419
     5.850890809         2.399212383         0.140373444
     5.955129874         0.080078562         1.781036965
     7.979326705         1.879020480         1.694002736
    10.292864393         2.078381877         0.168752948
    11.877260620         2.027733898         2.372007041
    13.586596645         1.587616646         0.206296285
    15.807270501         1.694528859         1.879451752
    18.124641657         2.069589857         0.221502661
    19.739705637         2.006270106         2.426043592
    21.466331389         1.613977061         0.230555846
    23.656572195         1.680730707         1.932947563
    27.563111856         1.999871643         2.489685321
    25.983018502         2.078530497         0.286950714
    29.292945205         1.602259583         0.302229292
    31.467304496         1.680237916         2.017678175
    33.792342590         2.038450150         0.355266567
    35.372983583         1.973370430         2.515006359
    37.107198040         1.558753164         0.365656288
    39.288285460         1.658641148         2.075324872
    41.629674473         2.027225463         0.398450798
    44.913862170         1.539401334         0.428382196
    43.194199249         1.961676417         2.620488282
    49.414276598         1.957765377         0.472350970
    47.074843436         1.649450202         2.113226724
    50.975046138         1.910183653         2.652066907
    52.722560386         1.422406457         0.481243496
    54.848258089         1.548467127         2.160668115
    57.159996393         1.701850328         0.449768018
    58.830450089         2.143727548         2.489307115
    60.630850563         2.211193003         0.397166148
    62.740119113         1.848451784         2.025683011
    66.628352004         2.188845316         2.371741359
    64.988331359         1.804968832         0.362389965
    70.518306045         1.900875376         1.943406048
    68.423667264         2.243005410         0.325294535
    68.431881840         0.009386498         1.955602405
    74.454027012         2.242168447         2.284513339
    72.768239440         1.870017263         0.281126656
    72.663249328         0.054606109         2.305867903
    76.267492573         2.309070712         0.222036525
    76.292136303         0.091647421         1.878795362
     2.001282075         3.962017385         1.838108540
     0.155009841         6.164692142         2.204502485
     1.976873047         6.202597950         0.186817434
     6.285394967         4.018680545         2.206196598
     4.104385782         5.848171603         1.783071775
     6.299007694         5.748174110         0.119675269
     9.833161043         3.924260196         2.288439178
     7.953274763         6.181681703         2.156279677
     9.709707693         5.598115294         0.141330523
    10.193037729         6.037434693         3.921994617
    11.864195532         5.701413705         1.875775967
    14.000141898         3.891767269         1.943581086
    14.096056858         6.045679168         0.175426562
    15.789824305         5.962139334         2.312197381
    17.576064413         5.584207632         0.204828159
    17.666659457         3.893918341         2.367899913
    19.697302775         5.648708518         1.979385614
    21.869002108         3.861605322         1.986074544
    23.618081036         5.927002543         2.363649005
    21.942776828         6.021352493         0.247155957
    25.476218247         3.870459918         2.419270269
    27.536042871         5.642513430         2.039326552
    25.418012105         5.558746756         0.261449950
    29.708368076         3.862309309         2.016002817
    31.433272679         5.916935524         2.413909748
    29.743416936         6.006826888         0.279475678
    33.313393662         3.849864377         2.424605785
    33.242435367         5.553333876         0.309483968
    35.345366959         5.644367263         2.097882819
    37.506269991         3.821548441         2.104821803
    37.581531159         6.000045143         0.359267422
    39.233912786         5.867679875         2.476985732
    41.140633350         3.807460872         2.522220401
    41.050977115         5.520301224         0.388561184
    45.333979084         3.795884191         2.166534994
    45.378103095         5.958619398         0.438040511
    43.146945875         5.594047811         2.165209711
    48.921402006         3.768428684         2.569830578
    48.871019270         5.511689112         0.454350247
    47.071088201         5.855500894         2.554439788
    50.963858667         5.561320221         2.232261544
    53.129690445         3.775171318         2.160074238
    53.226074810         5.941019714         0.459998329
    54.883150481         5.834741089         2.639748649
    56.743243544         3.805826057         2.082310741
    56.737454223         6.048182234         0.435042995
    58.824113130         5.660410353         2.085874002
    61.013962765         3.869396115         2.416735352
    62.747864286         6.087566415         2.410062051
    61.061685543         5.679582275         0.394593724
    64.562894528         6.114106739         0.346839766
    64.580810129         3.901693491         1.979891973
    66.646424073         5.755933615         1.980179534
    68.827902663         3.942673377         2.335974339
    70.543262711         6.139622369         2.297353583
    68.876486016         5.748549570         0.292697880
    72.393420048         3.953952819         1.919926029
    72.385831344         6.191381084         0.239023906
    74.470925569         5.818228674         1.862163682
    76.645988966         3.954868002         2.247583569
    76.710610302         5.785516728         0.204037053
     2.347921558         7.902101653         2.183738672
     0.166891248         9.728870626         1.830475658
     2.379332534         9.753119080         0.160885954
     5.901680363         7.925176794         1.727372369
     4.082229895        10.076405719         2.157873768
     5.852111261        10.226589689         0.113703055
     6.287241291         9.702588432         3.910523415
    10.106432622         7.876836329         1.843672229
     7.950145400         9.753510184         1.695562444
    10.235205889        10.046368925         0.144023599
    13.704338909         7.866120077         2.335274189
    11.850973975         9.923092916         2.324409367
    13.643003404         9.546772563         0.163946608
    15.761425340         9.614902895         1.933975908
    17.923032479         7.841793403         1.947250620
    18.012610480         9.970729394         0.184141550
    19.660063361         9.905415012         2.346779774
    21.465861985         9.475044073         0.226938198
    21.550276538         7.815589429         2.370375443
    23.608771183         9.583849231         1.999899374
    25.779922877         7.800743118         2.008529344
    27.517579632         9.856214117         2.401888429
    25.851663512         9.933418064         0.227153869
    29.380802057         7.803003699         2.439043246
    29.280505990         9.447979671         0.262621451
    31.411288907         9.554438203         2.027974126
    33.542932400         7.804458606         2.060599850
    33.682658435         9.931618986         0.294788639
    35.341924660         9.818042358         2.490310455
    37.212344619         7.761171206         2.504641643
    37.110092700         9.419272630         0.331730286
    39.208721418         9.503125347         2.129361423
    41.390512945         7.753122284         2.140573195
    41.490026672         9.858717184         0.376918070
    44.984194592         7.752121057         2.582977138
    44.936315346         9.366160695         0.415129363
    43.126448551         9.800755558         2.531300467
    49.231052424         7.727974291         2.191324669
    49.303810102         9.818589904         0.425969180
    47.053954941         9.478720452         2.173867812
    52.777167761         9.280665342         0.455609891
    50.988502397         9.752649755         2.620413266
    52.832713945         7.661040737         2.647725354
    54.880490523         9.401047180         2.171786117
    57.083796417         7.710163411         2.491545094
    57.149356561         9.461746534         0.422199625
    58.819966725         9.908778507         2.435733163
    60.667777040        10.015471702         0.382034789
    60.695393664         7.775978407         2.028808679
    62.745360796         9.611695842         1.993591776
    64.952813094         7.803605999         2.344394889
    66.652761032         9.997715576         2.311169037
    64.996389467         9.602700448         0.312328639
    68.492435004         7.856107812         1.908489210
    70.546470307         9.692028621         1.890816682
    68.468886552        10.080473201         0.285677004
    72.753140266         7.844218248         2.266081274
    72.801410682         9.648537847         0.225911416
    74.477888401        10.023684888         2.230501793
    76.347682487         7.889116997         1.830325626
    76.289476345        10.128970108         0.206987996
     2.018509215        11.828552032         1.818266799
     0.193227963        14.002386773         2.196194460
     1.970309210        14.051431226         0.146953600
     6.253029536        11.828082707         2.194669133
     4.083403406        13.681133876         1.737652691
     6.315272556        13.581324112         0.061924174
     5.866866205        14.113460334         3.882955022
     9.801476248        11.809231490         2.244776719
     7.940444377        14.013181246         2.158958375
     9.661202575        13.463758224         0.100077330
    10.156502422        13.915248783         3.890737936
    11.835014227        13.565758170         1.847129218
    13.976124041        11.787329661         1.928446601
    14.068518468        13.914935899         0.136055958
    15.724420629        13.835698211         2.291649239
    17.635913470        11.774423227         2.329944925
    17.545396660        13.420580332         0.173107629
    19.675475472        13.515853288         1.947556936
    21.823078713        11.754555139         1.974822139
    23.591090285        13.779535664         2.360610855
    21.895523455        13.861823964         0.196703610
    25.462996691        11.717947796         2.376826822
    25.403538803        13.388118693         0.214410207
    27.498177585        13.467043498         1.999496163
    29.646171996        11.710673260         2.013677320
    29.764148962        13.845006488         0.247478214
    31.409254822        13.754426782         2.403648180
    33.280378887        11.701130321         2.467743131
    33.222563915        13.367311955         0.290016056
    35.342785235        13.428245972         2.081870021
    37.478731601        11.654276051         2.097920327
    37.565962580        13.796666023         0.294418247
    39.209112589        13.709997357         2.490585514
    41.076794355        11.649739243         2.494714521
    40.987451056        13.311618733         0.335165395
    45.266541322        11.635190171         2.148918729
    45.362847453        13.748716662         0.380074995
    43.111740547        13.398756724         2.133268508
    48.913891536        11.608438652         2.552383099
    48.832997515        13.279235315         0.414154155
    47.028607105        13.682776513         2.558443769
    50.963936902        13.327654001         2.172348737
    53.161766411        11.589743876         2.110760572
    53.229830045        13.773121557         0.432329915
    54.889330972        13.656024993         2.599018067
    56.755369824        13.877468128         0.410578390
    56.764053805        11.617277604         2.039276542
    58.827398961        13.488867106         2.007513502
    61.031878365        11.679306712         2.388823136
    62.726271684        13.859320898         2.369706550
    61.079914080        13.476899321         0.349590354
    64.574160233        11.701834308         1.955693050
    66.646032903        13.571859393         1.937667322
    64.536920820        13.944659810         0.332933668
    68.832831409        11.737033676         2.292980774
    70.558361885        13.935507974         2.269450744
    68.889316402        13.528133956         0.263129372
    72.401869326        11.752912502         1.883077527
    74.478436039        13.606667657         1.837986639
    72.339125608        13.997537083         0.228105010
    76.673449122        11.793430885         2.212494819
    76.751996121        13.589850181         0.181300630
     2.350878805        15.732161933         2.132399573
     0.154851026        17.567378755         1.759576128
     2.405611355        17.525999942         0.112100838
     5.893004205        15.750856708         1.683081651
     6.276053820        17.538437052         3.858918634
    10.059335717        15.740453340         1.800959974
     7.926518713        17.564406364         1.662836699
     9.739280169        17.451299061         3.889643952
    13.685171563        15.696571461         2.298825773
    13.606546331        17.357668743         0.129205119
    11.823357351        17.768719139         2.271248003
    14.044891781        17.768406256         3.917087318
    15.757357169        17.424860425         1.904088269
    17.888922427        15.683117480         1.929002970
    19.659046319        17.737900137         2.343085234
    21.524537532        15.655740194         2.355850463
    23.584831560        17.377927935         1.956202534
    21.449745768        17.312300669         0.188734719
    25.738145887        15.621714139         1.971762110
    27.483078411        17.689872555         2.366215178
    25.842197190        17.751901663         0.199501708
    29.349195496        15.641112901         2.401178902
    29.290754652        17.284688720         0.235327804
    31.422398144        17.349846661         2.030246486
    33.591046348        15.581195755         2.049522482
    35.302807629        17.641532090         2.462745188
    33.693767672        17.747364856         0.277075790
    37.201078914        15.579787780         2.487281682
    37.074887372        17.239711750         0.315726865
    39.216466590        17.344214762         2.059330828
    41.355151149        15.568758645         2.079797703
    41.478369797        17.713964567         0.319849621
    44.993035041        15.548577674         2.521338963
    44.911828084        17.199897354         0.380515714
    43.104464779        17.584900218         2.476066785
    49.188884264        15.520027076         2.140948275
    47.058883687        17.319731646         2.159217805
    49.303027761        17.626748355         0.371319999
    52.764963247        17.064575339         0.424093779
    52.824186432        15.478178938         2.631665671
    50.968005073        17.535229999         2.555158692
    54.884558694        17.192153493         2.138153928
    57.065176710        15.533950381         2.474353919
    57.138560260        17.320826738         0.377868273
    58.813551532        17.733597992         2.374973300
    60.675131042        15.573451894         2.001768524
    62.739884411        17.458338935         1.969049030
    60.641412161        17.835832601         0.356488703
    64.923553555        15.614283161         2.317023413
    64.990913083        17.460920222         0.313251336
    68.481247533        15.644945721         1.867786759
    70.571270505        17.498779098         1.876301079
    72.753531436        15.665830680         2.205859025
    72.822533879        17.464127275         0.197151518
    74.470221463        17.863366328         2.210341234
    76.329141014        15.688280054         1.822258277
     1.980628282        19.632408338         1.763470710
     4.062929552        17.930636231         2.139129136
     6.229707962        19.683330091         2.151231723
     5.827068537        18.055711319         0.072354842
     9.767757367        19.623178282         2.204386836
    10.195384751        17.877289634         0.087186450
     9.640157612        21.290298567         0.066496089
    13.970256486        19.609802522         1.874772627
    17.613929699        19.586570939         2.305589719
    17.523412889        21.235231111         0.126521420
    18.016991587        17.767936931         0.166446517
    21.840916079        19.580000391         1.925224037
    25.427165490        19.541515748         2.345435736
    25.347444981        21.215050140         0.197865421
    27.488867731        21.302344573         1.970980693
    29.644529081        19.524932935         1.989837849
    33.264653841        19.510853188         2.433135733
    33.183368650        21.156619190         0.243936832
    35.310865738        21.286700409         2.039104630
    37.441413953        19.513043371         2.074868525
    41.056766435        19.479408419         2.489916621
    40.966014923        21.123531784         0.314389079
    45.233526548        19.441862427         2.090481237
    43.088739733        21.241801660         2.092065951
    48.920619665        19.413233608         2.507189063
    48.837222155        21.102803267         0.378152709
    53.146041364        19.378581785         2.107422359
    50.970508563        21.161390659         2.131533763
    56.756934505        19.417144648         2.023710714
    58.817776171        21.295930466         1.959540747
    61.003635869        19.499432949         2.351074442
    66.620059194        17.825272790         2.305549085
    64.591215259        19.532598575         1.959006258
    68.462862529        17.888084107         0.257123088
    68.838229559        19.548868505         2.242376206
    72.399365836        19.583051003         1.828615886
    76.272499553        17.950426098         0.158597339
    76.653421202        19.635302509         2.166463104
     2.338134476        23.562143992         2.096013670
     0.143579063        21.828223129         2.132637123
     1.932529981        21.872965437         0.084065157
     2.334457475        21.512445689         3.902084111
     4.063101667        21.498444162         1.705414550
     5.862485097        23.576536623         1.615989185
     5.867163494        21.939062028         3.835007273
     7.927066352        21.888844263         2.102036832
    10.081710659        23.554869456         1.743675854
    10.106432622        21.736548331         3.824630055
    11.812248115        21.374151283         1.820692317
    13.696593737        23.518027451         2.248418123
    14.064059127        21.725753858         0.101790509
    15.718474840        21.669278428         2.265581167
    17.897762876        23.494795868         1.879279841
    19.667573831        21.320726465         1.909020573
    23.576538749        21.638694088         2.304580128
    21.517261764        23.497377155         2.295090600
    21.899356924        21.681559096         0.169771603
    25.770221853        23.468044349         1.931259702
    29.738018785        21.681167992         0.229003327
    31.396502670        21.572675718         2.379814960
    29.354358944        23.448176261         2.362320596
    33.546844103        23.407188553         1.997470730
    37.556418025        21.598332146         0.285134701
    37.184884463        23.425883328         2.423167977
    39.210129631        21.556718671         2.483940343
    41.367903301        23.377542863         2.046640616
    45.372470242        21.584878166         0.354297610
    44.990375083        23.362759128         2.459675781
    47.025712445        21.479984049         2.503116317
    49.206252226        23.332878776         2.114383222
    52.839911479        23.292360392         2.579926486
    53.243051601        21.565010078         0.396997362
    52.770517866        24.886422434         0.371098076
    54.892538569        21.474352150         2.610764328
    56.693251978        21.686095904         0.350209236
    57.086143439        23.324743811         2.404826557
    61.073577121        21.298746415         0.323294107
    60.668872317        23.398975367         1.940499177
    62.724237599        21.685470137         2.308927932
    66.660584438        21.391281642         1.927683938
    64.549203568        21.745934829         0.293816556
    64.887565887        23.443874116         2.272132567
    68.903398533        21.361635952         0.235118384
    70.571896378        21.739129618         2.214076407
    68.500493113        23.469921648         1.848182568
    74.480470125        21.483816869         1.805642225
    72.761667778        23.499332676         2.168669826
    72.396392942        21.843163305         0.164347006
    76.737288117        21.413652796         0.129728668
    76.331409802        23.522642479         1.749992829
     1.994780824        27.473654195         1.713213092
     0.141388509        25.399081672         1.736974421
     1.971326252        25.748337622         3.862856976
     2.397420249        25.379761130         0.072284827
     4.061873392        25.781894353         2.084364305
     6.230670241        27.493678725         2.117996494
     6.244322085        25.372017269         3.801000003
     5.838154304        25.903058399         0.037347671
     7.934889758        25.376945180         1.624837951
     9.747103575        27.459730890         2.203080306
    10.192333623        25.718613712         0.060349775
     9.749294129        25.228560290         3.844071710
    11.811465774        25.576330044         2.228216930
    13.960086058        27.424922626         1.794743020
    13.579399111        25.148071068         0.073668247
    14.021421563        25.623340756         3.854167619
    15.738268058        25.268844011         1.834820337
    17.622535446        27.409513125         2.245267449
    17.596561737        25.210882385         3.890456626
    19.658968085        25.520480381         2.254510050
    17.987419112        25.640080011         0.091876827
    21.442548234        25.163637011         0.131753476
    23.581076325        25.184365528         1.910202076
    21.828242161        27.365865909         1.886568899
    21.907102096        25.555757969         3.927089456
    25.414178636        27.384951788         2.296462768
    27.504592778        25.507026400         2.352090284
    25.832417932        25.603159785         0.161130381
    29.267832071        25.082130919         0.204268665
    31.401587884        25.209396189         1.991713250
    29.635845100        27.352803032         1.961869370
    33.243061240        27.344042301         2.401738397
    35.295140691        25.468072433         2.394121143
    33.658484110        25.572106120         0.224312637
    37.104068677        25.064531235         0.262921827
    37.444856252        27.311815324         2.038098165
    39.203792672        25.149948368         2.045968597
    41.077654930        27.306730971         2.432610621
    41.429708210        25.521497251         0.297884301
    44.902987635        24.999607957         0.317439731
    43.120815698        25.436940548         2.430497669
    45.295174989        27.273017798         2.065053927
    47.028763573        25.098870174         2.084611232
    49.298646654        25.451958945         0.353756869
    48.888856636        27.250959528         2.483424608
    50.963467497        25.382968183         2.517244337
    53.109271355        27.200585321         2.021341458
    54.883228715        25.016972978         2.079613289
    56.775710680        27.242433459         1.984608606
    57.138325558        25.122023536         0.359839419
    58.834440026        25.526581604         2.343654106
    60.621306007        25.664876010         0.276358137
    61.003792337        27.289678832         2.292052450
    62.737380921        25.282845537         1.886687674
    64.587616492        27.362111309         1.865658179
    66.637348922        25.613719595         2.229257777
    64.996624169        25.266888490         0.239644977
    68.818827512        27.391991662         2.218511730
    70.557031906        25.350662986         1.820983004
    68.463644869        25.719787024         0.194374049
    72.419941395        27.415457907         1.777801899
    74.470769101        25.684744098         2.145049152
    72.813928132        25.327744286         0.154871230
    76.635662070        27.448701755         2.121159670
    76.286346982        25.792219501         0.109929749
     2.316573169        31.383052436         2.020500653
     0.145059251        29.652025744         2.107437987
     2.349282830        29.323341868         3.834850989
     1.943060286        29.702634613         0.064076197
     4.049332472        29.341332656         1.663605613
     5.876168235        31.433426643         1.586342222
     5.854356578        29.767870775         3.785371663
     7.907351368        29.722580921         2.075687450
    10.054015801        31.376560109         1.712869269
    10.141794419        29.565826403         3.783402492
    11.817880967        29.199831197         1.767693488
    13.678130498        31.338935895         2.227319863
    13.665143644        29.113397194         3.819722756
    14.084321749        29.574587134         0.050232300
    15.734356355        29.469536576         2.224319221
    17.527637528        29.056921764         0.095367886
    17.896432897        31.324621486         1.847982526
    19.657012233        29.155636435         1.888750615
    17.936175801        29.463826457         3.881142135
    21.494965056        31.310776401         2.253816152
    23.546496869        29.462731365         2.290611517
    21.881206621        29.496366317         0.112242118
    21.498720291        29.072331265         3.896426652
    25.689562535        31.291690522         1.904103897
    27.485425432        29.141087363         1.921576382
    25.345723831        29.036897234         0.134626903
    29.345440261        31.286606168         2.311609756
    31.390556881        29.388969134         2.342035009
    29.729804209        29.483772765         0.178052436
    33.540976549        31.262279494         1.936851522
    35.306954034        29.098300576         1.993476126
    33.184385693        28.974085918         0.219459724
    37.153747307        31.241863861         2.402451049
    37.560095026        29.460071857         0.268205457
    39.206687333        29.364173135         2.458131701
    41.361018703        31.220196694         2.042633509
    40.969691924        28.977996959         0.280612171
    45.380841287        29.397729866         0.300718032
    43.116512825        29.054653360         2.042949202
    44.999059064        31.189612355         2.471250131
    47.026103615        29.308714575         2.473628764
    49.176836219        31.168336292         2.095904271
    48.812500191        28.911822147         0.330145572
    50.959790496        28.999742346         2.112726617
    52.847734885        31.123672205         2.534222967
    53.219972553        29.408055014         0.349083995
    54.877204692        29.278364898         2.522867414
    56.705534726        29.503249749         0.314564116
    57.089820439        31.131572508         2.363217662
    58.815507383        29.088131870         1.927646430
    60.659953634        31.216442095         1.932113009
    61.049324561        29.137567427         0.263420996
    62.706556701        29.497148525         2.291136629
    64.520178731        29.599539575         0.208841517
    64.909627892        31.243037173         2.222675120
    66.642590604        29.201630276         1.819116980
    68.483125151        31.288952793         1.781215128
    70.564620610        29.558473646         2.176330838
    68.881414762        29.177303602         0.174222554
    72.718326108        31.317425171         2.110294848
    74.478201337        29.301361819         1.733401783
    72.357667081        29.634973605         0.110775867
    76.312790095        31.376403667         1.680865553
    76.710610302        29.219933947         0.085131635
    76.295109197        29.670172973         3.868358152
     1.939273757        35.303636254         1.650609085
     0.131709391        33.199418041         1.652412595
     1.960866358        33.576677044         3.824098691
     2.394869818        33.222414962         0.026806980
     4.031221287        33.612502179         2.055517513
     6.211111725        35.331482866         2.083073404
     6.237633072        33.222180299         3.791998079
     5.789484894        33.707931576         0.010314705
     7.918538839        33.239232437         1.612951035
     9.757117535        35.293702211         2.139923056
     9.738184892        33.072230992         3.802375297
    11.813186923        33.398724684         2.182775966
    13.949289757        35.260849467         1.786850708
    14.037303077        33.416871914         3.824380001
    13.590508348        33.001754035         0.056574593
    15.727080587        33.079192645         1.822067611
    17.594136481        35.246143954         2.206727961
    17.585843670        33.027254022         3.848510159
    19.644885953        33.378778376         2.228754545
    17.959176615        33.437443989         0.080346237
    21.427057890        32.964208043         0.090723143
    21.793115067        35.217436914         1.838046027
    23.553224998        33.043445731         1.848763943
    21.860318127        33.357580534         3.857293287
    25.400018271        35.210944586         2.255253959
    27.473612089        33.349367348         2.268316126
    25.803080159        33.396299839         0.109101134
    29.636314504        35.166436940         1.897755665
    31.382968177        33.001597594         1.930106330
    29.267597369        32.905542430         0.144410557
    33.224441533        35.163464549         2.348351985
    33.637047977        33.395439410         0.200141845
    35.318532676        33.293987010         2.378767861
    37.474976366        35.129203831         1.987015370
    37.091707695        32.889663604         0.231062517
    39.243379108        32.962174301         2.019878645
    41.465304708        33.347411828         0.236826874
    41.084461293        35.126074999         2.369619031
    43.126057381        33.263559112         2.410424628
    45.264037832        35.134522847         2.027036425
    44.887027886        32.837490318         0.294452942
    49.247872747        33.280845912         0.304216592
    47.003650439        32.919856839         2.040945648
    48.873131589        35.066627177         2.418892063
    50.969413286        33.189405776         2.437317877
    52.772395483        32.693564014         0.326257241
    53.158324112        35.013671684         2.021541501
    54.887922759        32.814102294         2.045099661
    56.752553397        35.077343429         1.977432072
    57.163203990        32.953022466         0.305801618
    58.787890759        33.351557531         2.318176785
    60.639534543        33.430482336         0.277735619
    60.993465441        35.130064260         2.292996402
    62.737067985        33.084746323         1.872878472
    64.568918551        35.172772827         1.841868719
    66.625066174        33.459345818         2.194525353
    64.939122134        33.051424254         0.233083261
    70.562586524        33.163045361         1.768853111
    68.807483573        35.216107160         2.184035610
    68.449406270        33.563301284         0.164614563
    74.458095183        33.526068175         2.114086283
    72.398818198        35.228074945         1.751974503
    72.814162834        33.128158876         0.104941182
    76.647788350        35.274225227         2.093641288
    76.251767527        33.639019036         0.080906982
    76.678847272        33.179784616         3.842883957
     2.347616445        37.119845418         3.786590673
     0.141136595        37.476845229         2.058777585
     4.020378046        37.180544772         1.615407810
     5.844679025        37.584477074         3.778026343
     7.919712350        37.531286918         2.040439290
    10.116055412        37.389707238         3.761679098
     9.657447340        36.923198282        31.235927006
    11.808727582        37.012370014         1.740837747
    13.642455766        36.959492742         3.801906447
    14.047708208        37.385013989         0.014856176
    15.714876073        37.300222623         2.208375188
    17.511208375        36.894491242         0.060134729
    19.654117573        36.991641498         1.795071215
    17.943999207        37.315475682         3.823067221
    23.540707548        37.259469577         2.216142474
    21.881363089        37.350675050         0.085943059
    21.495356226        36.913029576         3.854167619
    27.463598129        36.934696742         1.870190398
    25.357146005        36.869225918         0.107624881
    31.383828752        37.229432783         2.310406374
    29.719242610        37.284578459         0.132217950
    35.311100440        36.903564857         1.921657649
    33.167252433        36.797732091         0.177452932
    37.545856426        37.295216491         0.189354539
    37.146940943        39.054324457         2.353509337
    39.202775630        37.159425151         2.366965339
    41.001298485        36.805554173         0.229503434
    41.345763061        39.053855132         1.994138768
    45.385691799        37.244138297         0.253259449
    43.128952041        36.887920693         2.007166553
    44.999763170        39.030388887         2.400172437
    48.838708602        36.780132407         0.291666722
    47.030484722        37.154653681         2.446882422
    49.201871119        39.004967121         2.024773441
    50.973794393        36.796167674         2.075724958
    52.843275544        38.935741697         2.499024818
    53.220520191        37.223957326         0.296760623
    54.865860753        37.118515664         2.475747967
    56.713514600        37.311799304         0.280295541
    57.085361098        38.982674188         2.345388851
    58.813003893        36.956911455         1.913771589
    61.046899305        36.972633839         0.246176998
    62.727992834        37.343713397         2.237003183
    60.675052808        39.062772305         1.882474274
    64.522212816        37.410905080         0.195214854
    66.636879517        37.040920613         1.795496306
    64.927465258        39.087411863         2.200139053
    70.528867643        37.365458785         2.121209681
    68.889316402        37.027701294         0.131467790
    74.455122289        37.109598490         1.724312340
    72.381372002        37.481460257         0.107146029
    76.307000775        37.469101368         3.844478047
    76.679629613        37.090356169         0.067902952
     2.330342364        39.213816704         2.013943001
     1.954412048        41.395786410         3.788966181
     0.130864463        41.046061134         1.680265424
     5.830510836        39.226566697         1.572486135
     4.017639853        41.433332402         2.012511445
     6.231507345        41.002022814         3.749082656
    10.060743930        39.186282976         1.677364804
     7.900545005        41.038708378         1.531392976
     9.694764987        40.868030554         3.755740329
    13.681651031        39.185422547         2.149109395
    11.800747707        41.240830970         2.159295947
    14.033313140        41.230975147         3.782589818
    15.721995373        40.909800470         1.760138748
    17.567693368        40.859739147         3.819972809
    17.882116064        39.149988517         1.789507526
    19.615861116        41.196166883         2.186579904
    17.971850533        41.247088636         0.020813418
    21.503883739        39.151474712         2.205687114
    23.541489889        40.867404787         1.852127162
    21.847487740        41.198591729         3.833538209
    25.686276704        39.098128115         1.849345317
    27.446543104        41.124751277         2.245676912
    25.777497621        41.229801835         0.089650414
    25.375218073        40.807174758         3.856418100
    29.314459573        39.069264633         2.275592682
    31.375535941        40.819533647         1.909980153
    29.267597369        40.718081246         0.132121680
    29.685758432        41.148843289         3.902865528
    33.541133017        39.050960962         1.915865786
    35.273939260        41.116929195         2.290298950
    33.603407330        41.203050315         0.156015537
    37.080285522        40.701811316         0.193948959
    39.185016497        40.811242240         1.959868942
    41.467495262        41.185763515         0.214067009
    44.924971407        40.667394157         0.244030914
    43.107750610        41.093697612         2.382771842
    47.035726405        40.778702380         2.023720091
    49.295986696        41.118024287         0.276487852
    50.996012867        41.023611760         2.424258836
    52.780922996        40.552878880         0.302363383
    54.889878611        40.655661034         2.002343647
    57.157101733        40.794737648         0.255633707
    58.793993016        41.199530379         2.242123027
    60.633432287        41.307005782         0.220550582
    62.731669835        40.926070400         1.856725019
    66.639852412        41.273527272         2.152925835
    64.953751903        40.899709985         0.172903522
    68.477179362        39.118543748         1.765055424
    70.568532313        40.995999811         1.708633988
    68.448780398        41.374432127         0.113486134
    68.838542496        40.945469163         3.912492586
    72.729200643        39.153117349         2.102643212
    74.458408119        41.346037970         2.087993205
    72.811502876        40.980590310         0.065610900
    72.388726004        41.358553301         3.853042378
    76.330158057        39.181667948         1.689748701
    76.636287943        41.027444580         3.831944118
     1.933836490        43.136590705         1.626041333
     0.128191987        45.319342619         2.000883960
     2.283159401        44.980568258         3.780089284
     1.930636717        45.377226024        31.225893611
     6.191146393        43.136981809         2.038432611
     4.035234694        44.961169495         1.586773564
     5.821912913        45.403977543         3.722608246
     9.708299480        43.089892877         2.109241497
     7.894442748        45.327086480         1.991113121
    10.101582111        45.214135619         3.708323943
    11.784475022        44.853146546         1.678743224
    13.957739036        43.081757912         1.755325219
    13.604042841        44.747157338         3.750020356
    15.683895384        45.109867269         2.166578754
    17.576064413        43.051251793         2.157373661
    19.623606288        44.791664984         1.758063304
    17.919746648        45.120035976         3.786809470
    21.781067022        43.033886771         1.820832972
    23.537734654        45.086009920         2.178415659
    21.862899851        45.168454662         0.033869427
    21.478144733        44.742464089         3.813377649
    25.387109650        43.018007945         2.213591928
    27.452332424        44.756700278         1.814050272
    25.336179276        44.632094516         0.058385293
    25.726097842        45.057615763         3.833944546
    29.598058048        42.966225764         1.871872007
    31.339861209        45.054330489         2.275595807
    29.726127208        45.109397945         0.115061471
    29.270492030        44.672925783         3.885330530
    33.202066591        42.978271770         2.296525281
    35.271357536        44.728540784         1.871359398
    33.145425130        44.643827638         0.136184423
    33.588386390        45.034071297         3.901802801
    37.427175354        42.982808577         1.953626983
    37.552193385        45.112370336         0.170329222
    39.199880969        45.039781417         2.357125735
    41.039398474        42.952850004         2.330982647
    40.991988632        44.612382870         0.195451467
    45.274208260        42.948000314         1.992166471
    43.115104612        44.698738652         1.955977486
    45.372235540        45.076701643         0.201283339
    48.916082090        42.914443583         2.381321532
    47.031267063        44.986904144         2.406514418
    48.861631182        44.621456485         0.256100994
    53.140173810        42.883077035         1.983258317
    50.975202606        44.666902780         2.037576178
    53.223336618        45.092345806         0.275517332
    54.906229530        44.969617344         2.426328028
    56.728379072        45.205374888         0.249637738
    56.794486855        42.929853084         1.916559685
    58.820201427        44.823970181         1.860466444
    60.957477772        42.976550912         2.233986913
    62.736833283        45.142485350         2.204649392
    61.052453924        44.796280012         0.216072438
    64.599273367        42.998687403         1.821383090
    66.634454261        44.875674142         1.742122397
    64.524872774        45.253871795         0.154025112
    68.798095485        43.027238002         2.129020725
    70.525503579        45.213900957         2.117349481
    68.861621544        44.858074458         0.098027829
    68.444086354        45.230796653         3.891613123
    72.424478970        43.065409761         1.692418022
    74.470143229        44.935591288         1.672645045
    72.718873746        44.876456350         3.856230560
    72.364004040        45.327555805         0.072011331
    76.637696156        43.097949621         2.045102787
    76.320769970        45.279137119         3.805157142
     2.321830498        47.015717489         1.975559797
     0.120628318        48.854454248         1.638056402
     1.946072297        49.234450980         3.743862790
     5.840986377        47.048335570         1.505159244
     4.010074620        49.235467850         1.951292109
     6.198328280        48.813857644         3.706010949
    10.011065301        46.988027320         1.637331247
     7.893582173        48.844911308         1.532918302
     9.680604622        48.679943604         3.711887205
    13.622271377        46.979501251         2.131271206
    11.768828210        49.024115201         2.103752824
    13.976436977        49.031467958         3.743081373
    13.535979207        48.622060199        31.226893825
    15.681939533        48.737670567         1.734095681
    17.536086807        48.660623062         3.770462226
    17.830168647        46.954470589         1.755081417
    19.600683708        49.003386685         2.132005739
    21.439810042        46.938748205         2.177418571
    23.504798114        48.666254961         1.778395776
    21.795853259        48.991731783         3.803281741
    21.369712323        48.583731998         0.002389923
    25.690657812        46.918097909         1.818013619
    27.430192185        48.956375973         2.225403828
    25.783521643        49.038977157         0.053467054
    25.363874134        48.611500389         3.837851631
    29.300377441        46.908163865         2.261458410
    31.352848063        48.638955896         1.883983971
    29.219874591        48.549080176         0.098211619
    29.629821077        48.972567682         3.903615689
    33.515550478        46.882116333         1.878001442
    35.243506210        48.946129046         2.273517238
    33.598869755        49.034283908         0.120022844
    33.197998420        48.602661436         3.899177240
    37.112126786        46.900107121         2.315970063
    37.068941583        48.530385401         0.140488156
    39.177036623        48.619166029         1.937445399
    41.341460188        46.886731361         1.934891728
    41.435653999        48.996346811         0.178211220
    44.976449420        46.854347943         2.370131640
    44.898293591        48.486425301         0.214503977
    43.098831927        48.917109123         2.344291742
    49.192717733        46.816567288         2.024979736
    47.015229080        48.585765740         1.981145366
    49.288710928        48.951135178         0.261300543
    52.831775136        46.795447667         2.463076508
    50.966753328        48.874869881         2.409599452
    52.821370006        48.404215222         0.279023707
    54.906542466        48.526709022         1.996051677
    57.101007910        46.839564208         2.297162918
    57.164142799        48.652175214         0.215258201
    58.835613537        49.032406608         2.210088054
    60.655024888        49.110392763         0.179913771
    60.692655472        46.887982894         1.868677574
    62.749116031        48.775920547         1.810471382
    64.908454381        46.924355575         2.146399440
    66.627413196        49.119309936         2.137078698
    64.940608581        48.741659829         0.127345346
    68.452066228        46.964091750         1.705470812
    70.533639921        48.799230351         1.707949467
    68.430551861        49.212470930         0.076158780
    68.830406153        48.778892938         3.861356655
    72.716526724        46.963387762         2.071455295
    74.440023115        49.152475563         2.026751989
    72.365725190        49.168119726         3.837945401
    72.765423013        48.761919021         0.028801219
    76.309034860        47.000464430         1.609047076
    76.639260837        48.818238009         3.790435245
     1.962775269        50.944436273         1.590983839
     2.389150908        52.729200667         3.727202979
     0.130117328        53.083462750         2.015396437
     6.209680042        50.946939339         2.002609329
     4.039529744        52.744219064         1.521368959
     5.792027501        53.214951944         3.689444907
     9.746321234        50.905873409         2.050553952
    10.136396268        53.023232720         3.700728569
     7.915174774        53.163247984         1.999380513
    11.771566402        52.650432304         1.634715062
    13.916274983        50.878261461         1.701335553
    13.607798076        52.594973744         3.712387312
    15.703845070        52.901755790         2.122259905
    17.559635260        50.859879569         2.154319883
    17.926865948        52.947123865         3.750958056
    19.604751879        52.591140924         1.718664257
    21.430421955        52.540062730         3.787059524
    21.762838485        50.832189399         1.753778013
    23.496114133        52.873830959         2.173023882
    21.848191847        52.977864646        31.253962111
    25.355503089        50.822177135         2.218655511
    27.419630586        52.564545846         1.802547813
    25.712328647        52.931949026         3.817128451
    25.319280718        52.475217672         0.045649446
    29.607915540        50.804108126         1.829034725
    31.311149308        52.865539552         2.249390206
    29.234113191        52.485542820         3.842571390
    29.673475684        52.955884596         0.052238041
    33.174762903        50.791279912         2.243795260
    35.237325719        52.523323475         1.891713749
    33.142295768        52.471619515         0.095227856
    33.536830143        52.853728208         3.877610130
    37.415440245        50.782910284         1.892204478
    37.483347411        52.913488913         0.147314302
    39.160998640        52.828462884         2.320458522
    41.017805872        50.778608139         2.340919146
    40.951306920        52.428754507         0.174100966
    45.253163298        50.747632696         1.971093217
    43.094137883        52.537716106         1.923304877
    45.380528351        52.896984321         0.213550336
    48.887370189        50.744425642         2.400791319
    48.818602448        52.416786722         0.260096536
    47.006310397        52.791933763         2.382824979
    50.976454351        52.488671653         2.004831679
    53.136340341        50.709226274         1.952489240
    53.240078707        52.839726682         0.260830443
    54.923597491        52.765495126         2.446304173
    56.784864065        50.776105073         1.872815959
    56.676901059        53.052800189         0.205147290
    58.830137153        52.671551924         1.786056788
    60.995812463        50.830312100         2.175890119
    62.744969625        53.023623824         2.210319354
    61.105966022        52.618831093         0.128096132
    64.567119168        50.857611165         1.742213041
    66.631246665        52.673272782         1.680459216
    64.487946297        53.108571632         0.100247366
    68.838464261        50.850180187         2.104156035
    70.547096180        53.042083937         2.151091068
    68.408255153        53.046542524         3.849947967
    68.913256025        52.644252859         0.068368990
    72.387865429        50.868249196         1.675423764
    74.432434411        52.697990561         1.607074779
    72.814788707        52.684380138         3.813627703
    72.281075934        53.111387582         0.021567110
    76.615399448        50.917528311         2.004131529
    76.217501008        53.094570106         3.762960622
    76.730559988        52.672959899        31.215610163
     2.312896168        54.770607564         1.992885375
     0.080186002        56.603008436         2.136772382
     5.805374232        54.784139765         1.430821478
     5.803793904        56.514306029         3.688788517
    10.045722990        54.788833014         1.554185348
     7.891235151        56.508517688         1.655610154
     9.752736427        56.387510084         3.681380684
    13.681572797        54.772719526         2.087399328
    13.946864502        56.820305867         3.705041991
    11.773913424        56.805052808         1.979054294
    15.686868279        56.539180249         1.654469285
    17.474360132        56.434364353         3.744300383
    17.850274801        54.777647437         1.692502415
    19.580108150        56.808807407         2.110457382
    21.418608611        54.742526290         2.161321380
    23.457231804        56.483487027         1.704573745
    21.787638683        56.821166296         3.778057599
    25.655608952        54.756606037         1.768524916
    25.243550146        56.394158853         3.830475054
    27.380670023        56.805209249         2.220459021
    29.235364936        54.745029356         2.217692805
    31.284940897        56.487398068         1.772600787
    29.607054965        56.813657098         3.842883957
    33.440289310        54.724457281         1.833929522
    33.083620221        56.388605175         3.879641814
    35.183813621        56.743101920         2.249390206
    37.067063966        54.681279390         2.291930549
    36.945253531        56.344957959         0.131605007
    39.092074432        56.435459445         1.816085082
    37.398306985        56.761249150         3.889456412
    41.294441516        54.674083075         1.883812060
    40.916414528        56.347773908         3.914399244
    44.928570173        54.687849939         2.355122182
    44.842982109        56.345661946         0.180174764
    43.024978972        56.723312053         2.268000434
    49.150549574        54.642951189         1.975869238
    46.962499322        56.433112820         1.957293392
    49.181295560        56.823747583         0.240763028
    52.949908570        56.380391989         0.235214029
    52.984566260        54.599851519         2.266400092
    50.929905084        56.657997671         2.256066633
    54.857646177        56.523692527         2.270169647
    56.551570092        56.460568327         0.229892579
    57.031066659        54.672596879         2.323749851
    60.676148085        54.696219566         1.750721110
    62.714301873        56.575709371         2.295350030
    64.919250682        54.737598379         2.202867761
    64.342509175        56.464479368         0.142079746
    66.611844617        56.864031304         1.839468206
    64.798222588        56.958600273         3.931684189
    68.455743229        54.727195010         1.680918689
    70.480597227        56.585956298         2.248043043
    72.714649107        54.744638252         2.082463898
    72.094565930        56.483956352         0.056362048
    76.236590119        54.762081495         1.566403585
    76.075271483        56.578055995         3.782464791
     2.175869208        56.990749029         3.727640572
     1.781835530        58.686654574         1.727547406
     3.970347363        56.917377902         1.653950424
     6.033582991        58.659981276         2.101980570
     9.550657845        58.644337112         2.047062581
    13.864484034        58.663344771         1.541273213
    11.745436225        60.363787124         1.981064098
    13.869960418        60.349394493         3.740080731
    17.343161610        58.669837099         2.023523174
    19.544511652        60.355339275         2.064606956
    17.935393460        56.938106418        31.211109201
    21.647365009        58.658025755         1.611006870
    21.679910379        60.318653712         3.799562196
    25.127685500        58.628614728         2.079941484
    27.345229993        60.314586230         2.136766131
    29.439399370        58.619306450         1.657301140
    29.473822357        60.287678268         3.853917565
    32.969867895        58.626268103         2.161543302
    33.433561181        60.241215103         0.068241150
    35.158231082        60.315837763         2.201473713
    33.535656632        56.891017486         0.083240919
    37.246689373        58.587783461         1.684710124
    41.375961409        56.854410144         0.140193093
    40.754939424        58.565725190         2.210660052
    41.234435991        60.208675243         0.133556362
    45.059690462        58.577771196         1.789057430
    42.967398702        60.239259582         2.236037351
    48.648130426        58.575581013         2.285494798
    49.095003390        60.196394574         0.215829886
    52.891154790        58.608042653         1.946344176
    50.814666311        60.290181334         2.338674916
    56.570502735        58.658495080         1.992375891
    58.742123833        56.858712289         1.973031131
    60.908737951        56.951482178         0.196742993
    60.768777214        58.643789566         2.357788377
    64.434747135        58.633933743         1.897933828
    68.731283596        56.977060386         0.097546164
    68.632552210        58.628301844         2.273907947
    68.223857469        60.401958883         0.148255441
    74.387997463        56.921992930         1.695415538
    72.220131600        58.655835572         1.819245133
    72.626635787        56.970880941         3.834225856
    76.409096226        58.665534954         2.166188045
    76.019960001        60.461172042         0.062204234
    76.593572145        56.977764373        31.253787264
     1.714256947        60.497935826         3.792216876
     2.097423914        62.576732274         2.184792022
     0.037853786        60.848521530         1.744869859
     2.217200263        60.937458600         0.021879677
     3.955514185        60.508964961         2.159433476
     5.722313128        62.580095769         1.680962448
     6.082745276        60.874256179         3.731110064
     7.881768830        60.747538455         1.488502558
     9.934865324        62.522759909         1.555219945
     9.505203854        60.774759299         3.708542740
    13.450782313        62.532224628         1.987690515
    15.641023118        60.719848285         1.522344167
    17.676986353        62.511026787         1.633130349
    17.260937610        60.719222519         3.758772227
    21.271606809        62.522447026         2.035428844
    23.444166716        60.734944903         1.602733226
    25.519559918        62.504534459         1.717576525
    25.096078939        60.699354431         3.823442301
    31.253803740        60.670882054         1.648355478
    29.069117553        62.496164831         2.134321859
    33.325363473        62.474419444         1.747192231
    32.892572641        60.701701056         3.887455984
    36.904962989        62.475827419         2.168560427
    36.741766735        60.704360563         0.120998990
    39.060467870        60.646711821         1.702463919
    41.134218157        62.444695534         1.835529864
    44.581915044        60.668300767         0.167003511
    44.726335123        62.419586651         2.233811876
    46.915950055        60.589923507         1.796762202
    48.948862162        62.441410259         1.909042453
    52.440917762        60.723133560         0.278201031
    52.588858373        62.490845816         2.357494564
    54.780820328        60.844297606         2.043752498
    56.842522569        62.551623391         2.507961103
    56.923025419        60.976647229         0.310553884
    60.368922922        60.393119930         0.257333758
    58.721078870        60.531336115         2.438830701
    60.497696189        62.543801309         2.045596643
    62.659616263        60.774915741         1.985074330
    66.585557972        60.506227233         2.358647936
    64.672343981        62.534414811         2.372285226
    64.767320133        60.893263838         0.212287254
    70.457439945        60.814104371         1.899365384
    68.335106305        62.534493032         1.943174749
    74.373602396        60.531648998         2.241294725
    72.516169291        62.567345775         2.305302157
    72.583685287        60.933860442         0.105969840
    76.098585233        62.602075818         1.829891158
    76.461825984        60.868624280         3.821691927
     1.781984175        66.508814552         1.849257798
     2.124266021        64.783497979         3.842790187
     1.713771896        64.367754333         0.067559442
     0.043670879        64.440734356         2.222722005
     3.953120222        64.740476529         1.770018985
     6.035100732        66.470877455         2.183569886
     5.656948569        64.358680719         3.796155218
     6.100919049        64.838487213        31.254129516
     9.949416860        64.176895538         3.781870914
     7.845624693        64.250970653         2.026223751
     9.530316988        66.437711829         2.110657425
    11.733153478        64.606327827         1.651015422
    13.797124506        66.445533910         1.701329302
    13.476364851        64.603433657         3.817409761
    15.627723328        64.258166968         2.008938807
    17.391666728        66.430046188         2.084267409
    17.708671148        64.239002868         3.806501179
    17.323681328        64.649583939         0.021129610
    19.542790502        64.579967411         1.694090254
    21.290695920        64.589197468         3.838007914
    23.476477383        64.240645505         2.073527613
    21.632109367        66.439510907         1.708065117
    21.668409972        64.171263640         0.042568787
    25.197783220        66.444360598         2.122413063
    27.362519721        64.575665266         1.773947950
    25.135587140        64.628151435         0.069825551
    25.531216793        64.228521278         3.869733446
    31.282828577        64.206697670         2.126685851
    29.444093414        66.398053874         1.793270830
    29.439868774        64.144433899         0.100559933
    29.103227605        64.585755752         3.890612909
    33.021815312        66.380297749         2.197919828
    35.198208688        64.536163754         1.818866927
    32.973231959        64.571597784         0.136418223
    37.267812569        64.125191578         0.159404387
    37.288622830        66.389684247         1.829040977
    39.111789415        64.185421608         2.188186498
    40.867440005        66.343221081         2.249824674
    40.786702453        64.541013444         0.199905857
    45.125015904        64.066838848         0.236338957
    43.030377122        64.487041080         1.887822292
    45.098338088        66.336572311         1.892820235
    46.938168529        64.156167022         2.283050526
    48.684665734        66.345802368         2.334992879
    48.647035150        64.527324801         0.285115634
    52.914937945        64.163206895         0.322922153
    50.849636937        64.518094745         1.996670559
    52.886695448        66.393829950         2.010007785
    56.450961088        64.269508986         0.338269184
    54.782306775        64.385275796         2.496711823
    56.527630469        66.469156597         2.067132496
    58.699173333        64.699332379         2.093625659
    60.763222596        66.446394339         2.474091363
    62.645612366        64.433694483         2.439490217
    60.851392384        64.788660553         0.314214042
    64.285085374        64.319413868         0.264642508
    64.375523950        66.448349860         2.023423153
    66.547145048        64.688459685         1.990259814
    70.467610373        64.396304932         2.355403492
    68.587254688        66.469156597         2.377423824
    68.705153419        64.796717297         0.226541238
    72.168184183        66.494421921         1.971777738
    74.354043880        64.748220390         1.909505052
    72.089871886        64.357663848         0.189826515
    76.417076100        66.484957202         2.297072273
    76.507671144        64.857651314         0.108645412
    76.054852392        64.413435291         3.888987562
     2.086510262        70.456462773         2.314407229
     2.171855801        68.765250476         0.127455682
     0.044747771        68.670603287         1.924348850
     1.754046791        68.355686275         3.912086249
     3.938748625        68.364290565         2.250477938
     5.694227100        70.425409108         1.795477552
     5.640362948        68.258536020         0.071688137
     6.043761243        68.700405418         3.825880322
     7.868938444        68.548109487         1.633961776
     9.872512776        70.360564050         1.671551062
     9.547919652        68.569385549         3.838664305
     9.970618290        68.053284595         0.019369234
    11.712734387        68.168816742         2.060215393
    13.492089898        70.347657615         2.116355518
    13.799862699        68.175387291         3.836101257
    15.666996827        68.465742966         1.705367665
    17.721032130        70.331700569         1.734311352
    17.767581397        68.077845931         0.053964035
    19.586758045        68.169990054         2.104056014
    21.218798817        68.547170837         0.091853072
    21.360715405        70.351646877         2.170510844
    23.491654791        68.492572706         1.734339483
    21.657378969        68.174526862         3.902584218
    25.584337721        70.315665301         1.785616069
    27.409147222        68.115548365         2.164615834
    25.592865234        68.073700228         0.141893769
    29.188659201        70.304088620         2.197766671
    31.336262442        68.444388682         1.817275962
    29.084999068        68.501020554         0.149809523
    33.410247431        70.282343233         1.837645941
    35.225512376        68.108195609         2.215060992
    33.414941474        68.063766184         0.179101410
    37.033423319        70.301038008         2.239925683
    36.867410639        68.498908592         0.212294443
    39.159590427        68.389321227         1.862085540
    41.222544413        70.272096306         1.911139776
    41.271831872        68.003927259         0.259649878
    43.063704833        68.080114335         2.293618410
    44.804334483        70.253401530         2.327181834
    44.720780504        68.421704645         0.286519997
    46.958744087        68.404730728         1.935151159
    49.007772410        70.260676066         2.006528917
    49.047593548        68.004944129         0.335799906
    52.513597205        68.511189261         0.358907970
    50.869038984        68.107413400         2.370678632
    52.625941319        70.328884619         2.476845077
    54.770649900        68.644477534         2.114351965
    56.798398558        70.378711280         2.604275441
    56.874598534        68.779252002         0.404820910
    58.676250753        68.310161759         2.515631493
    60.418836254        68.230532967         0.355360337
    60.461082648        70.374409135         2.112789131
    62.626288553        68.600673876         2.122188015
    64.732740677        68.706115538         0.324553752
    64.609287327        70.394199002         2.463667260
    66.535957577        68.352166339         2.415694505
    68.265869160        70.424783342         2.056267674
    70.430058023        68.666222921         2.003884601
    68.213530573        68.258301357         0.256002536
    72.457963149        70.421889171         2.389438893
    74.360067903        68.367341177         2.336746379
    72.552000492        68.747729013         0.215732052
    76.105626299        70.429867695         1.967839396
    76.037249728        68.262134178         0.196251326
     1.714327358        74.371023588         1.947153724
     1.583653004        72.271811507         0.219824802
     0.026989578        72.311469461         2.434570415
     3.927240394        72.608943230         1.837608433
     6.009885894        74.347244459         2.290511496
     6.185967298        72.751383339         0.122563387
     7.851414014        72.099178162         2.175661945
     9.580699725        74.280052777         2.221659278
     9.486740616        72.550434059         0.103476494
     9.952389754        72.001793245         3.885393043
    11.760926570        72.411826770         1.758119566
    13.843830242        74.242428564         1.765464887
    13.876219143        72.028622985         0.083486284
    15.686868279        72.083064674         2.126479557
    17.477489494        74.262687755         2.208428325
    17.366866530        72.420431060         0.138813110
    19.609524157        72.385466355         1.782787339
    21.710578132        74.240942368         1.832066623
    23.539925208        72.042624511         2.194406577
    21.731701328        71.996787112         0.146942035
    25.207718946        72.433963262         0.200671021
    25.302616863        74.226549738         2.255041414
    27.456635298        72.331806874         1.898230767
    29.582958874        74.206838092         1.867317909
    31.383985220        72.030891389         2.245726923
    29.563791529        71.976293258         0.201876278
    33.147850386        74.189238408         2.296422134
    35.279963283        72.330477120         1.922339045
    33.047241382        72.355429561         0.250275687
    37.369908020        71.951027934         0.282056230
    37.374758532        74.188143316         1.939867792
    39.199646267        72.011961951         2.335793050
    40.844204488        72.350345208         0.324831936
    40.937381257        74.176566635         2.383331337
    43.081620433        72.324297675         1.986040162
    45.167966404        74.175471544         1.996386123
    45.174225129        71.945552477         0.346761624
    48.633735359        72.350188766         0.378984137
    46.980023752        71.996943554         2.395180745
    48.711969421        74.175315102         2.425427836
    50.873263623        72.326644300         2.036735373
    52.980811025        71.941328553         0.419336513
    52.967276532        74.187361108         2.075018557
    54.785592606        72.182952658         2.677337934
    56.376560494        72.081578478         0.418733259
    56.501422058        74.273873332         2.117846462
    58.679301881        72.550590501         2.107884957
    60.768386044        74.272700020         2.574375300
    60.893717012        72.603702436         0.404614616
    62.581773372        72.229572265         2.587162408
    64.177435304        72.191322285         0.374620704
    66.478377307        72.568424847         2.044549544
    64.291735269        74.308368713         2.124238453
    68.697251779        72.672380314         0.318668119
    70.412064188        72.272906598         2.501756652
    68.595625732        74.307038959         2.500590777
    74.307885784        72.605266852         1.944821976
    72.109430402        74.352015929         2.044074442
    71.987307031        72.214944972         0.309669320
    76.393371180        74.356161632         2.433685851
    76.519562722        72.718452375         0.239861898
     1.881756075        76.658356735         0.200451911
     0.047740146        76.548691149         2.264312145
     3.971982455        76.299166741         1.941690057
     6.063984748        76.099781877         0.172448113
    10.158067104         0.004574095         1.845663280
     7.939740270        76.404530182         1.949666762
     9.949103923        75.955464468         0.154591170
    13.702852462        78.197893704         2.368412523
    11.845106421        75.976975193         2.177903050
    13.501790922        76.378482650         0.164348569
    15.758452446        76.308083914         1.877266910
    17.837913819        75.933171535         0.199387309
    18.037567146        78.190389668         1.945340837
    19.690887582        75.996139294         2.246436449
    21.342095699        76.343596165         0.197239349
    21.614584937        78.176993180         2.381602842
    23.619723951        76.290797113         1.870868668
    25.879123667        78.157615145         1.982389381
    27.539876340        75.927617857         2.323709217
    25.748863954        75.872315739         0.242547472
    29.393006571        78.151592142         2.464476808
    29.150168042        76.324823169         0.264975079
    31.441643724        76.248636093         1.922485951
    33.676556178        78.151748584         2.080632257
    33.577746558        75.875522793         0.305359024
    35.343567576        75.945139320         2.386700807
    37.214926343        78.127421910         2.520516912
    37.017228868        76.293378400         0.332192885
    41.497850078        78.125075285         2.110157318
    39.249324897        76.226734264         2.002340521
    41.367825067        75.850101027         0.357657703
    44.993660913        78.081662731         2.607516759
    44.800188077        76.257631487         0.377590089
    43.165252646        75.922064179         2.416413409
    49.242709299        78.090267021         2.175330625
    49.156025958        75.838602567         0.407718404
    47.032909978        76.203893785         2.051451019
    52.748142924        78.080254757         2.695138614
    52.664041307        76.309961214         0.459104388
    50.930765659        75.893200698         2.467358674
    54.823379658        76.427839986         2.416572818
    56.718286878        76.613692648         0.457275872
    57.030675488        78.194535371         2.551417267
    58.729136979        76.172214354         2.173167662
    60.653538441        78.220582903         2.104446722
    60.955052516        76.152580929         0.423756207
    62.645612366        76.494093018         2.455099803
    64.866051519         0.001564416         2.373807426
    64.420039131        76.563865987         0.365446868
    66.558880157        76.176594720         1.993513634
    70.472930289        76.522721837         2.387769786
    68.839246602        76.144680626         0.330739449
    72.273174294        76.627615954         0.301445687
    74.375714715        76.236277203         1.931850453
    76.632532708        76.216721999         0.242034237
     1.988068342         2.260088837         3.974755896
     0.130639931         2.181789798         6.057482350
     2.021333465         0.059833998         5.673837842
     2.376711692         1.888164493         7.776974910
     6.329159102         1.866677235         3.916368415
     4.079178767         1.928456036         5.591413973
     6.255650377         0.092754245         5.980028294
     5.877373039         2.316650310         7.722275717
     9.745225957         1.688670120         3.936435204
     7.977057918         2.248926726         6.000563933
    10.252182680         2.122435842         7.700771120
     9.867349328         0.013298556         6.097397132
    14.167719259         2.059225599         3.958533678
    11.916612354         1.721648017         5.656021534
    13.711536442         1.699910452         7.742029940
    15.815798013         2.024957059         6.146595149
    17.613694997         1.661339766         3.973005521
    19.740253275         1.707239742         5.703625460
    18.094208607         2.062119769         7.773974268
    22.008180504         2.019692798         4.010138459
    23.672923114         1.985510301         6.192417444
    25.449618666         1.625890092         4.036331558
    27.583139776         1.659751884         5.783830104
    29.808820612         2.022688655         4.072714335
    31.460576367         2.001553390         6.256149817
    33.237819558         1.625796227         4.111441364
    35.360622601         1.668223198         5.858314776
    37.617205891         1.972729019         4.153825424
    39.297517079         1.904762951         6.297314867
    41.040884921         1.596260046         4.159857963
    45.427938192         1.944413083         4.211368974
    43.167677902         1.649583177         5.878881672
    48.829711685         1.585919254         4.238093437
    47.084309757         1.906421232         6.429155549
    50.988658865         1.582563581         5.934237255
    53.212149147         1.997712748         4.238562287
    54.839574109         1.933258794         6.467257444
    56.704595917         2.142828009         4.225747048
    58.778111502         1.806306408         5.834465928
    60.990961951         1.805000120         4.188707880
    62.688875803         2.115051797         6.191385973
    60.905217419        78.197585983         6.191511000
    64.579323682         2.184621392         4.148355504
    66.608167616         1.843805468         5.772233875
    68.821409236         1.854709449         4.113941898
    70.509230894         2.148741503         6.097678442
    72.379650853         2.244921820         4.075402410
    74.421325174         1.935214315         5.739414360
    72.370340999         0.021119621         5.741727354
    76.634410325         1.907727520         4.024516532
    76.559775030         0.056620843         6.056294596
    76.279853555         2.217090853         7.822984745
     2.370656376         5.828944926         3.961284266
     2.331351583         3.945458038         5.992155886
     0.167377864         5.853467153         5.663491881
     1.999928626         6.144651968         7.758533468
     5.915739024         6.235239497         3.934716087
     5.957367368         3.989950039         5.580505391
     4.063970065         6.144346907         5.960680408
     6.252215902         5.788230991         7.725651439
    10.156033018         3.948109724         5.659897362
     7.981595493         5.842093846         5.568377799
     9.847399643         5.675178443         7.718712455
    13.690335012         5.646299317         3.941967637
    13.772167841         3.918628298         6.046073661
    11.887822219         5.998214775         6.040822539
    14.037224843         5.946018024         7.736716304
    15.787320815         5.666237804         5.738195349
    17.678707502         5.601619586         7.755751623
    17.999075987         5.980818466         3.977068890
    17.962384212         3.889373712         5.747447327
    19.717330695         5.880578488         6.090426892
    21.564045733         5.612343660         3.993197338
    21.596121699         3.873221113         6.133842423
    23.644837085         5.630694264         5.817806117
    21.914612566         5.926353310         7.785945577
    25.789780368         5.962710346         4.038206959
    25.830618549         3.858484311         5.801552642
    27.551220279         5.925797943         6.142875604
    29.402238190         3.850654407         6.187635172
    29.403489935         5.589894286         4.053022626
    31.446259533         5.605108235         5.857970953
    33.591828689         5.919931381         4.080716046
    33.652929492         3.858906703         5.839466997
    35.352408025         5.893477101         6.211921613
    37.164934778         5.554976513         4.129320185
    37.246376436         3.805951210         6.236114285
    39.246821407         5.573921595         5.916671000
    41.419928952         3.796580356         5.924922764
    41.415156674         5.883105020         4.151918766
    45.040679585         3.792020082         6.342699568
    45.016661728         5.519902298         4.179674699
    43.168694944         5.858441997         6.309036122
    49.243726342         3.760434516         6.013941793
    49.227531891         5.822100605         4.221183572
    47.071322903         5.523656897         5.982841395
    52.855480057         3.743765660         6.421185095
    52.790858722         5.377204061         4.245407500
    51.004462146         5.805400460         6.344699996
    54.868990116         5.468519043         5.985873293
    57.094827419         5.598326490         4.222808920
    57.001494183         3.800976366         6.311161577
    58.763559966         5.995187630         6.242428134
    60.682172107         6.017879489         4.179487159
    60.650017908         3.849269899         5.861409187
    62.704131445         5.747282393         5.839717051
    64.925274705         5.721665075         4.124819223
    64.861748646         3.882724942         6.165442928
    66.638991837         6.025552951         6.135780337
    68.490400919         6.136853353         4.100032675
    68.514809946         3.912175080         5.783204970
    70.541228625         5.808146011         5.759856229
    72.742656901         5.784140042         4.061805753
    72.674358565         3.923376301         6.078143017
    74.456843438         6.096061196         6.024475295
    72.395062963         6.100246010         7.848896534
    76.338529102         6.157441072         4.001855438
    76.345178997         3.965138396         5.684152547
     2.014002933        10.068114312         3.949875577
     2.043497175         7.888569452         5.618919853
     0.140762636        10.032602061         5.975839898
     2.339879096         9.746704973         7.728652080
     6.267987889         7.924394586         5.982903908
     4.094442232         9.778462625         5.582849642
     5.910872865        10.160727760         7.692831923
     9.769478517         9.610444309         3.905959940
     9.844896153         7.871830197         6.012566499
     7.958751147        10.096273807         5.962118215
    10.185996664         9.983401167         7.690675212
    14.084399983         9.929507023         3.946156032
    11.873740087         9.626714239         5.672525062
    14.044578845         7.843436040         5.716690752
    13.714822273         9.533318582         7.729464754
    17.595544694         9.560695869         3.977287687
    15.787946687         9.838536213         6.094427748
    17.689269101         7.803199251         6.098428603
    19.698163350         9.557097711         5.739664413
    17.982725068         9.868181902         7.745811998
    21.896227561         9.898375138         3.994447605
    21.855624083         7.800758762         5.771264918
    23.600556606         9.838692654         6.132935979
    21.503336101         9.498353877         7.773630445
    25.437805323         9.493895290         4.023235009
    25.480286418         7.808283604         6.163942607
    27.540736914         9.526200488         5.809491840
    25.839067828         9.870450306         7.807262634
    29.747328639         9.874439568         4.038175702
    29.705316947         7.782220428         5.805428471
    31.444225448         9.826177323         6.202919689
    33.252527561         9.459399910         4.100095188
    33.276154248         7.745800815         6.236583135
    35.337621787         9.467456654         5.868254401
    37.539519467         9.840882837         4.138603420
    37.511981077         7.739496217         5.905887445
    39.250733110         9.775959559         6.295814546
    41.046361305         9.452751140         4.150543472
    41.117241366         7.744627503         6.288844306
    43.141156555         9.451499607         5.955210488
    45.334917893         9.808264756         4.183081677
    45.335230829         7.695669093         5.929236186
    48.897071212         9.412076315         4.205336435
    48.926878390         7.698774460         6.333635131
    47.062951858         9.744045465         6.333760157
    51.010564403         9.377033389         5.958023590
    53.177882628         7.658983530         5.932361854
    53.189148333         9.809203406         4.227247368
    54.874075330         9.746704973         6.377488255
    56.730256690         9.944290758         4.208587129
    56.772346615         7.694519247         5.868285657
    58.777094459         9.589481129         5.850313066
    60.939092768         7.737407722         6.190542043
    61.028044896         9.610522529         4.154700611
    62.723377024         9.914253964         6.158941538
    64.581983640         9.974562214         4.127351014
    64.600446878         7.765606326         5.802146519
    66.646189371         9.676462679         5.763919598
    68.839950709         9.643375273         4.059899096
    68.787846823         7.816442036         6.092833657
    70.546626775         9.986060675         6.058076227
    72.405155157        10.024467096         4.028673671
    72.436135846         7.841636961         5.704594417
    74.457782247         9.721987194         5.690372627
    72.743439242         9.709158980         7.808575415
    76.667894504         9.704622173         3.980725922
    76.638243794         7.886848594         6.009722141
     2.396442323        13.665411491         3.932965713
     2.332736326        11.789598065         5.917264877
     0.170337459        13.635452918         5.572191114
     2.003676037        14.004029410         7.720494086
     5.951789279        11.833010619         5.522993097
     6.270733904        13.648828678         7.696238901
     4.068836224        13.984317764         5.944114367
    10.117228923        11.828395591         5.649770197
     7.939896738        13.688486632         5.469731712
     9.801319780        13.544873211         7.682923555
    13.664517771        13.489571093         3.912680126
    13.741578322        11.736486130         6.066171708
    11.857936807        13.812935953         6.029695160
    14.041371249        13.814500369         7.719993979
    15.771830470        13.489414652         5.720941661
    17.631062958        13.449600256         7.721838124
    17.913879093        13.826702817         3.950563224
    17.944390378        11.738519871         5.723942302
    19.669294981        13.765534138         6.073860851
    21.515384146        13.440135537         3.982257499
    21.553014730        11.710125715         6.112431596
    23.586396241        13.461489820         5.752635936
    21.907336798        13.777345481         7.752375901
    25.795256753        13.788296396         4.017421266
    25.767014256        11.688927873         5.806741252
    27.512337950        13.725954404         6.160004265
    25.453686837        13.403293532         7.792040630
    29.340746217        13.417451500         4.042801691
    29.382444973        11.697845046         6.168724879
    31.422789315        13.428637076         5.824870127
    33.631258656        13.772886895         4.072995645
    33.591593987        11.673049047         5.859314990
    35.336604744        13.715159931         6.227643724
    37.161101308        13.371848763         4.110097326
    37.189422039        11.648565931         6.261150886
    39.233678084        13.392890163         5.896791751
    41.409523822        13.717741218         4.118536630
    41.396771670        11.643794461         5.933518352
    44.978170569        13.327888663         4.153169033
    45.007664810        11.625256127         6.292813905
    43.114478739        13.676988172         6.259087945
    49.231678296        13.667758116         4.184206918
    49.259842559        11.580904924         5.975683615
    47.066002987        13.344706139         5.947958938
    52.809869599        13.237700061         4.202273280
    52.855088887        11.563774565         6.390866114
    50.997264612        13.594856314         6.321538795
    54.868833648        13.273446974         5.926829422
    57.097878548        13.403137090         4.183644298
    57.028563169        11.604136507         6.240740273
    58.778267970        13.793067865         6.202263299
    60.617159602        13.842503422         4.164421439
    60.688900237        11.670467760         5.823463576
    62.710703106        13.527117086         5.805678524
    64.922301810        13.531653893         4.096688210
    64.880133651        11.712785222         6.121152210
    66.639461241        13.873087762         6.092458577
    68.497520218        13.957800907         4.053491476
    68.504952454        11.724596566         5.697780460
    70.549364968        13.612455998         5.660616266
    68.817419299        13.529541931         7.826610520
    72.771212334        13.590163065         4.009919662
    72.720438428        11.746967720         5.991655779
    74.477184294        13.899291736         5.992687250
    76.320769970        13.982049361         3.974068249
    76.338920272        11.773719239         5.640893300
    76.711392642        13.607528086         7.744655501
     2.014026404        15.715422678         5.598790550
     2.329176676        17.556114957         7.704834489
     6.246270113        15.767283080         5.937831774
     4.061317930        17.602030577         5.559282105
     9.823381785        15.710416546         5.991155672
    14.009686453        15.679832206         5.692435568
    11.844480548        17.436984652         5.640018113
    13.700505440        17.377693272         7.709397964
    17.586938947        17.383403392         3.936591488
    17.644440983        15.660198781         6.071297803
    15.752976061        17.709975305         6.046073661
    19.677431323        17.394119644         5.729099655
    17.964574766        17.714824996         7.729527267
    21.867124490        15.635089898         5.725317596
    21.552075922        17.366116591         7.750344217
    23.604937714        17.671647104         6.072079220
    21.890751177        17.731094926         3.962690817
    25.432485406        17.320513854         3.988540092
    25.469568352        15.628910454         6.137561968
    27.498803457        17.348360465         5.790644061
    25.785712197        17.679312745         7.779256647
    29.679812643        15.604896663         5.812336198
    31.426701018        17.650683925         6.172694478
    29.707116331        17.694722246         4.034831237
    29.366798160        17.351880402         7.799667260
    33.224832703        17.279291484         4.063556128
    33.280144185        15.569619074         6.208827202
    35.314308036        17.315898826         5.849500392
    37.495473690        15.570948828         5.858721113
    37.532008997        17.665936985         4.096281873
    41.096509339        15.556712639         6.245397519
    41.049255965        17.287113565         4.111753930
    39.247916683        17.618065844         6.275747757
    45.298304351        15.520339959         5.884789185
    43.138105426        17.279760808         5.886727099
    45.327016252        17.619082715         4.147542831
    48.906850470        17.212334464         4.150480959
    48.950192141        15.492493348         6.291501124
    47.064360071        17.541956989         6.271996955
    50.981383097        17.219765441         5.926391828
    53.174675031        15.475128326         5.875099614
    53.217156127        17.607349592         4.195678120
    54.890113313        17.522636447         6.343324702
    56.768591380        15.516585360         5.842936489
    56.729943753        17.731720692         4.186238602
    58.809796297        17.394588969         5.798989595
    60.969447584        15.564221838         6.154534346
    61.018735043        17.409685586         4.119380561
    62.702410295        17.756673133         6.145126085
    64.589259407        15.595275502         5.750823049
    66.636488347        17.498935539         5.724629949
    68.834004920        17.481648739         4.026173137
    68.812803489        15.646901242         6.047886549
    72.443020443        15.674826074         5.671024741
    74.463336865        17.543521405         5.632797819
    76.686592445        17.533352699         3.952501138
    76.634723261        15.695632811         5.976746342
     1.972476293        17.900755879         3.923119858
     0.122630328        17.903571829         5.962493295
     2.299674611        19.622317853         5.906762632
     5.891901105        18.015427598         7.658793397
     5.894858352        19.677072425         5.457666633
    10.166907553        17.793358697         7.651354307
     7.942791398        17.972719031         5.914295492
    10.112769581        19.636945146         5.603166485
     9.796782204        21.352249454         7.635319629
    13.643629276        21.290142125         3.890581652
    13.717873401        19.570379230         6.015723424
    17.603289866        21.284588447         7.708866601
    15.739754505        21.354830741         5.682183376
    17.907620368        19.593845475         5.704469390
    21.541827259        19.570770334         6.041041336
    23.598522520        21.286700409         5.720972918
    25.765293107        19.536900720         5.758918529
    25.421532638        21.255646745         7.756220473
    29.365468181        19.536587837         6.142156700
    29.331984002        21.234292461         3.984976830
    33.597852712        19.521021894         5.829621142
    37.198888361        19.490828659         6.238458536
    37.127930066        21.191662116         4.085654601
    39.225150571        21.221698910         5.859221220
    41.409132652        19.454768862         5.895916564
    45.020886367        19.425748938         6.264870432
    44.965418417        21.130024112         4.118911710
    49.228157764        19.394382391         5.926860678
    47.066785327        21.122436692         5.892259532
    52.852663631        19.358087931         6.355546064
    52.808930790        21.015508835         4.163233685
    54.871493606        21.085438246         5.882757501
    57.044366449        19.409713671         6.212796800
    57.125808108        21.209652904         4.142510505
    60.668481146        19.468222842         5.775890907
    62.705070254        21.360540861         5.758324652
    64.550220610        17.786631706         4.090311847
    64.883967120        19.513278033         6.077455370
    64.919876554        21.377905882         4.060149149
    70.553589607        17.794532009         6.018067675
    68.523885097        19.538152253         5.676869740
    72.417046734        17.865165407         3.988790146
    72.733972920        19.580939040         5.987717437
    76.326872227        19.614573992         5.603760362
    76.290728090        17.918277342         7.742936384
     2.001501130        23.573564231         5.593726968
     0.147666792        21.488510118         5.554999939
     1.988115282        21.779178677         7.689237405
     6.247811324        21.451980997         7.626348962
     4.036423852        21.827440921         5.876474908
     6.214366262        23.602897038         5.915170680
     7.936219737        21.501807657         5.440600485
     9.793105203        23.533515173         5.953147547
    11.864430234        21.660361255         5.999313666
    14.014849902        23.521390946         5.623358302
    14.044735313        21.669278428         7.660606285
    17.628246532        23.495186972         6.025819332
    17.924675394        21.659187942         3.904990983
    19.666009150        21.622424158         6.062889756
    21.530718023        21.271447350         3.929214911
    21.849365358        23.465697724         5.725723933
    21.861335169        21.601617421         7.721900637
    25.768500704        21.632123539         3.970817554
    27.492622966        21.587381232         6.114025687
    25.444298750        23.464837295         6.084488123
    31.399788500        21.258853798         5.803584327
    29.679499707        23.420407871         5.763044411
    29.652274253        21.550226343         7.775130765
    33.621401164        21.580184917         4.052303722
    33.251588752        23.409926281         6.197481026
    35.332771275        21.551634318         6.220829767
    37.514328099        23.380828137         5.871505096
    41.409445588        21.540370520         4.092249761
    41.082740144        23.366591948         6.218360490
    43.136384277        21.497661954         6.244928669
    45.315907015        23.327794423         5.899542339
    49.257652005        21.465591419         4.140603847
    48.906068130        23.307065906         6.236926958
    51.000159272        21.420536228         6.288187916
    53.161140538        23.280705491         5.831527800
    56.754822185        23.309568972         5.790175210
    58.808231616        21.594186443         6.177914344
    60.630302924        21.694700194         4.105471337
    60.984624992        23.384895620         6.083862989
    66.642199433        21.672641923         6.042010293
    64.604749752        23.419860325         5.721941875
    70.558440119        21.408412001         5.628171831
    68.487897429        21.704947121         4.015639635
    68.806857700        23.454199264         6.010034708
    72.769960589        21.410523963         3.958502421
    72.407893349        23.471329623         5.615200308
    74.445264797        21.787626525         5.955585569
    76.315528288        21.826893375         3.940779883
    76.633393282        23.522955363         5.950178163
    76.642077263        21.445019344         7.722744567
     2.301943399        27.471855117         5.880350736
     0.137988457        25.706567706         5.908137926
     2.350464165        25.372408373         7.678422593
     4.043464917        25.443745759         5.522899327
     5.913540646        27.515345891         5.414251103
     5.874071562        25.849868243         7.613846289
     7.937471482        25.807707223         5.861377931
    10.090942278        27.466692543         5.554812399
    10.151182506        25.624748731         7.596530088
    11.847688145        25.230359368         5.608980228
    13.686814479        27.422341339         5.956273216
    13.697532545        25.228482069         7.641258399
    15.743353272        25.544963497         5.977027652
    17.918181967        27.414362816         5.662085330
    17.963948893        25.567569313         7.660762568
    19.674536663        25.239354762         5.654021106
    21.534942662        27.385108230         6.033008369
    23.582562772        25.534716569         6.083956759
    21.518357041        25.200322574         7.711835986
    25.411988082        25.181236695         3.958096084
    27.500133436        25.204546499         5.735819841
    25.745812826        27.359217139         5.708345218
    25.796743200        25.527207371         7.738154111
    29.723389016        25.525408292         4.011951347
    29.390659549        27.347796900         6.139062289
    31.413714163        25.460954339         6.154409319
    29.342623835        25.134460646         7.764722291
    33.233594918        25.098166187         4.016170999
    33.577277153        27.338253960         5.792363178
    35.326669018        25.112715259         5.812367454
    33.616628887        25.487940521         7.842363887
    37.508851715        25.447187475         4.059774069
    37.158441350        27.286158896         6.171100387
    39.214980143        25.440616926         6.210327522
    41.058331117        25.086198402         4.078840645
    41.423918889        27.264569950         5.868660738
    43.117216931        25.096367108         5.859189963
    45.326859784        25.411518782         4.103439653
    44.976605888        27.232342973         6.240052626
    48.882910847        25.042864069         4.116129866
    47.044488620        25.368731995         6.235020301
    49.204844013        27.223582242         5.863940979
    50.978801373        25.016425432         5.912201295
    52.854619483        27.195266306         6.326227297
    53.215122041        25.415820927         4.146261307
    54.894181484        25.355043352         6.316318929
    56.733307818        25.539018714         4.128413742
    57.096079164        27.219280097         6.175851403
    58.809952765        25.208457539         5.730818772
    61.051436881        25.222771949         4.060399203
    60.678416872        27.272548473         5.712971207
    62.713676000        25.535107674         6.082081358
    64.552724100        25.619273273         4.035112547
    64.876847820        27.322844459         6.031007941
    66.635158368        25.307719757         5.687215702
    64.906811466        25.277839405         7.818890119
    68.821643938        25.295047984         3.991759530
    68.506751838        27.369464066         5.632203942
    70.553667841        25.640080011         5.985029363
    68.446120440        25.653690433         7.788164802
    72.398192325        25.676530912         3.938404375
    72.728183600        27.392382766         5.921203219
    74.458486353        25.369827086         5.577379723
    72.760416033        25.311709019         7.732996759
    76.663748098        25.363960525         3.905459833
    76.330079823        27.437829061         5.506645853
    76.301289688        25.728234872         7.707522563
     1.986151607        31.383052436         5.490329865
     1.968110832        29.631297227         7.632100191
     0.132803103        29.334214562         5.495549731
     4.025987428        29.645924520         5.846812317
     6.189347009        31.417313155         5.873943117
     6.250760748        29.285717655         7.578432469
     7.927613990        29.365815772         5.416314044
     9.798581588        31.384616853         5.907262739
     9.791775224        29.205932421         7.602906451
    11.838769462        29.495271225         5.953522628
    13.999437791        31.325716577         5.591195176
    14.022673308        29.492298834         7.616815674
    15.738737462        29.150239199         5.610199239
    17.598517589        29.119733080         7.666826364
    17.599847568        31.327828539         6.003814628
    19.650049401        29.454518179         6.022662407
    21.819088776        31.293020275         5.638392765
    23.577164621        29.108312841         5.694060915
    21.866029213        29.445992110         7.672890160
    25.758095573        29.452171555         3.913836623
    25.446567538        31.269006484         6.060264195
    27.508035076        29.372542763         6.084269326
    25.436240641        29.045970849         7.716305691
    29.331123428        29.069593536         3.981507339
    29.671285130        31.247573980         5.716440699
    31.440000808        29.062397221         5.776547297
    29.709619821        29.424481385         7.763253226
    33.612717184        29.412826484         3.996635573
    33.267783203        31.237483495         6.115932344
    35.324400230        29.371525892         6.153596646
    33.266140288        29.056295997         7.805574773
    37.141229857        29.020236200         4.036612868
    37.499698330        31.210966638         5.804490771
    39.235712170        29.019453992         5.819150154
    41.431351125        29.351501363         4.060242919
    41.123500091        31.206038726         6.173632178
    44.959942032        28.971504631         4.088811526
    43.154847515        29.308323471         6.224861879
    45.289620371        31.187109288         5.848937772
    49.244899853        29.306759055         4.106190241
    47.035413468        28.991998485         5.862565685
    48.958563185        31.141975877         6.179570948
    52.831383966        28.863638123         4.125319330
    51.007122104        29.251144054         6.231613322
    53.163956964        31.107167613         5.837404056
    54.898249655        28.884523082         5.876975015
    56.756543335        31.146747347         5.794176066
    57.113525360        29.051993852         4.112472834
    58.795088293        29.401249803         6.142688064
    60.641881565        29.480252828         4.062024550
    60.954348410        31.165520343         6.080174701
    62.722594683        29.183717709         5.671868671
    64.932628706        29.183795930         4.001761668
    64.584017725        31.247965085         5.667867816
    66.630620792        29.541421508         6.016817408
    64.540988991        29.503093307         7.804293249
    68.485706875        29.589918415         3.955282983
    68.806075360        31.289265676         5.953397601
    70.531527601        29.261703864         5.577911087
    68.805997126        29.215944686         7.756282987
    72.755409053        29.255211536         3.906491303
    72.413213265        31.317112287         5.573972745
    74.461537482        29.585068724         5.922453486
    72.360639976        29.573335601         7.705459623
    76.625491642        31.337449700         5.876506165
    76.650291840        29.258966135         7.673015187
     2.292891718        35.307625516         5.818587534
     2.327291235        33.213576009         7.606282172
     0.137915699        33.536706206         5.854313921
     4.041634240        33.260273837         5.481546738
     5.875518892        33.657557370         7.585308939
     5.874494026        35.349238991         5.432223695
     7.921824670        33.631040512         5.829089779
    10.109874921        35.305826437         5.513491066
    10.137413311        33.486644883         7.571493486
    11.842681165        33.076689578         5.556687800
    13.699175461        35.254122477         5.937738004
    13.681572797        33.036562299         7.605406985
    15.758139509        33.369078994         5.967275568
    17.931951162        35.215637835         5.608448865
    17.955108444        33.379638805         7.630912437
    19.657168701        33.041177327         5.619326190
    21.534551492        35.203826491         5.962368269
    23.570045322        33.338025330         6.041510186
    21.509125421        33.003005568         7.659387274
    25.398688292        33.007151272         3.900177454
    25.746047528        35.185288158         5.689622466
    27.492231796        32.978678894         5.688465969
    25.812937651        33.327778403         7.696301415
    29.690530709        33.350931765         3.949094160
    29.348413156        35.143752903         6.061201895
    31.411445376        33.318079021         6.113806890
    29.350994880        32.990646679         7.726776679
    33.241183622        32.945278605         3.979319371
    33.568358470        35.149071919         5.734507061
    35.314855675        32.970778591         5.763888341
    33.614751269        33.287025357         7.769066969
    37.531696061        33.310022277         4.032518243
    37.186292677        35.112229914         6.151971298
    37.163370096        32.901474947         7.797510549
    41.057783478        32.929008675         4.037988162
    39.231956935        33.251043781         6.173225842
    41.402873927        35.124275920         5.806772508
    41.449892598        33.260899604         7.830548862
    45.362847453        33.284209407         4.084123024
    43.143816513        32.918527085         5.821588175
    45.006882470        35.072806622         6.176976643
    48.895506531        32.893965749         4.076433880
    47.069445285        33.201451782         6.209546105
    49.237858787        35.055206938         5.855814241
    50.985451269        32.869326191         5.876068571
    52.850864248        35.004989173         6.238145969
    53.199240527        33.228829069         4.107815589
    54.870711265        33.171258547         6.256024791
    56.697867788        33.352965506         4.086529788
    57.034508958        35.046837310         6.102804538
    58.771226904        33.043523952         5.709189149
    60.660188336        35.107067340         5.708063908
    60.953409601        33.022247889         4.058367518
    62.705383190        33.352261519         6.031257994
    64.559999868        33.438382639         3.988665119
    64.871840840        35.174415464         5.978903053
    66.621232705        33.139657337         5.626608996
    64.905716189        33.087327610         7.765878788
    68.849808200        33.115330662         3.934809857
    70.536769284        33.483203167         5.947708885
    68.495407899        35.196864839         5.566127318
    68.457855549        33.448082020         7.743217694
    72.376521490        33.485393350         3.911617399
    72.676549119        35.214933847         5.914451776
    74.469439122        33.209117423         5.538340128
    72.698141720        33.149278497         7.691675426
    76.334147994        35.270627069         5.497800212
    76.299255603        33.530370320         7.639257971
     1.950969749        37.461279286         7.605188188
     0.119249052        37.133768723         5.504614169
     4.021864493        37.475437254         5.812523738
     6.232485271        37.088087766         7.563335492
     7.921511733        37.133846944         5.394090543
     9.754614045        36.995083214         7.546675681
    11.825626139        37.342852968         5.905324825
    14.047551740        37.323375985         7.582058244
    15.752115487        36.943066370         5.590695069
    17.601021079        36.899262712         7.601249847
    19.649892933        37.288020175         5.976715085
    23.580059282        36.931880793         5.640049369
    21.867515660        37.260721110         7.628943266
    25.752149785        37.266665892         3.891456840
    27.491136519        37.221376039         6.029507620
    25.437179450        36.898871608         7.686455560
    25.442812303        39.093513086         5.993781233
    29.304132676        36.860386966         3.916649725
    31.398771458        36.873136959         5.711033293
    29.662522915        37.209173591         7.693957164
    29.658298276        39.053933353         5.699968428
    33.612013077        37.247188909         3.948781593
    35.328468402        37.167794779         6.094177694
    33.259177457        36.853894638         7.731433925
    33.244782389        39.029137354         6.077017776
    37.135205834        36.813532696         3.998573487
    37.504079437        37.178902135         7.758002104
    37.487180880        39.038054527         5.743383958
    39.227419359        36.833400784         5.766607673
    41.399196926        37.187819308         4.015139528
    41.074994972        39.017873556         6.146470122
    41.073664993        36.815409996         7.807012581
    44.966904864        36.800469819         4.050459578
    43.125509742        37.162945088         6.162317260
    45.300807841        39.012554540         5.802240289
    45.335152595        37.145814729         7.822328354
    49.234025318        37.120236522         4.061180620
    47.053172601        36.802503561         5.841467425
    48.923123155        38.966560699         6.152283865
    52.807209641        36.676255161         4.067744523
    50.988893567        37.076119981         6.179883515
    53.138765596        38.934177281         5.760200053
    54.875796479        36.744698376         5.834872265
    56.797694451        38.973991677         5.785017858
    57.100147336        36.883227444         4.064775138
    58.812534489        37.212380645         6.085144513
    60.631554669        37.337690394         4.026048110
    62.711563681        37.004391491         5.650864181
    60.956460729        39.032187965         6.025881845
    64.922380044        37.004626153         3.960784159
    66.607385276        37.329555429         5.964431209
    64.519709326        37.330806963         7.763503280
    64.551159419        39.079276898         5.607980014
    68.478744044        37.425375931         3.910961009
    70.538959837        37.067359249         5.565220874
    68.811395276        37.012839339         7.719868953
    68.787377419        39.098362777         5.923484957
    72.740466348        37.058833180         3.885393043
    74.440023115        37.397607541         5.863315845
    72.368541616        37.409027780         7.673671577
    76.628308068        37.079483476         7.648384922
     1.983100479        39.189568250         5.455353639
     2.327361646        41.012739066         7.561272551
     0.137477588        41.333522639         5.809960690
     6.200291955        39.232355038         5.864753652
     4.037832065        41.085171543         5.416220274
     5.867038320        41.502479605         7.523483223
     9.781526562        39.194339720         5.890571671
     7.904769644        41.439902951         5.781329570
    10.097044535        41.306927561         7.524514694
    14.007261198        39.162347406         5.568971676
    11.842133526        40.902760597         5.507302243
    13.674297029        40.858018289         7.574056534
    17.602820462        39.132623495         5.964931316
    15.736390440        41.209307981         5.933330811
    17.968642937        41.204536511         7.602343830
    19.654899913        40.849492220         5.610761859
    21.833170907        39.108375042         5.629453354
    23.551660317        41.148139301         5.975464818
    21.515384146        40.833848056         7.622285593
    27.485973071        40.800447767         5.626140146
    25.782035196        41.154318746         7.639820591
    31.390400413        41.105743618         6.048074089
    29.327055257        40.771662506         7.698739436
    33.208794720        40.770254532         3.924526409
    35.294905989        40.777372626         5.735069681
    33.596444499        41.090099455         7.729339727
    37.480374516        41.139613232         3.967973196
    37.121123703        40.744128779         7.736497507
    41.039320240        40.746006078         3.998604744
    39.220769464        41.074377070         6.104586169
    41.426344145        41.078992099         7.783257503
    45.305267183        41.087987493         4.029611372
    43.114635207        40.763371100         5.783298741
    48.880720293        40.730909460         4.045364739
    47.068897647        41.033076479         6.182071482
    50.977706096        40.696961626         5.804834594
    53.214652637        41.093775833         4.064400058
    56.745668800        41.179427628         4.054397920
    54.883228715        40.974019761         6.226455970
    58.795948868        40.890871032         5.690841477
    57.115011808        40.810303590         7.854085143
    60.993543675        40.919890956         4.008638138
    62.680191822        41.223387728         5.987654924
    60.616768431        41.215409204         7.818827606
    64.564068039        41.270241998         3.977193917
    66.631011963        40.964476822         5.630359798
    64.846180068        40.897363360         7.749875367
    70.534031091        41.279550275         5.885289292
    68.484063960        41.283383095         7.689018608
    72.402808135        39.149753854         5.536714781
    72.702835764        40.955637869         7.663513156
    74.436580816        41.012739066         5.515647777
    76.580819993        39.162660289         5.840217157
    76.277350065        41.362699004         7.623192037
     2.273904311        43.102564649         5.793707215
     1.947136280        45.289305825         7.560928728
     0.107385638        44.959839741         5.445007677
     5.863854193        43.138546225         5.341110468
     4.022357367        45.293451528         5.763700801
     6.211495072        44.908917989         7.521076459
    10.092272257        43.107101456         5.466918611
     7.897337408        44.959917962         5.347549345
     9.754770513        44.827881222         7.511636941
    13.648714491        43.061185837         5.896666724
    11.801295346        45.138339647         5.887946110
    14.014224029        45.120818184         7.545737980
    15.709869093        44.761862852         5.548154726
    17.592493566        44.721188027         7.566023567
    17.943216867        43.036780941         5.564814537
    19.650440572        45.073103485         5.925797951
    21.500910845        43.027472664         5.971401449
    23.573644089        44.741681881         5.619419960
    21.822218138        45.082411762         7.603844151
    25.741822888        42.982965019         5.637298782
    27.458904085        45.048776811         6.014254360
    25.393368375        44.700772394         7.635976020
    29.340355047        42.973343858         6.023443824
    31.380699389        44.679027006         5.672149981
    29.684193750        45.038295221         7.676922272
    33.575399536        42.956057058         5.686434285
    35.281449730        45.014437872         6.063171066
    33.245799432        44.648051563         7.703834275
    37.127382428        44.675663511         3.944186861
    37.139978112        42.950034055         6.091645903
    37.483582113        45.001531437         7.722588284
    39.201836821        44.686379763         5.732725430
    41.407411502        45.058476192         3.977131403
    41.388087689        42.963957360         5.749916605
    41.067640970        44.652666591         7.754376329
    44.959316160        44.630295437         4.006856507
    44.996242637        42.896374574         6.136561754
    43.139200703        44.977361204         6.104711196
    45.339299000        44.972824397         7.789477582
    49.228001295        44.966253848         4.037738109
    49.225888976        42.904822422         5.813711492
    47.035804639        44.602683488         5.783298741
    52.880358489        42.843419080         6.225549526
    50.999220464        44.930428714         6.173632178
    52.852741865        44.544878304         4.061805753
    54.884793397        44.577574606         5.789425050
    57.058526815        42.907403709         6.096928282
    57.124791065        44.746218689         4.060367946
    58.812065085        45.098525251         6.060920585
    60.637813394        45.166029816         3.985414424
    60.659249527        42.969823922         5.687653295
    62.704053211        44.877551441         5.604510523
    64.913070191        44.850878142         3.933434563
    64.856506964        42.978741095         5.967744418
    66.608637021        45.161805892         5.923797524
    64.544118354        45.205062004         7.716118151
    68.496112005        43.028020210         5.556719057
    70.513220831        44.869416476         5.530682241
    68.791132654        44.852207896         7.697270372
    72.691570059        43.042960386         5.897073061
    74.435563773        45.221097272         5.824838870
    72.355554762        45.218828868         7.646196954
    76.309426031        43.084652082         5.487485507
    76.632610942        44.923232399         7.608282600
     2.002119179        47.034177602         5.445288987
     2.302952619        48.876277856         7.564992096
     0.107686057        49.161862061         5.782173500
     6.173121265        47.054436794         5.807303872
     4.024986032        48.895129073         5.384182175
     5.837919602        49.285685615         7.521076459
     9.750858810        47.016734360         5.854720258
     7.902813793        49.238283800         5.766420133
    10.105963218        49.104760864         7.489757264
    11.804033538        48.698169054         5.472419787
    13.653877939        48.664221220         7.521107715
    13.978627531        46.960962917         5.513241013
    15.720508926        49.004638218         5.882319907
    17.557210004        46.950637769         5.914920626
    17.939852802        48.992670433         7.539424131
    19.622354543        48.644666015         5.559094565
    21.485733437        48.606885360         7.594342120
    21.819088776        46.925059562         5.564752024
    23.539064633        48.973115228         5.940238538
    25.419811488        46.906521228         5.974495861
    27.442161996        48.624719707         5.616856912
    25.703644666        48.981250193         7.621285379
    29.641321484        46.866628611         5.664085758
    31.362705555        48.910616795         6.016848664
    29.301785654        48.591241197         7.652792114
    33.211063508        46.869053457         6.033289679
    35.271279302        48.579273412         5.680339232
    33.568671407        48.921254826         7.690675212
    37.480296282        48.946363709         3.916399671
    37.452523190        46.866863274         5.696874016
    37.135127600        48.565975873         7.713523846
    41.012642424        48.561751949         3.969192206
    39.198238054        48.893408215         6.089582962
    41.058018180        46.867645482         6.096303148
    41.405612119        48.910616795         7.751719511
    45.312308249        48.887228771         4.010325999
    45.302763693        46.822433849         5.801615156
    43.138966001        48.587721260         5.741821124
    44.984820464        48.544778031         7.786820764
    48.891673062        48.546811772         4.009732122
    48.951130949        46.794821901         6.153252822
    47.036978150        48.873149023         6.161598356
    53.201352846        48.925009425         4.039207173
    50.984199524        48.521233565         5.806616225
    53.188287758        46.780898595         5.781173286
    54.906385998        48.877607610         6.199606481
    56.810055433        49.018092198         4.016139742
    56.756934505        46.824858695         5.705344577
    58.827164259        48.735715047         5.670087040
    60.989006099        48.746744182         3.968442046
    60.960137730        46.900185342         5.975652358
    62.721655875        49.068153522         5.961930675
    60.628112370        49.082624373         7.790415283
    64.569779126        49.121969444         3.942999107
    64.583235385        46.918176130         5.583631059
    66.632341942        48.815891385         5.588694642
    64.921597704        48.753080068         7.700927404
    68.774859969        46.925137783         5.880381993
    70.536299879        49.096078353         5.866941620
    68.466461296        49.122908094         7.671264813
    72.392950643        46.950715990         5.508271201
    74.452775267        48.816282489         5.479265000
    72.721924875        48.775373001         7.616190540
    76.617277066        46.966907699         5.817087213
    76.281809407        49.157481695         7.591310222
     2.303648902        50.921282911         5.773015292
     1.900899950        53.089329311         7.533454105
     0.125020378        52.731390850         5.382181748
     5.870339797        50.953900991         5.322418973
     6.258153867        52.675697628         7.488256943
     4.026683711        53.137200451         5.801021279
    10.108388474        50.901414823         5.392402682
     7.898276217        52.752354029         5.241495424
     9.715809950        52.547728370         7.490538681
    13.653565002        50.866763001         5.844343039
    11.805519985        52.931557922         5.864941192
    14.023455648        52.911768055         7.512793438
    15.705175049        52.565875600         5.497018795
    17.532096870        52.547963033         7.548863648
    17.864278698        50.843766080         5.552436891
    19.597710814        52.861080965         5.895103890
    21.456004493        50.821082043         5.945520917
    23.505423986        52.535917027         5.586319134
    21.801955516        52.880401507         7.587465650
    25.694256579        50.809740025         5.595071005
    27.411103073        52.869528814         5.987998747
    25.346897342        52.505645570         7.615346610
    29.291928163        50.793000770         6.004439762
    31.334071888        52.503846492         5.613231137
    29.658220042        52.859516549         7.633537999
    33.506162391        50.776965502         5.683027306
    35.242019763        52.803745106         6.025663048
    33.181725735        52.484213066         7.663888236
    37.071758009        52.464736083         3.904678416
    37.104616316        50.750370424         6.049918233
    37.452132020        52.806561055         7.702458981
    39.160372768        52.466691603         5.687934605
    41.390512945        52.836284966         3.932434349
    41.372206174        50.763433301         5.714627811
    40.993162143        52.427033649         7.732402882
    44.946564008        52.439470759         3.980757178
    44.998902595        50.751621957         6.117620205
    43.078491071        52.821814115         6.096271892
    49.267587731        52.850208272         4.014420624
    49.226984253        50.743799875         5.771702512
    47.035257000        52.500248334         5.728443265
    48.897931787        52.441504500         7.794416138
    52.850942482        52.405522924         4.034206104
    52.857983547        50.707192533         6.186447418
    50.988658865        52.780904627         6.175476323
    54.927900365        52.401299000         5.739383103
    56.736515415        52.994212797         7.791071673
    57.070966031        50.745051409         6.075830022
    57.197861679        52.572680811         4.026266907
    58.855093819        52.970902993         6.057857430
    60.606754471        53.023076279         3.948594053
    60.706502901        50.810365791         5.600853491
    62.744891391        52.675150082         5.527056466
    61.091492721        52.666311130         7.741467320
    64.984967294        52.664199168         3.901240181
    64.879194842        50.861131102         5.943958083
    66.643372944        53.026674436         5.989811635
    64.521508710        53.063907545         7.702177671
    68.523337459        50.855420982         5.539121545
    70.552572564        52.749068755         5.469887996
    68.892915169        52.693375532         7.651166767
    72.712302085        50.853309020         5.844624350
    72.336778587        53.061091596         7.609470354
    74.457156374        53.039737313         5.878475336
    76.281183534        50.883971581         5.434786742
    76.718355474        52.711209879         7.553458381
     1.896221553        54.798845279         5.333483838
     1.790542981        56.625614252         7.524389667
     6.212809404        54.810109077         5.785017858
     3.972209333        56.635000750         5.774515613
     9.715340546        54.771155109         5.839029404
     9.973434717        56.881630988         7.470753202
    13.993492003        54.737207275         5.469419145
    11.765072975        56.470111267         5.454572222
    13.587613688        56.448600542         7.492195285
    17.526072847        54.735173533         5.893353516
    15.674585531        56.778301288         5.851407049
    17.849805396        56.817959243         7.532578917
    19.567043061        56.459238573         5.471200776
    21.368929982        56.418485527         7.576525812
    21.767923699        54.713271704         5.538652695
    23.465837551        56.749828911         5.951428430
    25.337274553        54.707483364         5.980684684
    27.371516638        56.440309136         5.550905314
    25.682208533        56.770557427         7.620597732
    29.574431361        54.694968033         5.597821593
    29.204618949        56.398226336         7.625098695
    31.288930834        56.740989958         5.968682118
    33.187749758        54.670797801         5.987998747
    35.196800475        56.406283080         5.619294933
    33.460551933        56.727770640         7.650041526
    37.396507602        54.651868363         5.656865464
    37.011674250        56.360993226         7.667982861
    39.121959843        56.721591195         6.003189494
    40.999890272        54.640057019         6.058138740
    41.277308257        56.731759902         7.717118365
    45.203875838        56.751862652         3.963253437
    45.209352223        54.658204249         5.707219978
    43.009097458        56.399712531         5.693717092
    44.870285797        56.321100610         7.724682482
    48.859518863        56.313982515         3.980507125
    48.908336917        54.626837701         6.130841781
    46.966098089        56.656355034         6.024850375
    50.914962379        56.382425731         5.818243710
    53.194468249        54.597348453         5.804959621
    52.959296658        56.659327425         4.033893537
    56.790183981        54.674943504         5.669868244
    54.849666303        56.792302815         5.902230413
    56.678778677        56.546063681         7.806606244
    58.757614177        56.640006883         6.029195053
    60.540959625        56.539102028         3.973474372
    61.036807111        54.718121395         5.993781233
    64.559061059        54.738537029         5.521117697
    66.620841535        56.627100448         6.032914599
    64.438893540        56.579776853         7.720556600
    68.291451699        56.538710924         3.886330744
    68.817497533        54.738302366         5.886258249
    72.387004855        54.772406643         5.449758693
    74.410685341        56.654634176         5.941738859
    72.227016197        56.617870391         7.631193747
    76.642077263        54.779602958         5.811867347
     0.064003521        56.941078810         5.494330721
     2.082512502        58.685090158         5.891946965
     5.992760458        57.044877834         7.465033229
     5.666101954        58.680553351         5.395622121
     5.586045039        60.421670529         7.529265709
     7.877387722        56.960086468         5.499550586
     9.947539242        58.646370853         5.288349190
     9.959352586        60.248333197         7.520044988
     7.845389991        60.303009549         5.804240717
    13.429580882        58.647544166         5.727943158
    15.636172607        60.350098481         5.832996864
    17.763043821        60.342667503         7.567086294
    17.714460469        58.648482815         5.378493459
    21.218798817        58.636906134         5.832027907
    23.433448649        60.310127643         5.890352874
    25.510719469        58.603740508         5.450758907
    25.544360115        60.307859239         7.630162277
    29.033051651        58.601863208         5.897885735
    31.250909080        60.303948198         5.948052708
    33.337880923        58.608199094         5.504520399
    33.378093231        60.268592389         7.691894223
    37.290343979        60.261787178         3.892394540
    36.879302216        58.587235915         5.931893004
    39.075019406        60.290963543         6.005221179
    41.128585305        58.567993594         5.547842159
    41.183583850        60.239650686         7.748937666
    45.121338903        60.252166017         3.967535602
    44.691208029        58.557120900         6.001501634
    49.006442431        58.534202201         5.615856698
    46.905075521        60.258267241         6.083675449
    52.941772228        60.326006469         4.089655457
    52.614910316        58.576363222         6.108086917
    56.849720103        56.910494470         4.025047896
    56.818582946        58.666238941         6.163630040
    56.465121453        60.419245683         4.051491049
    60.504033148        58.641130059         5.747697380
    62.702723232        56.912762874         5.705250807
    60.845133659        56.930910103         7.766285125
    64.701759989        58.646370853         6.103023335
    70.504928020        56.927859491         5.591976593
    68.710003931        56.939670835         7.668295428
    68.343790286        58.652237415         5.661647736
    72.147452156        60.501768646         3.890050289
    72.530720827        58.693929110         6.002376821
    76.516276891        57.022428460         7.578307442
    76.108364491        58.693850890         5.577254696
     1.757301328        62.599885636         5.576535793
     2.103635698        60.883095132         7.563835599
     3.943403552        60.835771537         5.478045990
     5.979038203        62.557489952         5.905387338
     9.535871607        62.500779860         5.838310500
    11.730180583        60.676592173         5.341923142
    13.785467631        62.529174016         5.454290912
    13.365741888        60.688638179         7.551114130
    17.361468380        62.542940880         5.823963683
    19.526987222        60.684101372         5.388058004
    21.160827377        60.713199516         7.600437173
    21.597999316        62.514624944         5.477483369
    27.336702480        60.650779303         5.458197997
    25.190116282        62.515641815         5.873255470
    28.992448173        60.660948010         7.655323905
    29.385496101        62.496086611         5.538808978
    35.144853058        60.631458762         5.516741761
    32.984497664        62.484509930         5.914107952
    36.824851309        60.630207228         7.716055638
    37.231746667        62.461121905         5.608948971
    40.706199603        60.634900477         3.944468171
    40.826523590        62.453612707         6.010472301
    42.963408765        60.596102952         5.597977876
    45.038097861        62.451266082         5.677776184
    44.684323431        60.612451103         7.779381674
    48.564498214        60.633727165         4.019703004
    48.698982567        62.431241553         6.092177267
    50.836493614        60.546980279         5.713565084
    52.882783745        62.496477715         5.768514330
    54.779959753        60.464379095         6.255555940
    56.501578526        62.569770621         5.812023631
    58.699486269        60.826776143         5.809679380
    62.638336598        60.520306980         6.173132071
    60.815326481        60.836319083         4.048271610
    60.747262847        62.564529826         6.162223490
    64.373802800        60.449204257         3.990884343
    66.534392896        60.833659575         5.728849601
    64.360346541        62.584632576         5.782642350
    64.685409070        60.847973985         7.770254723
    68.648903129        60.850711713         3.951907261
    70.476294354        60.545885187         6.054981816
    68.582638878        62.577514482         6.110087345
    68.302326233        60.478537063         7.737747774
    74.367265437        60.875429491         5.607761218
    72.197913126        62.585101901         5.710251876
    72.544724724        60.880044520         7.680110454
    76.076366759        60.533760960         7.623848427
     0.040032213        60.538219547         5.961805648
    76.447978555        62.609976121         6.001657917
     2.052087275        66.514133567         5.982935165
     1.750346320        64.461932198         7.620910299
     0.029099238        64.774580806         5.635454637
     3.939366674        64.463653056         5.937019100
     5.698529973        66.482532357         5.524024568
     6.033614285        64.787643682         7.575306801
     7.860019761        64.614775675         5.384400972
     9.890506611        66.441309986         5.424628321
     9.553943675        64.663507245         7.577213459
    11.728537668        64.237282010         5.804803337
    13.506015561        66.444829923         5.837591596
    13.800645039        64.244400104         7.593341906
    15.651115312        64.575352383         5.500675827
    17.373516426        64.609300218         7.598030408
    17.716181618        66.451948017         5.501894838
    19.575961745        64.277174627         5.823369806
    21.334585229        66.475727146         5.868598224
    23.477885597        64.585912194         5.527337776
    21.648538520        64.277096406         7.634631982
    25.503991339        66.456328383         5.559313361
    27.383329981        64.277018185         5.894760067
    25.204198413        64.596628446         7.665232273
    29.128497207        66.415027792         5.948021452
    31.268668212        64.549695955         5.604635549
    29.458253779        64.228364836         7.692019249
    33.362994057        64.183857191         3.932340579
    35.223869460        64.229303486         5.953553884
    33.362289950        66.406188839         5.631735092
    33.031125165        64.542343198         7.708804087
    36.936569550        64.543829394         3.960784159
    36.962386791        66.393204183         5.986154603
    37.280721190        64.192461481         7.748968923
    39.117187566        64.525838606         5.651926908
    41.185148532        64.146076536         4.004105919
    41.213078092        66.357770153         5.688184659
    40.816666099        64.539449028         7.803668116
    44.739400211        64.511602417         4.038707066
    43.024900738        64.192930806         6.052887618
    44.780864264        66.373961862         6.077986733
    48.997445514        64.161016713         4.095813023
    46.943331977        64.469519617         5.749947861
    48.998071387        66.385382102         5.752760963
    50.855035087        64.218274351         6.124121595
    52.565935793        64.571597784         4.121506015
    52.600593483        66.427464902         6.185728514
    54.772527517        64.773485714         5.901574023
    56.812637157        66.482063032         6.310974037
    56.835872674        64.819010230         4.129320185
    58.693305778        64.461149990         6.189135492
    60.445201133        64.396461373         4.067463213
    60.457405647        66.472754755         5.855814241
    62.612988762        64.746968857         5.833278174
    64.691902497        64.777553197         4.046052386
    66.547849154        64.451372387         6.154628116
    64.663660001        66.488242477         6.188354075
    64.343369750        64.426654609         7.824016215
    68.263600372        64.406708301         3.995416562
    68.264382713        66.485817631         5.778453955
    70.452980603        64.757450446         5.741539814
    68.628484039        64.794683556         7.770536033
    72.523679761        64.789442761         3.949344214
    72.488005029        66.466888194         6.102023121
    74.369847161        64.458568703         6.067359461
    72.152459136        64.435493561         7.728120717
    76.111728556        66.499740937         5.706251021
    76.438512233        64.795622205         7.667451498
     1.820897798        70.449110016         5.689716236
     2.118820930        68.725983626         7.676078342
     0.032223280        68.426006790         6.033352192
     3.970112661        68.651282745         5.601728678
     6.000802919        70.412502673         5.960742921
     5.669653781        68.297724650         7.619316208
     7.859863292        68.166939443         5.865441299
     9.576005681        70.357904543         5.966775461
     9.907796339        68.093177212         7.606969819
    11.753963738        68.468558915         5.539871705
    13.829513408        70.369950548         5.528056680
    13.493263409        68.521279746         7.650979227
    17.373829362        68.503288958         3.874109381
    15.665666848        68.207770709         5.841467425
    17.431566100        70.371984290         5.891884452
    17.744971753        68.175465512         7.643383853
    19.598336686        68.500394788         5.527369033
    21.315261415        68.537862559         7.679235267
    21.650729074        70.364944416         5.568721622
    23.492515366        68.199792186         5.915420733
    25.212725926        68.508999078         3.923963788
    25.272496749        70.353602398         5.974027011
    27.440049676        68.488896328         5.580599161
    25.558285778        68.172727783         7.700958660
    29.490564447        68.109056038         3.939310819
    29.496901406        70.325990449         5.637861402
    31.317720969        68.118051432         6.006690243
    29.151732723        68.493902460         7.749812853
    33.013209565        68.462066587         3.987133541
    33.091521861        70.301820216         6.029007513
    35.242880338        68.415916305         5.638861616
    33.394913554        68.110698675         7.774161808
    37.314361836        68.136120440         4.008263058
    37.316082986        70.295797213         5.701156182
    36.991020457        68.467150940         7.779162877
    39.165223280        68.115391924         6.022287327
    40.870256431        68.433281326         4.026829527
    40.937068320        70.271939864         6.115713548
    45.157404805        68.053832140         4.069901234
    43.070511196        68.399098829         5.735100938
    45.127832330        70.274442930         5.784986601
    48.660022004        68.423269062         4.114160695
    46.956318832        68.115626586         6.123027611
    48.698043758        70.288679119         6.178101884
    50.871229538        68.447126411         5.775609597
    52.934027056        70.347735836         5.869473411
    52.950690911        68.126108176         4.149418232
    54.793650714        68.287868826         6.333135024
    56.467077304        70.395841639         5.919452845
    56.470676071        68.213011504         4.153762910
    58.649025299        68.658166177         5.914389263
    60.748671060        68.655428448         4.135946602
    60.705094688        70.381292567         6.235801718
    62.627383830        68.360535966         6.212359207
    64.348298496        68.313838138         4.064587598
    64.354635455        70.409921386         5.894447500
    66.519371956        68.662702984         5.844593093
    68.578883643        68.659495931         4.046896316
    68.541096591        70.409217399         6.190135706
    70.432405045        68.349506831         6.128466274
    72.145105134        68.328074327         3.993291108
    72.132509450        70.420402976         5.805741038
    74.343716984        68.655584890         5.727192997
    76.408705056        68.733649266         3.955970630
    76.368883918        70.455054798         6.086863631
    76.081843144        68.372112647         7.723244674
     2.148362112        72.683878774         3.965816485
     2.063126101        74.331913179         6.114775847
     1.692108884        72.303334496         7.740654646
    78.226317023        72.604171761         5.704031796
     5.580365246        72.238098334         3.883798953
     3.941463347        72.348546129         6.048574196
     5.739728030        74.328862567         5.602541352
     6.035585783        72.622866536         7.675078128
     7.850084035        72.420978606         5.447727009
     9.836055704        74.260575793         5.588757155
     9.538375097        72.476671828         7.696676495
    13.475582511        72.434119703         3.908585501
    11.766715890        72.116699626         5.910951028
    13.604981650        74.273012903         5.976933882
    13.850558371        72.104653620         7.677047299
    15.721369500        72.417145786         5.563845580
    17.430549057        72.452032270         7.698520639
    17.755768054        72.081891362         3.899896144
    17.779003570        74.294367187         5.604322983
    19.607490072        72.133986426         5.930205143
    21.344833891        72.452032270         3.940279776
    21.443643511        74.283885597         6.026944572
    23.537891122        72.359184160         5.609636618
    21.684447955        72.099099942         7.712554889
    25.613127856        72.043172057         3.968254506
    25.598576320        74.230851883         5.651395545
    27.456948234        72.103558528         6.001532890
    25.273592026        72.428722467         7.746687185
    29.183808689        72.384449484         4.001574128
    29.243344810        74.240081939         6.066109194
    31.371389536        72.342132022         5.694123428
    29.533202010        72.049038618         7.781975979
    33.447408610        72.000932816         4.034393644
    33.441932226        74.240160160         5.715221688
    35.288099625        72.040747212         6.069922509
    36.981867072        72.386170342         4.066525512
    37.057832346        74.213956186         6.117557692
    39.193231074        72.342288463         5.704188080
    41.276369448        71.950323947         4.099657595
    41.253290400        74.177974610         5.771671255
    44.807307377        72.330946445         4.114285722
    43.104464779        72.023147528         6.144688491
    44.856203666        74.188299758         6.169006190
    49.062614488        72.001323920         4.183894351
    46.982918413        72.318352893         5.782954917
    49.025609777        74.200502205         5.891259318
    52.545282001        72.436388107         4.209899910
    50.875532411        72.043250278         6.247429203
    52.665527754        74.232807403         6.305066524
    54.806637568        72.615592000         5.933018245
    56.887272452        74.267302784         6.496451184
    56.911446778        72.652590447         4.232029641
    58.660212770        72.253742498         6.378832292
    60.322843060        72.226365212         4.164515209
    60.377841605        74.261592664         5.964993830
    62.581303967        72.567407976         5.849562905
    64.717172099        72.603780657         4.132102030
    64.640346250        74.295540499         6.304816470
    66.486435416        72.293869777         6.275872783
    68.155480899        72.247875937         4.101532996
    68.218615787        74.316738340         5.863347102
    70.420044063        72.611211634         5.798145664
    72.522271548        72.627559785         4.048177840
    72.475565813        74.329566554         6.257150031
    74.311641019        72.319447985         6.196574583
    75.973332500        72.253820719         4.014014287
    76.048202497        74.344115627         5.722379468
    76.450638513        72.675822029         7.790227743
     2.178286641        76.237919841         3.981944932
     0.046458437        76.278047120         5.731318879
     1.936426037        76.539852196         7.775943439
     5.960105560        76.584203400         3.959190068
     3.996853063        76.513882885         5.951615970
     6.013852361        76.167208222         7.732777962
     9.771277900        76.430812377         3.962659560
     7.905708453        76.170884600         5.766826469
     9.880727353        76.003648492         7.725213845
    14.079236535        78.206272640         5.714909122
    13.864484034        75.983858625         3.956501994
    11.836344206        76.249574742         5.726005243
    13.636509977        76.359631433         7.742029940
    17.688486760        78.202983220         6.137436941
    17.515824185        76.355955054         3.969442260
    15.781687962        76.049485891         5.993343640
    19.709116118        76.299088520         5.667805303
    21.942307424        78.201575245         5.762731844
    21.803363729        75.976662310         4.008044261
    23.625200336        76.043071784         6.055325639
    21.430734891        76.390763318         7.768848172
    25.491395655        78.163716369         6.222423858
    25.347523215        76.316609983         4.021078298
    27.544179213        76.267017985         5.686528055
    29.789731500        78.152061467         5.825620287
    29.617381861        75.942010488         4.056679658
    31.434993828        75.992384694         6.124121595
    33.311516044        78.147681101         6.264870432
    33.144564555        76.308866122         4.082560190
    35.329720147        76.268504180         5.788487350
    37.579418839        78.115767008         5.891290575
    37.447516210        75.912834123         4.128288715
    41.124204197        78.117487866         6.317913020
    39.259182388        75.920734425         6.162317260
    40.942935875        76.292126867         4.144604703
    45.387100012        78.115532345         5.941770115
    45.230475420        75.870125556         4.173798443
    43.146320003        76.199200536         5.847562478
    48.907476343        78.086903526         6.405462985
    48.782693013        76.268347739         4.226465951
    47.024538934        75.925114791         6.244053482
    53.154803579        78.096290024         5.942332736
    50.923411657        76.210933659         6.000188853
    52.927924799        75.851117898         4.251408783
    56.712654026        78.142596748         5.900042446
    54.854907985        75.964068758         6.206451694
    56.916688460        76.038613197         4.244938650
    58.730154022        76.409927418         6.260838320
    60.558562289        76.468905915         4.226934801
    62.634111959        76.163922947         5.867941834
    64.543961885        78.203296103         5.826214164
    64.852829963        76.144602405         4.148449274
    66.546206239        76.458502546         6.217954153
    68.724711935        78.207441806         6.142719320
    68.361627652        76.528588399         4.120599571
    70.449694772        76.210698996         5.792894542
    72.663327562        76.191613117         4.081372436
    74.382442845        76.486349157         6.110649965
    76.224463839        76.598126706         4.028361104
    76.565016712        76.174013433         7.817296029
     1.956626072         2.228026123        11.546780745
     0.116179147         1.870955913         9.443362367
     2.299111326         0.057346576         9.795937734
     4.091305046         2.219546987         9.812816342
     6.343992280         1.851549328        11.510147914
     6.013249959         0.069254209         9.438986432
     8.002875158         1.943145906         9.309208691
     9.799755099         1.707083300        11.484048585
    10.126147606         0.022849161         9.401040821
    11.923966355         2.005746026         9.852293531
    14.179532603         2.089426657        11.538560238
    13.787579951         0.004639019         9.904742242
    15.842710531         1.755603674         9.459490815
    17.619484317         1.676585004        11.577537320
    19.760907068         2.023666415         9.957441007
    21.540497280         1.692213523         7.803449319
    23.669793751         1.707396184         9.523660782
    22.018272698         2.050410113        11.588852238
    25.921448295         2.032497546         7.824141242
    27.550203236         2.004205076        10.001106591
    25.444533452         1.630911868        11.637987741
    25.839850168        78.197820646         9.583079733
    29.368597544         1.648871368         7.854741533
    31.487645352         1.659767528         9.613961335
    29.786445670         2.028492640        11.643488917
    33.711213868         2.019966571         7.902845566
    35.377208222         1.967378715        10.091032064
    37.173853461         1.620688407         7.927413317
    41.536419471         1.954714765         7.960951737
    39.277489159         1.633078585         9.650781705
    44.966591928         1.569086134         7.985300691
    43.193260440         1.927712939        10.128446311
    49.344413580         1.923535947         8.023308816
    47.099565399         1.579262662         9.717420950
    52.723420960         1.464700453         8.044657130
    50.986781248         1.892529215        10.238188520
    54.843798748         1.535990906         9.728642099
    57.099990868         1.684547883         8.036467879
    58.772400415         2.102677263        10.072934445
    60.614264941         2.117187225         7.996771894
    62.699046231         1.823123883         9.602646416
    60.587117722        78.157615145         9.650125315
    64.909471424         1.799555951         7.935571311
    66.611296979         2.135835068         9.931810528
    64.819345784        78.197116658         9.993386191
    68.464896614         2.175195783         7.886873402
    70.505945063         1.843852400         9.544258935
    68.794731421         1.806056101        11.695406265
    72.690944186         1.854404388         7.855054100
    74.413971172         2.171347319         9.867390508
    72.366429296         2.170901460        11.632642849
    76.655455288         1.818704407        11.580631731
     2.032153236         3.935938565         9.451551618
     2.304697238         5.772766735        11.535403313
     0.120712811         6.085172858         9.773307897
     6.272791460         4.000110923         9.792843323
     4.071449241         5.842383263         9.410761649
     5.917655758         6.245462958        11.505490669
     9.899347060         3.959193614         9.839103211
     7.983238409         6.210732915         9.761305331
    10.204068732         6.058444805        11.515524064
    11.901356711         5.708688241         9.497030089
    13.775688373         5.622848716        11.524682271
    14.079940641         3.902108061         9.519066050
    15.793814242         5.932743951         9.854356472
    17.711800511         3.894896102         9.911493685
    18.006038819         5.934245791        11.560564942
    19.735872168         5.630209295         9.561700163
    21.920871291         3.876154394         9.562637864
    23.631693763         5.946307441         9.936280234
    21.556926433         5.565810096        11.589227318
    25.476296481         5.561461019         7.804293249
    25.505868957         3.866400258         9.952752505
    27.547152108         5.604709309         9.638779140
    25.834843188         5.930319106        11.620202690
    29.704221670         5.918789357         7.854710276
    29.720416121         3.836676347         9.632309007
    31.459559324         5.887422809         9.967255605
    29.394336550         5.540669925        11.642707500
    33.278970674         5.511188499         7.882997573
    33.298059785         3.809142619        10.037801935
    35.341846426         5.531103519         9.690977798
    33.661222302         5.894173266        11.674839369
    37.538111254         5.847428505         7.926194307
    37.538580659         3.802853666         9.702980363
    41.100499276         5.518447391         7.919474120
    39.266223454         5.834545537        10.061900836
    41.147909118         3.786513337        10.077904257
    41.463818261         5.851245681        11.732976796
    45.363629793         5.849086787         7.974485880
    45.304328374         3.788992937         9.749490305
    43.159854495         5.580507788         9.743051429
    48.945028693         3.766786047        10.111755243
    48.933215349         5.488082070         7.997178230
    47.082432140         5.826746921        10.112536660
    51.005635657         5.518064109         9.796781664
    53.184610757         3.756367034         9.731767767
    53.192747099         5.884254866         8.036999243
    54.876735288         5.809686961        10.205087694
    56.716487495         3.765949084         9.675912077
    56.693877851         6.028767827         8.018995394
    58.767080499         5.626196567         9.616743179
    60.965535881         3.833305030         9.987103598
    60.954348410         5.702485331         7.953731443
    62.701471487         6.001836399         9.955628120
    60.570140930         5.999998210        11.754918987
    64.560391038         6.069356609         7.927413317
    64.570483232         3.871328169         9.566607462
    66.618338045         5.757161682         9.569014227
    64.913461361         5.679363257        11.708096478
    68.811942914         5.741275034         7.890092840
    68.763672498         3.882943961         9.894177484
    70.547878520         6.073713509         9.901491547
    68.439001140         6.047478246        11.674870626
    72.389821281         3.913731674         9.521222761
    74.450819415         5.817024074         9.484996267
    72.723958960         5.721899737        11.624234802
    76.633393282         5.802842639         7.793572207
    76.586374611         3.919246242         9.819161448
    76.281183534         6.091751229        11.587414431
     2.297577939         7.883250436         9.742582579
     1.988569040        10.038703285        11.506240829
     0.112592898         9.721048545         9.415418894
     5.949864721         7.920092441         9.341153019
     4.060340005        10.066237013         9.729736083
     6.264498649         9.719249466        11.494019467
    10.167846361         7.896469754         9.430984722
     7.969625682         9.733016330         9.288985618
     9.821425934         9.622333873        11.469107892
    11.896975604         9.913237093         9.837290324
    13.774514863         7.822551081         9.868328208
    14.130010441         9.883434962        11.504584225
    15.787164347         9.564294026         9.489997336
    17.633409980         9.499996514        11.541060772
    17.971694065         7.793523336         9.513877441
    19.696442200         9.841430383         9.888051174
    21.586342441         7.779302791         9.910681012
    23.622775080         9.530893737         9.538601476
    21.908040905         9.822188062        11.543217483
    25.801046073         7.772364605         9.580235375
    27.538311659         9.825629778         9.940124806
    25.489439804         9.463076288        11.589039778
    29.346457304         9.489671366         7.828360894
    29.424613132         7.760756636         9.973038091
    31.459481090         9.507740375         9.617962190
    29.742165191         9.803649728        11.621421700
    33.637439147         9.820232541         7.884497894
    33.629302805         7.747529495         9.674224217
    35.350373939         9.778540846        10.040521266
    33.297042743         9.447823229        11.680559342
    37.168298842         9.447041021         7.925194093
    37.206085894         7.714942703        10.058743912
    37.585912266         9.794967217        11.710503242
    41.448406151         9.809985614         7.946636177
    39.255740090         9.483413701         9.675349457
    41.403186863         7.700464029         9.723015896
    41.103081000         9.413484290        11.733445647
    44.995303829         9.414110057         7.946323610
    45.040053712         7.709451601        10.113599388
    43.177065989         9.726993327        10.092188561
    49.297942547         9.735597617         7.964827565
    49.237624085         7.663504693         9.779653003
    47.091272589         9.444381513         9.723203436
    52.796726277         9.302410729         8.026121917
    50.998985761         9.707203460        10.146137593
    52.843901416         7.650793810        10.208869753
    54.884480460         9.338079422         9.746802231
    57.058213878         7.676677079        10.082780300
    57.092010993         9.480128427         7.994771466
    58.782570843         9.889692627         9.977320256
    60.652521398         7.729374444         9.629370879
    60.636405181         9.936781559         7.949136711
    62.707730212         9.629608409         9.577172221
    64.899066294         9.603247993         7.910503453
    64.863469795         7.766537154         9.930497748
    66.615130448         9.948358240         9.911900022
    64.504610152         9.960013142        11.689998859
    68.501197219         9.979724788         7.868994580
    68.488288599         7.790918583         9.552917036
    70.553511373         9.665433543         9.535663348
    68.817810469         9.626088472        11.656804264
    72.695403528         7.817302465         9.836883987
    74.451445288        10.009996245         9.803345568
    72.374096234        10.031428749        11.611669616
    76.290336920        10.076171056         7.781319588
    76.315684756         7.853682967         9.425045952
    76.650839478         9.672942742        11.565972347
     2.015731906        11.803990696         9.395352105
     2.332525094        13.620434521        11.520681416
     0.141170236        13.956549374         9.757835839
     6.255611260        11.845213066         9.755053995
     4.071410124        13.700767301         9.375754165
     5.877732916        14.114711867        11.480172757
     9.852406623        11.811187011         9.769682122
    10.149226654        13.884977326        11.482517008
     7.974241491        14.053464967         9.729673569
    11.873661853        13.535017388         9.483871027
    14.043952973        11.757996855         9.507782388
    13.727183255        13.432704559        11.505365642
    15.785599665        13.793615411         9.857044546
    17.646866239        11.722562825         9.886988447
    17.991252581        13.788452837        11.512210855
    19.713262524        13.445923877         9.515377761
    21.888325921        11.709891052         9.552604469
    23.607988842        13.745822492         9.916963605
    21.543939579        13.410646288        11.559502214
    25.470507161        11.689631860         9.950095687
    27.517892568        13.404545065         9.596582620
    25.835625529        13.748090895        11.586601757
    29.715017971        13.758728927         7.829204824
    29.699918797        11.674222359         9.620306441
    31.417469398        13.721730480         9.989385335
    29.362104116        13.370206126        11.624734909
    33.275293673        13.376854895         7.875589740
    33.301893254        11.660533716        10.014234397
    35.352799195        13.396488320         9.664003282
    33.654337705        13.710388461        11.664180841
    37.519648016        13.718445206         7.886435808
    37.513389291        11.645671761         9.692571889
    37.195524296        13.324525168        11.696375222
    41.089233571        13.372396309         7.917536206
    39.245804364        13.701471288        10.046522549
    41.117632536        11.619233125        10.059837895
    45.322948081        13.713360852         7.950418235
    45.307535971        11.610081289         9.739769477
    43.144520619        13.375916245         9.742332525
    48.902234660        13.282598810         7.979268152
    48.954338546        11.595688658        10.091844737
    47.079615714        13.597985146        10.069371183
    53.221067830        13.688799516         7.986863526
    51.004696848        13.296522116         9.739456911
    53.204638677        11.548208622         9.689633760
    54.908263615        13.662830204        10.176487831
    56.685272104        13.817942085         7.980830986
    56.754509249        11.604762273         9.640873337
    58.781319098        13.496063421         9.596207540
    60.977505692        13.483078765         7.931945536
    60.952627260        11.645437098         9.937999351
    62.693882783        13.831865391         9.948564110
    60.616142559        13.841173668        11.718317413
    64.559217528        13.866595434         7.888530006
    64.574707872        11.680401804         9.542789871
    66.632811346        13.525552669         9.532193856
    64.888504695        13.494655446        11.677652470
    68.807561807        11.705510686         9.846354761
    70.529493516        13.898118423         9.825412785
    68.444946929        13.899135294        11.646020709
    72.393576516        13.905392960         7.805262206
    72.394437090        11.748375694         9.468555253
    74.472255548        13.609327165         9.442987287
    72.743986880        13.567166144        11.585789083
    76.643407242        11.775987643         9.786998323
    76.304966689        13.956236491        11.560314888
     2.297867405        15.719177277         9.749177739
     0.129667482        17.537967727         9.365877054
     5.931018136        15.793174171         9.319898476
     6.282007432        17.546415576        11.464138079
    10.133110438        15.725278501         9.408011061
     9.777614859        17.412892640        11.466513587
     7.958751147        17.633475346         9.258104016
    13.761293306        15.669819941         9.852606098
    14.103019690        17.725150144        11.480329040
    11.859501488        17.728200756         9.832539308
    15.794596582        17.388800628         9.486777898
    17.647570346        17.344527645        11.500989707
    17.963010084        15.643772409         9.491872737
    19.705908522        17.672820417         9.868265695
    21.569600351        15.619211072         9.888144944
    23.611587609        17.378084376         9.558855805
    21.902329818        17.685883293        11.555376332
    25.784538686        15.598326114         9.559449682
    27.516171419        17.658506007         9.913962963
    25.472463012        17.288677982        11.567503925
    29.360617669        15.591833786         9.934529860
    31.438983765        17.348438686         9.605490774
    29.710089225        17.669926247        11.593446970
    33.614985971        17.670473792         7.848052603
    33.607162565        15.571339932         9.632027697
    35.343019937        17.625809705         9.974444642
    33.277405993        17.264664191        11.627860577
    37.179329845        17.258797629         7.888623776
    37.209919363        15.551706507        10.046116212
    37.511198737        17.615719220        11.660242499
    41.469607582        17.601404810         7.904533427
    39.246273768        17.285079824         9.675130660
    41.390121774        15.545448841         9.690696488
    45.001719022        17.202869745         7.925975510
    45.039662542        15.494214206        10.076904044
    43.183794118        17.566831209        10.033582283
    45.394688716        17.545868030        11.705439660
    49.280261649        17.528111904         7.945510936
    49.240753448        15.480916667         9.741207285
    47.067880604        17.231967889         9.681725820
    52.805097321        17.116748625         7.968859677
    52.818944750        15.443918220        10.155264544
    50.982321906        17.510746883        10.086406075
    54.865860753        17.170408106         9.704293144
    57.076911819        15.534341485        10.037270571
    57.079962948        17.332325198         7.959326389
    58.792975973        17.724915481         9.961223066
    60.641099225        15.562579200         9.575359333
    62.704757317        17.403193259         9.547884710
    60.936119873        17.355635002        11.712534927
    60.628190604        17.777166987         7.917536206
    64.910019062        17.415943252         7.863118324
    64.876691352        15.559215705         9.888238714
    66.615521618        17.761131720         9.867921871
    64.522603986        17.766137852        11.651334344
    68.481091065        15.600907401         9.495248459
    68.808891786        17.459981572        11.624391085
    70.542402136        17.465769913         9.464835708
    72.751262648        17.508243817         7.795666405
    72.716292022        15.659338352         9.807158883
    76.318735884        15.703767776         9.398446516
    76.664373971        17.497605785        11.535340800
     1.972671878        17.876898530        11.499864466
     2.003253573        19.611523380         9.370628070
     4.063797950        17.899113242         9.704730738
     6.214256735        19.678089296         9.750834343
     9.853501899        19.639213550         9.725672714
    14.030966118        19.571004997         9.462178890
    13.695733162        21.292801633        11.463981796
    17.644128047        19.571396101         9.849574199
    19.702231521        21.282085381         9.472337311
    21.871427363        19.531738146         9.535850888
    21.548320687        21.265267905        11.520212566
    25.466438989        19.507724355         9.884487913
    27.487537752        21.253300120         9.556136474
    29.671598066        19.509679876         9.581016792
    29.362729989        21.207071617        11.574661705
    33.251588752        21.201517939         7.841363673
    33.294226316        19.495600128         9.984165470
    35.339264702        21.243287855         9.621525452
    37.515032206        19.450544938         9.634965825
    37.162900692        21.128772578        11.655710280
    41.090250614        21.206211188         7.901345245
    41.141885095        19.439437581        10.006013890
    45.350642939        19.429816421         9.703261674
    43.169555519        21.199875302         9.683132371
    45.007899513        21.123062459        11.692624421
    48.922810219        19.399857848        10.020892070
    48.911388046        21.139645272         7.925381633
    50.997264612        21.086689779         9.705074561
    53.193529440        19.367083325         9.643248845
    56.711871685        19.416049557         9.625682590
    58.786013142        21.302422793         9.595957486
    60.948559089        19.444443714         9.942594083
    61.002540592        21.280599185         7.915473265
    64.597630452        19.487152280         9.509970356
    64.911427276        21.303517885        11.624359828
    68.471390042        17.831374014         7.825954129
    68.812334085        19.527514222         9.828913533
    72.374174468        17.826602544        11.575599405
    74.461068077        17.844671553         9.788279847
    72.404372816        19.554265742         9.464585654
    76.635427368        19.594236579         9.761742925
     2.320555283        21.451042347        11.470764496
     2.287869091        23.538521305         9.664503389
     0.122617810        21.774250765         9.715826860
     4.054362922        21.508691089         9.332119838
     5.902188884        23.601567284         9.228128859
     5.887496527        21.940000677        11.423441880
     7.929335140        21.864830472         9.689227424
    10.116681285        23.552679273         9.352436681
    10.171053958        21.737486981        11.415096346
    11.881876430        21.359915094         9.403728895
    13.721472168        23.501053534         9.814004096
    15.767762299        21.648862794         9.840415992
    17.974979896        23.480872563         9.444737661
    18.015113970        21.644247766        11.487736874
    23.615499312        21.577603630         9.872360320
    21.536663811        23.451539756         9.846354761
    25.798151413        23.452009081         9.544634015
    25.808243607        21.598410367        11.562377829
    31.427248656        21.534660401         9.935530073
    29.384948463        23.402808187         9.904648472
    33.599417393        23.395924755         9.616461869
    33.653555364        21.544438003        11.627360470
    37.529114337        21.546628186         7.877558911
    37.223610324        23.367374156         9.990916913
    39.241970895        21.494846005        10.014859531
    41.411870844        23.388180894         9.678537639
    41.435184594        21.509003973        11.665743675
    45.354789344        21.482643557         7.908628052
    45.042009564        23.335381842        10.032113219
    47.078598671        21.458238662        10.076122626
    49.244586917        23.311680934         9.705418385
    52.850707779        23.272883409        10.137823316
    53.207376869        21.514948755         7.944229412
    54.871415372        21.472318409        10.112755457
    56.701544789        21.622737041         7.927600858
    57.043818811        23.322006082         9.987447421
    60.609023259        21.648862794        11.687435812
    60.672705786        23.364010661         9.544446475
    62.715631852        21.631810656         9.903085638
    66.640243582        21.375559258         9.480339022
    64.563598635        21.654338252         7.849334127
    64.894685186        23.410943152         9.835383666
    68.844566518        21.380721832         7.808762955
    68.483438087        23.446690065         9.459928409
    70.529493516        21.729117353         9.836102570
    68.438062331        21.710813682        11.599010660
    72.367524573        21.767289112         7.762378039
    72.754392011        21.395505566        11.557251733
    74.455122289        21.417720279         9.413449723
    72.722081343        23.473832689         9.763587069
    76.325620482        23.503087275         9.377191973
    76.294092155        21.790911799        11.518243395
     1.993482139        27.441583660         9.302175937
     1.986519307        25.717440399        11.434006638
     0.138683175        25.394544864         9.340777939
     4.056561299        25.759914303         9.660314993
     6.255329617        27.505490068         9.665816169
     6.258975325        25.369357761        11.396436107
     7.949597762        25.435689014         9.254446985
     9.845287323        27.449875067         9.684288868
     9.784655925        25.272833272        11.398061455
    11.869124278        25.572966549         9.765900063
    14.019622179        27.427112809         9.390038469
    14.087059941        25.603081564        11.453635834
    15.771908704        25.247959052         9.443112314
    17.649682665        27.395980923         9.803595621
    17.613460294        25.197037300        11.451072786
    19.686975879        25.522748784         9.814222893
    21.836456738        27.386516205         9.489497229
    23.596410201        25.197115521         9.504562950
    21.910466160        25.522514122        11.483579735
    25.475122970        27.357339840         9.855950562
    27.527124188        25.479336231         9.866327781
    25.460180264        25.159021983        11.520525133
    31.403700203        25.151199901         9.556886634
    29.689435433        27.342790768         9.541758401
    29.735437061        25.471983474        11.561596412
    33.288515230        27.319872068         9.933967239
    35.360544367        25.463144521         9.975382342
    33.271147268        25.108491335        11.608668974
    37.185901506        25.119520470         7.858054741
    37.530757252        27.311737103         9.634840798
    37.548359916        25.460641455        11.641926083
    41.423527719        25.429978895         7.876965034
    39.248307854        25.158161554         9.658658389
    41.130071752        27.288349078         9.995324105
    41.127098857        25.084242881        11.670025840
    44.987323954        25.034103337         7.888717546
    43.179960649        25.389304070         9.983008972
    45.334604956        27.237740210         9.638279033
    45.396801036        25.399942101        11.690186399
    49.277992861        25.368184449         7.900376288
    47.074452265        25.074152396         9.675036890
    48.933528285        27.212474885        10.021517204
    48.921949644        25.014548133        11.684153860
    52.797586851        24.907307392         7.933727167
    50.998907527        25.349411453        10.048429207
    53.178195564        27.168436565         9.628433178
    53.198301718        25.412457432        11.737040165
    54.872432415        24.956038961         9.650219085
    56.768982550        27.214117523         9.560668693
    56.661488949        25.522983447        11.710659526
    57.119627617        25.100825694         7.922474762
    58.800251741        25.510155233         9.951502238
    60.655650760        25.562015635         7.863743457
    60.968508775        27.247439591         9.882331202
    62.703505572        25.246159973         9.504531693
    61.004574678        25.164028115        11.669369450
    64.571109105        27.312362869         9.493404314
    66.617399236        25.608948125         9.809346850
    64.506957174        25.573357653        11.606449750
    68.791680292        27.344120521         9.795250087
    70.525894749        25.313273435         9.431328545
    68.769618287        25.264072541        11.558345717
    72.382780215        27.383465593         9.369784139
    72.361813486        25.676922016        11.526057565
    74.446829478        25.667926622         9.717702260
    76.629638047        27.418039194         9.703574240
    76.650135372        25.334158393        11.486705403
     2.309203520        31.347149081         9.595332353
     2.313584628        29.306602613        11.416752950
     0.136678818        29.647410715         9.673817880
     4.046336107        29.327644013         9.272607117
     5.903088576        31.403546291         9.183869398
     5.908502373        29.769982737        11.366460950
     7.975023832        29.723988896         9.589862433
    10.114099561        31.396349975         9.302394734
    10.168002829        29.556439905        11.363522822
    11.848548719        29.205463096         9.377692080
    13.727887361        31.315313208         9.715639319
    13.696984907        29.126772954        11.442352172
    15.771986938        29.440047328         9.777871372
    17.923345415        31.290360768         9.438955175
    17.987262644        29.456004375        11.437319847
    19.673206684        29.136003010         9.449895014
    21.543783111        29.095406406        11.474296501
    21.568348606        31.296931316         9.761586641
    23.610492332        29.434962975         9.839259495
    25.799090222        31.259854649         9.487090465
    27.512259716        29.068107341         9.476181883
    25.791736220        29.406647039        11.518337165
    29.367658735        31.242724290         9.880330774
    31.441252553        29.377627116         9.911837509
    29.334722195        29.049569007        11.543967644
    33.608257842        31.215972770         9.597489064
    35.325651975        29.036584351         9.610366816
    33.612873652        29.382789690        11.593915821
    37.529661975        29.365972214         7.837831668
    37.194741955        31.190238121         9.992761057
    37.184415059        28.978231621        11.639300522
    41.067953906        29.004748478         7.841832524
    39.248933726        29.341645540         9.989635389
    41.398727521        31.191098550         9.649500181
    41.478291563        29.341645540        11.642238650
    45.358466345        29.324280518         7.870276104
    43.178239500        29.048239253         9.624401066
    45.039114903        31.155429857         9.988385122
    45.014471174        28.922460178        11.645864425
    48.909275726        28.946161086         7.874620782
    49.246229832        31.128130792         9.646562053
    47.076642819        29.296042803        10.016516135
    49.302949527        29.283918576        11.690592736
    53.183984884        29.310435433         7.908909362
    50.987641822        28.934427963         9.659939913
    52.804393215        31.092149216        10.092126047
    52.790702254        28.832819121        11.707971451
    56.726110284        29.413452250         7.910097116
    54.879942885        29.264989138        10.084280620
    57.077928862        31.105916080         9.938436945
    58.799547635        29.079684022         9.533100300
    57.083405246        29.000211671        11.689154929
    60.974611032        29.099943213         7.855397923
    60.585787743        29.458742104        11.643863998
    60.643759183        31.188673705         9.485027524
    62.683555886        29.447634747         9.866921658
    64.868085605        31.235215091         9.799250942
    66.630777260        29.185438567         9.465648381
    64.896015165        29.146015275        11.592165446
    68.471702978        31.258446674         9.439392769
    70.519166620        29.526559552         9.776371051
    68.432273011        29.492455276        11.574692962
    72.706903935        31.266972743         9.711607208
    74.443387179        29.237533631         9.315116203
    72.746333902        29.194121078        11.505959519
    76.276567725        31.327046331         9.293611607
    76.273986001        29.612524231        11.453417038
     1.955014450        33.536158661        11.388590680
     1.977115573        35.249429228         9.271356849
     0.111137744        33.202625095         9.312334359
     4.031307344        33.536784427         9.603865427
     6.197553762        35.325225200         9.625244997
     6.282555071        33.184556086        11.345644000
     7.944590782        33.241109737         9.181806457
     9.842392663        35.304887788         9.640529514
     9.797251609        33.094758587        11.348425845
    11.875070066        33.411083573         9.705668438
    14.037694248        35.228309607         9.360625932
    14.069848447        33.386678678        11.377994665
    15.757591871        33.037031624         9.394914511
    17.617997870        32.973516320        11.426973885
    17.621048998        35.188338769         9.751271936
    19.669764385        33.322772270         9.776152255
    23.597505478        33.017398199         9.449051083
    21.816507052        35.201949192         9.417638119
    21.877216684        33.359614276        11.443008563
    25.440387047        35.164716082         9.800532466
    27.520552526        33.321051412         9.835008586
    25.435458301        32.981338402        11.492737943
    29.694755349        35.149384802         9.499718164
    31.432881509        32.999094527         9.522910622
    29.717756163        33.324649570        11.521712887
    33.287185251        35.123728374         9.875360962
    35.314777441        33.238215567         9.934654886
    33.256361030        32.925410517        11.587977051
    37.502123586        35.087199252         9.580235375
    37.540927680        33.267000828        11.600479724
    39.245569662        32.930807754         9.603271550
    41.122326580        35.076483000         9.952189885
    41.093771147        32.902726480        11.624703652
    45.011263577        32.884344588         7.860992869
    43.171667839        33.214983984         9.961379349
    45.316298186        35.082975328         9.608897752
    45.387334714        33.209899631        11.643863998
    49.287693885        33.197540742         7.857273324
    47.088534397        32.901787830         9.637497616
    48.954103844        35.045116452         9.943531784
    48.917020898        32.853056261        11.675620786
    52.809947833        32.761537904         7.882372439
    50.979427246        33.122918082        10.029550171
    53.147449577        35.003972302         9.583579840
    53.191730057        33.239779983        11.693187041
    54.853421538        32.783517954         9.643811465
    56.724389135        35.030019835         9.525629953
    56.642399838        33.320582088        11.654366243
    57.094592717        32.952553141         7.884966744
    58.777798565        33.329029936         9.902366734
    60.644619757        33.403730817         7.818327499
    60.956304261        35.100105687         9.846948638
    62.689423441        33.039300028         9.450988998
    60.983920885        32.997686553        11.612826113
    64.550455313        35.147272840         9.442799747
    66.611844617        33.390355057         9.779465463
    64.498899066        33.412100444        11.557908124
    68.756553198        35.168627123         9.726579158
    70.520261896        33.130896605         9.379254914
    68.761012540        33.119319924        11.547968499
    72.393263579        35.205234466         9.342528313
    74.441274860        33.467167900         9.672505099
    72.346557844        33.479526789        11.503740295
    76.618215874        35.242311134         9.661502747
    76.610861872        33.157413462        11.429849500
     2.307779660        37.104905241        11.369211538
     0.097030578        37.402770115         9.637028766
     4.024665272        37.151133745         9.222533913
     5.873476983        37.563748557        11.333641434
     7.921277031        37.524481707         9.581391873
    10.140699142        37.385483314        11.334860445
    11.872644811        37.026919086         9.332588688
    13.703321866        36.958710533        11.382714424
    15.775116301        37.247658233         9.743020172
    18.001423009        37.262285526        11.415377656
    19.652474657        36.922728957         9.377942133
    21.491757460        36.893552592        11.426661318
    23.571531769        37.230136770         9.814160379
    27.510069162        36.907006573         9.467992632
    25.779531706        37.207374512        11.462512732
    31.428656869        37.186333112         9.878424116
    29.342154431        36.824483610        11.511867032
    29.326585852        39.055028444         9.858138530
    33.607319033        37.206357642        11.527432859
    35.322913783        36.847245868         9.517253162
    33.570157854        39.048614337         9.519503643
    37.192864338        36.815253554        11.564190717
    37.207259405        39.010755461         9.875579758
    39.243535576        37.112649102         9.917526225
    41.449032023        37.154653681        11.580350421
    41.383706581        39.003715588         9.570389521
    43.148510556        36.828081768         9.598708074
    45.032465008        38.981813759         9.930747801
    45.009151258        36.765035789        11.605324509
    48.954964418        36.800939144         7.844833165
    47.092680802        37.110380699         9.975351086
    49.242005193        38.946770833         9.622150585
    49.284720991        37.080109242        11.652647125
    53.179447309        37.129779461         7.854428966
    51.004383912        36.746888559         9.643217589
    52.838033861        38.917438026        10.030237818
    52.775290144        36.647391679        11.656522954
    56.698337192        37.208000279         7.870057307
    54.864139604        37.075259552        10.068245943
    57.041706491        38.936836789         9.897678232
    58.769740457        36.902547986         9.483495946
    57.056727431        36.848888505        11.647708569
    61.015449212        36.946664527         7.802949212
    60.548391861        37.320560035        11.607606247
    62.679878885        37.290445021         9.824975191
    60.630537626        39.011537670         9.436579668
    66.601204785        37.014247314         9.388756945
    64.889521738        36.956363909        11.558470744
    64.850952345        39.066214021         9.779215409
    70.497339316        37.376409699         9.715483036
    68.425231945        37.364911239        11.504615482
    68.468417147        39.084283030         9.368377589
    72.697907018        37.025902216        11.460793614
    74.440648987        37.052340852         9.296643505
    76.220473902        37.421777773        11.429536933
     2.239856847        39.181589727         9.578141178
     1.957377119        41.329846261        11.362147528
     0.093156427        41.039959911         9.248414445
     5.892143630        39.227583568         9.157176192
     4.028600445        41.356441339         9.558824549
     6.228119810        40.995374045        11.316825340
    10.085231192        39.197312111         9.273513560
     7.913610093        41.067571859         9.148299295
     9.786064138        40.889463058        11.330797076
    13.754330474        39.152178700         9.705699695
    11.845262889        41.155492058         9.660440020
    14.045517654        41.206492031        11.353551940
    15.767058193        40.879607235         9.359969541
    17.632549406        40.822114934        11.405563058
    17.904491006        39.114241603         9.405854350
    19.666635023        41.155648500         9.769650865
    21.519843488        39.089602045         9.734768408
    23.576460515        40.835334252         9.395758442
    21.884570686        41.155570279        11.410595384
    25.738615292        39.079668002         9.482026882
    27.496456435        41.100502823         9.825256501
    25.409093422        40.813197761        11.447103188
    31.391965094        40.790357282         9.476275653
    29.710402161        41.140864765        11.482923345
    33.256752201        40.741469271        11.509241471
    35.310005163        41.078679215         9.872735400
    37.518630973        41.082199152        11.538372698
    39.231800467        40.778780601         9.556886634
    41.072647950        40.695631872        11.569629379
    44.988888635        40.708929411         7.806887554
    43.161340943        41.031120958         9.948845420
    45.385457097        41.042697639        11.613732557
    49.288476226        41.008593363         7.827954557
    47.062638922        40.741312829         9.574046552
    48.926878390        40.664108882        11.609231595
    52.805644960        40.597855850         7.835862497
    51.010720871        40.982936935         9.983102743
    53.222476043        41.044105614        11.651803195
    54.870398329        40.626562890         9.567513906
    56.678856911        41.184433761        11.642457447
    58.776937991        41.151268134         9.853137461
    62.674402501        40.895251398         9.445769132
    60.951766686        40.863728409        11.600292184
    66.590095548        41.241847841         9.747021028
    64.514467644        41.248105506        11.540779462
    70.526442387        40.962130197         9.336964624
    68.767349499        40.928104142        11.478891233
    72.700958146        39.098284556         9.689102397
    74.421090472        41.300044129         9.658377079
    72.337091523        41.297775725        11.439195248
    76.284391131        39.145529930         9.293267783
    76.577299460        40.970499825        11.402593674
     1.969824158        43.067208840         9.232911131
     2.282689997        44.927847427        11.324045633
     0.094630357        45.216012919         9.603177780
     6.177408491        43.134791626         9.599458235
     4.018531722        44.969304460         9.187870253
     5.874971254        45.376756699        11.302916116
     9.802258589        43.093725697         9.633684301
     7.920651159        45.349770517         9.552448186
    10.112456645        45.180891772        11.292476385
    11.815299243        44.826786131         9.293142756
    13.699253695        44.748174209        11.319044564
    13.981600425        43.045776336         9.310865295
    15.743118570        45.065046741         9.666722613
    17.619093147        43.008699668         9.715920630
    17.944155675        45.097430159        11.359959560
    19.659202787        44.766243218         9.382161785
    21.510298932        44.670344496        11.406469502
    21.822531075        43.012532488         9.381067801
    23.568245938        45.023902591         9.744770547
    25.472228310        42.978975757         9.782497361
    27.496143499        44.726115938         9.458490601
    25.768500704        45.040485404        11.441101905
    29.669094576        42.963331594         9.470180600
    31.391417456        45.022963941         9.822974763
    29.340589749        44.683798476        11.473702624
    33.256595732        42.951285588         9.844510617
    35.296940075        44.659080698         9.495248459
    33.600356202        45.015611184        11.503865321
    37.483347411        42.928601551         9.505563163
    37.157424308        44.652979474        11.517993341
    39.224915869        44.957258454         9.878705427
    41.093145274        42.915538674         9.912650183
    41.437218680        44.986356599        11.543498793
    45.307770673        42.915147570         9.599833315
    43.162201517        44.657046957         9.540664417
    45.012515322        44.618405873        11.591008949
    48.940960521        44.628652800         7.810919666
    48.976557020        42.878070903         9.923464994
    47.098470123        44.937781471         9.956909643
    49.286129204        44.932697118        11.603855445
    53.227483023        44.972902618         7.836768941
    53.204638677        42.842089327         9.561700163
    51.013693765        44.634832244         9.604771870
    52.827706965        44.515701939        11.636956271
    56.730491392        45.083272191         7.839394502
    54.884558694        44.911812159        10.015640948
    56.733386052        42.890586233         9.486527844
    57.103276698        44.698425769        11.629267127
    58.782179673        44.797609766         9.485340091
    60.973906925        44.817399633         7.780663198
    60.593532915        45.133959281        11.577568576
    60.938779831        42.952850004         9.830070030
    62.706791403        45.104391812         9.776371051
    64.531913840        42.952067796         9.358344194
    66.587904994        44.839614345         9.362313792
    64.901569784        44.807074485        11.513461123
    68.767505967        42.975064716         9.713888945
    70.492879975        45.182143305         9.680881890
    68.409428664        45.201072743        11.464013053
    72.365803424        43.030601497         9.299144039
    74.417257003        44.892256955         9.300112996
    72.687188951        44.882792236        11.428786773
    76.580115886        43.055319275         9.628339408
    76.244569993        45.240496035        11.393060386
     2.278301066        46.995927623         9.561981473
     1.951110571        49.143480169        11.347863224
     0.110877225        48.852107623         9.260198214
     5.863799430        47.032143861         9.118292880
     4.025651021        49.193463271         9.562887917
     6.232508741        48.785698149        11.296102160
    10.073887253        47.016108594         9.232661078
     7.913453625        48.864466513         9.113073015
     9.778240732        48.678144525        11.303291197
    13.715917550        46.963935308         9.664222078
    11.812013412        48.995173499         9.633746814
    14.034877822        49.018092198        11.329671836
    15.743118570        48.649437485         9.301238237
    17.567615134        48.608215114        11.349394802
    17.904334538        46.919896988         9.336870854
    19.647311209        48.944095305         9.711513437
    21.523833425        46.891424610         9.717420950
    23.546418635        48.625423694         9.414793761
    21.825503969        48.940653589        11.388278113
    25.714675669        46.870539652         9.412168199
    27.463128725        48.916561577         9.743676563
    25.373262221        48.568635381        11.425661104
    29.359678860        46.863890883         9.792124419
    31.375848877        48.625267252         9.459928409
    29.656420658        48.941201135        11.448759792
    33.550442870        46.853565735         9.484402390
    35.271201068        48.861650563         9.813378962
    33.239697175        48.544778031        11.475140431
    37.149366199        46.816019742         9.859295027
    37.491640221        48.860086147        11.511929545
    39.219987123        48.558544895         9.529130701
    41.365399811        46.812265143         9.512127067
    41.094475253        48.529524972        11.522588074
    45.042244266        46.816489067         9.903679515
    43.130516722        48.840609163         9.867109198
    45.326077444        48.861181238        11.562252802
    49.231678296        48.857426639         7.799292180
    49.227610125        46.793726809         9.601021069
    47.065846519        48.587877702         9.560637436
    48.931650668        48.511612405        11.587601971
    52.834748031        48.460143107         7.832518033
    52.878167935        46.769791239         9.976320043
    50.990614717        48.813075435         9.921620850
    53.202917527        48.888167420        11.614545230
    54.890035079        48.523580190         9.594082085
    56.700371278        49.039759365        11.604105499
    57.105780188        48.635201296         7.830517605
    57.041706491        46.830959918         9.896678018
    58.818402044        49.030216425         9.860170214
    60.648374992        46.860605608         9.448238410
    62.709216659        48.739156763         9.373097347
    60.991353121        48.718506467        11.530183447
    64.882558907        46.899872459         9.718608704
    66.607854680        49.105855956         9.711450924
    64.518066411        49.102336019        11.477172115
    68.470060063        46.932412319         9.327868929
    70.526598856        48.804001821         9.311490428
    68.791445590        48.777876068        11.448822305
    72.667004563        46.928735940         9.636809969
    74.432903815        49.085518543         9.610116763
    72.353285974        49.122751652        11.418722121
    76.294952729        46.968002791         9.247289205
    76.573387757        48.813153656        11.373962553
     1.991886164        50.922221560         9.247476745
     2.335216346        52.763304943        11.320419858
     0.100371172        53.045760316         9.598489277
     6.205416286        50.943810506         9.598801844
     4.017319094        52.781452173         9.138328413
     5.799397150        53.242485672        11.279629889
     9.759542791        50.873489991         9.652375796
    10.186544302        52.970042564        11.272503365
     7.899136792        53.146352287         9.570045697
    11.825939075        52.567048912         9.231879661
    13.647462746        52.530832674        11.317606757
    13.973307615        50.841263014         9.281202704
    15.717301329        52.848956739         9.661440234
    17.594527651        50.820378056         9.672848923
    17.939461632        52.876881570        11.341924455
    19.633385546        52.557662414         9.330431977
    21.467504900        52.459573509        11.379526243
    21.776842382        50.800822851         9.355281039
    23.547670380        52.806013510         9.741019745
    25.415195679        50.761477780         9.759648727
    27.434886228        52.509556611         9.414293654
    25.722733777        52.805231302        11.416690437
    29.632950440        50.780563660         9.411855632
    31.331646632        52.793811062         9.784341505
    29.257739877        52.467004486        11.416940490
    33.215914020        50.760852014         9.811065968
    35.250547276        52.502829621         9.444643891
    33.521809203        52.824473623        11.442946049
    37.425688907        50.733318286         9.511001826
    37.106337465        52.414831201        11.488705831
    39.173203154        52.777150028         9.853356258
    41.084852464        50.735039144         9.865702647
    41.395754627        52.777384691        11.534746923
    45.311212972        52.829949080         7.761315312
    45.272017707        50.728077491         9.545009095
    43.109784696        52.485855703         9.513127280
    44.985133400        52.442912475        11.571254727
    48.942055798        50.722836696         9.952033601
    47.049652068        52.747504338         9.920714406
    49.266101284        52.796314128        11.592165446
    53.276066376        52.806169951         7.792446967
    51.005792125        52.488202328         9.552416929
    52.849534269        52.389800539        11.573598978
    53.183437246        50.690218615         9.539695460
    54.930638557        52.791229775         9.985103170
    56.793626280        50.745051409         9.471305841
    57.183075442        52.582771296        11.584695100
    58.814959745        52.671786587         9.390538576
    60.590481786        53.039346209        11.536215987
    60.997142442        50.802152605         9.774026800
    62.755844160        53.004225061         9.812691315
    64.586130045        50.853700124         9.338714998
    66.636801283        52.716216011         9.297862515
    64.985358464        52.706360188        11.478266099
    68.797626081        50.871612691         9.662159137
    70.550851415        53.046151420         9.714545336
    68.391513064        53.097073172        11.442102119
    72.396471176        50.855968528         9.280515057
    72.815023409        52.728966004        11.380526456
    74.470377931        52.749225196         9.182181537
    76.606402531        50.883502256         9.592394224
    76.211789921        53.111309361        11.334641648
     2.282901228        54.778507866         9.557011661
     0.067336840        56.645717002         9.660815100
     5.810357742        54.785547740         9.042151604
     5.799099860        56.548723189        11.292101305
     3.968501039        56.960242910         9.282577998
    10.083353574        54.748940397         9.195871964
     7.850240503        56.463149614         9.322867860
     9.784186520        56.400494739        11.277910771
    13.706607697        54.735799300         9.612961121
    13.984573320        56.803644833        11.321732639
    11.789403768        56.767193932         9.541227037
    15.672942616        56.476056049         9.240287708
    17.482887645        56.399321427        11.319888494
    17.868033933        54.721328449         9.286766393
    19.585271598        56.767819699         9.681225713
    21.463358495        54.686050860         9.717170897
    23.472174510        56.444376618         9.304270135
    21.797496175        56.764299762        11.349769882
    25.678218596        54.679636753         9.398915366
    25.290490584        56.389074500        11.394435680
    27.379183576        56.731603460         9.743520279
    29.257114005        54.684017119         9.767400384
    31.272892851        56.400651181         9.382943202
    29.624970565        56.775954664        11.427473992
    33.466575955        54.675491050         9.430797181
    33.130717126        56.322273922        11.446165487
    35.188820601        56.677552875         9.771557523
    37.109075657        54.650147505         9.798094445
    37.379374342        56.728161744        11.482610778
    39.117656970        56.400494739         9.441424453
    41.257436805        54.635363770         9.496498726
    40.937928895        56.346678817        11.500520857
    44.965966055        54.623552427         9.870078582
    45.238377060        56.688660231        11.523744571
    43.024900738        56.630698605         9.824193774
    49.140692082        56.727927082         7.773974268
    49.141787359        54.615261020         9.509063912
    46.956084129        56.359272369         9.514908911
    48.853338372        56.283398175        11.530902351
    52.943806313        56.385945667         7.787320871
    52.950221507        54.598912869         9.870078582
    50.920986401        56.617948612         9.782309821
    52.945605697        56.620999224        11.573567721
    54.878534672        56.518138849         9.770869876
    57.070340158        54.690118342         9.873704357
    58.767158733        56.904080363         9.587455669
    60.533996794        56.582514582        11.524651015
    60.688274364        54.715540108         9.378098417
    62.704209679        56.639224675         9.814222893
    64.944442050        54.765523211         9.732736724
    68.486410982        54.767400510         9.294861874
    68.296067508        56.616775300        11.481485538
    70.514159640        56.676536005         9.759742497
    72.746177434        54.774205721         9.628089355
    76.283530556        54.791414301         9.170460282
    76.119786664        56.655494605        11.375431617
     2.135563019        56.996693811        11.322201489
     1.768590504        58.696119293         9.311146605
     5.993010807        58.670697528         9.630183552
     9.542677970        58.623608595         9.592050401
    13.852905393        58.632369327         9.148049241
    13.867222226        60.321547882        11.328140258
    11.718445474        60.314116905         9.595988743
    17.329548883        58.620792646         9.607866282
    19.520572029        60.344466582         9.654001144
    21.619826619        58.623217491         9.203623621
    21.670835228        60.314038684        11.388871990
    25.121270307        58.604366274         9.666566330
    27.335763671        60.310518747         9.730454986
    29.412330384        58.598499713         9.260979631
    29.474917634        60.249819393        11.421879046
    32.968146745        58.585045732         9.723140923
    35.152598230        60.314116905         9.759054850
    37.202721830        58.557512005         9.308083450
    37.297541513        60.237616945        11.480610350
    40.791396497        58.567993594         9.759773754
    45.065636250        58.532090239         9.370815610
    42.992042432        60.277744224         9.810972198
    45.140897418        60.223537198        11.554126065
    49.032416140        60.223380756         7.817952419
    48.653919747        58.521373987         9.849199119
    52.912199752        58.582620887         9.506844687
    50.830000187        60.281264161         9.904992296
    52.961096041        60.281029499        11.641300950
    56.520824105        58.689705186         9.579954065
    56.425847954        60.426598440        11.655960333
    56.798946196        56.922775138        11.566159888
    60.762596723        58.665613174         9.909024408
    66.625222642        56.953750582         9.448926057
    64.780306987        56.949683099        11.519118582
    64.421134408        58.687436783         9.532975273
    68.639749743        58.673513477         9.850855723
    74.429852687        56.954298128         9.329244223
    72.619125317        56.996146265        11.414439956
    72.262143291        58.683760404         9.435673224
    76.456975472        58.708712845         9.756241749
     1.720484379        60.568178120        11.372243436
     2.081691044        62.604031339         9.724141137
     0.016500894        60.884346665         9.381286598
     3.934226696        60.543929667         9.700448572
     5.676014210        62.561792097         9.248789525
     6.065768485        60.895766904        11.315418789
     7.832246669        60.680112110         9.043433128
     9.856553028        62.503986913         9.165740523
     9.491982298        60.756846732        11.316043923
    13.452581697        62.513608074         9.598207967
    17.266726931        60.695599832        11.335360552
    15.645638928        60.658992489         9.170960389
    17.661104838        62.541767568         9.259729364
    21.310645606        62.542706218         9.635153365
    23.423747626        60.680503214         9.187776483
    25.084187362        60.673541561        11.414252416
    25.503834871        62.501170964         9.315272487
    31.258654252        60.616831469         9.285141046
    29.094543624        62.498667898         9.683413681
    32.913304668        60.645069184        11.469701769
    33.333343347        62.498824339         9.353280611
    36.923426228        62.467301350         9.757023166
    39.063127829        60.585543142         9.365376947
    41.155263120        62.429442474         9.414606220
    40.767222171        60.603221046        11.528745640
    44.761462217        62.447355041         9.821630726
    46.911412480        60.561764013         9.399728040
    48.582726750        60.595868290        11.613326220
    48.981955170        62.432101982         9.499968217
    52.510154907        60.661808439         7.860117682
    52.609355698        62.512043657         9.965567744
    56.866618660        60.908908001         7.847927577
    54.762122387        60.836710187         9.627964328
    56.802936133        62.570631050        10.029706455
    60.412968699        60.495745643         7.823641135
    58.685638840        60.543538563         9.995417875
    60.460065605        62.571804362         9.622619435
    62.617291636        60.834520004         9.559949789
    60.776757089        60.851806805        11.604511836
    66.551291453        60.569898978         9.867640561
    64.340005685        60.485420495        11.572942587
    64.650907848        62.583146381         9.931841785
    70.497730487        60.827089026         9.512345863
    68.338392136        62.562104981         9.508063698
    68.614088971        60.882156482        11.539810505
    72.208161788        60.524765566        11.479860190
    74.401688424        60.589688845         9.779215409
    72.484562730        62.606612626         9.824006234
    76.078557313        62.611931641         9.418263252
    76.447274448        60.925725477        11.425536078
     1.755900939        66.518513933         9.393820527
     2.088841637        64.796560855        11.393935573
     0.012728995        64.483208260         9.785029152
     3.941416407        64.754478055         9.341371816
     5.963673033        66.503026211         9.707012475
     5.651628653        64.382146964        11.341518118
     9.900755273        64.185030504        11.343487289
     7.845468225        64.251987523         9.596832673
     9.589305471        66.449601393         9.665628629
    11.739099266        64.578246553         9.235349152
    13.813866596        66.461960282         9.270137839
    13.489899344        64.606640710        11.368742688
    15.654792313        64.291880140         9.589956203
    17.410129967        66.475101379         9.635153365
    17.737774219        64.273889352        11.375212821
    19.559610826        64.576369254         9.278108293
    21.300866348        64.641996520        11.415065089
    21.618653108        66.465636660         9.319804706
    23.488290727        64.285544254         9.652907160
    25.242767806        66.461256295         9.700323546
    27.392405133        64.559786440         9.346841735
    25.557659906        64.255507460        11.445509097
    31.318659778        64.254255927         9.706856192
    29.446831606        66.413072271         9.372440957
    29.143439913        64.589745014        11.483485965
    33.392957703        64.212329569        11.518962299
    35.221913609        64.523726644         9.409948975
    33.095981203        66.408144360         9.762086748
    37.293238640        66.371380575         9.426733813
    36.937977763        64.570893797        11.543873874
    39.118282842        64.203959941         9.804126985
    41.183818552        64.185108724        11.577912400
    40.884573265        66.380219528         9.849199119
    45.086837681        64.131527464         7.831455305
    43.025370142        64.487275743         9.476213140
    45.114376071        66.345645926         9.478088540
    44.784150095        64.534051792        11.586758041
    48.677155264        64.523570202         7.855460437
    46.979554348        64.189489090         9.838821901
    48.699060801        66.385538543         9.906992723
    49.039378972        64.168291249        11.637018784
    52.928394203        64.211312698         7.899282304
    50.855113321        64.506830947         9.543758828
    52.912903859        66.415418896         9.598364251
    56.484992905        64.332476745         7.899313561
    54.781524434        64.404205234        10.077185354
    56.512453060        66.486678060         9.641060878
    56.855118253        64.810953486        11.682340972
    58.673903731        64.728586965         9.641404701
    60.375729286        64.426967492        11.658960975
    60.764943745        64.743761803         7.846552283
    60.732711312        66.463446478        10.012140200
    62.618778083        64.439248161         9.979164401
    64.361363584        66.483001682         9.636966252
    66.557080774        64.708249552         9.587268129
    64.702151159        64.760109954        11.613482503
    70.454545284        64.469519617         9.885238073
    68.585064134        66.500757808         9.941187533
    68.215799360        64.426341726        11.576818416
    72.187351528        66.499349833         9.520910194
    74.355060923        64.770826206         9.462710253
    72.510536439        64.828318507        11.522556817
    76.381714304        66.544483245         9.836665190
    76.044760198        64.451372387        11.478078559
     2.073828521        70.442148363         9.843041553
     1.739667371        68.357094250        11.455542492
     0.022017490        68.712764308         9.492685411
     3.943959014        68.379465404         9.767212844
     5.662315426        70.398188264         9.384005929
     5.995177890        68.671541937        11.419659822
     7.856499228        68.532778206         9.231723377
     9.900129400        70.339679092         9.237287067
     9.541895630        68.595667744        11.405719342
    11.755059015        68.184852010         9.654845074
    13.567194598        70.387080908         9.658720903
    13.823645854        68.203546785        11.400655759
    15.693674642        68.494528227         9.302613531
    17.392918473        68.545371758        11.443539926
    17.746301732        70.373001160         9.335808127
    19.590435046        68.226543706         9.671973735
    21.362358321        70.411798686         9.718796244
    23.512934456        68.519167784         9.326243582
    21.681709763        68.205658747        11.451322840
    25.599828065        70.370106990         9.360469648
    27.431835100        68.218486961         9.736362499
    25.227981568        68.550768994        11.487174254
    29.212207653        70.364083987         9.809628161
    31.335088931        68.467933149         9.423545631
    29.476482315        68.152077487        11.528620613
    33.398981726        70.331074802         9.450488891
    35.242723869        68.145115834         9.798625809
    33.051857192        68.487644795        11.547093312
    37.003929078        70.320358550         9.841384949
    37.308181345        68.104753893        11.574817988
    41.212843390        68.071197162         7.831080225
    39.155287554        68.427180103         9.482652016
    41.210965772        70.291807952         9.518003323
    40.847568553        68.485063508        11.612982396
    44.768033878        68.453305856         7.878277814
    43.069337685        68.076437957         9.889520238
    44.790487054        70.295484330         9.958284937
    45.159595359        68.077454827        11.649708997
    49.033042012        68.084651142         7.904752223
    46.976816156        68.392215397         9.565357195
    49.054869316        70.303306412         9.579735269
    48.705867164        68.474112593        11.698531933
    52.576340923        68.519089563         7.950762058
    50.908625420        68.153094358         9.971725310
    52.632982384        70.370498094        10.029831481
    54.807028739        68.678972914         9.704918278
    56.850971848        68.735917670         7.959607699
    56.820460563        70.406870774        10.161172057
    58.682587712        68.338164812        10.051398591
    60.413985742        68.332532913         7.904908507
    60.410778146        70.370889198         9.745645734
    62.586467415        68.666770467         9.660002426
    64.661469447        68.677877823         7.878934205
    64.635261036        70.391383052        10.047366480
    66.489017140        68.333315121         9.958941328
    64.303079208        68.293970050        11.672995225
    68.231211471        68.331437822         7.827673247
    68.227378002        70.389349311         9.601114839
    70.425520447        68.680068006         9.560231099
    68.587567624        68.724810313        11.617577129
    72.486753284        68.693130882         7.764347210
    72.472123514        70.432214319         9.935936410
    74.334876535        68.378448533         9.875017138
    72.134856472        68.353730755        11.575599405
    76.034902707        70.455602344         9.490935037
    76.387581859        68.744756622        11.533746709
     1.737265585        74.335354895         9.502968859
     2.126362693        72.621849665        11.534653153
     3.911186765        72.594707042         9.395008281
     5.983161138        74.313765949         9.840384735
     5.590574791        72.202351421        11.454479765
     7.850788141        72.078762529         9.722203223
     9.586723747        74.271448487         9.733143061
     9.932753004        72.026823906        11.461356235
    11.766090018        72.406194871         9.332526175
    13.877079718        74.277862594         9.362813899
    13.523070587        72.472682566        11.462700272
    15.721838905        72.123035512         9.693853412
    17.468805513        74.311262883         9.780778244
    17.798483852        72.092529393        11.479735163
    19.639800739        72.419101306         9.356593820
    21.348041487        72.502406477        11.504146632
    21.734204818        74.281460752         9.391226223
    23.554476743        72.112632143         9.752428433
    25.325539443        74.256586532         9.806377466
    27.479636112        72.405178001         9.420607503
    25.623376518        72.067733394        11.543936387
    29.533593181        74.258385610         9.492716667
    31.378587069        72.085802403         9.830945217
    29.177549964        72.458681040        11.575036785
    33.104274013        72.419414190         7.816264558
    35.295375393        72.365285384         9.488997122
    33.136271745        74.247904021         9.860232728
    33.472443510        72.072113760        11.597822906
    37.339709672        72.037540158         7.842551427
    37.369516850        74.210983795         9.538726502
    36.980380625        72.412921862        11.630423625
    39.189554073        72.022599982         9.891333126
    40.885981478        72.359888147         7.874151932
    40.948334025        74.226158634         9.926434379
    41.261583210        72.019862253        11.667212739
    45.186194940        71.982863807         7.937321685
    43.084593328        72.329616691         9.542039711
    45.163976467        74.213877965         9.586299172
    48.675512348        72.358793056         7.966296629
    46.986047775        72.029092310        10.015609691
    48.729806787        74.194948527        10.019516776
    53.012574054        72.022521761         7.982456333
    50.896186204        72.401501622         9.596957700
    52.970875299        74.220448514         9.679350312
    56.406132970        72.120376004         8.019120421
    54.795606566        72.206575345        10.250784962
    56.487887565        74.274264436         9.722984640
    58.674920774        72.569676380         9.713732662
    60.803904308        72.536354312         7.974423366
    60.806486032        74.250798191        10.152826523
    62.578800477        72.216118285        10.162172271
    64.212640632        72.198518601         7.943604278
    64.298619866        74.280130998         9.692353092
    66.496449376        72.567642639         9.604990667
    68.621990611        72.631940151         7.887436022
    68.558073383        74.290769029        10.079623375
    70.393522716        72.255776239        10.033269716
    68.157593218        72.217056934        11.670213380
    72.072816861        72.252178082         7.838675599
    72.126016023        74.300155527         9.597020213
    74.325644916        72.645003027         9.503156399
    72.551609321        72.657205475        11.635112127
    78.228350216        72.307480200         9.943875607
    76.398456394        74.316425457         9.996636886
    75.963162071        72.225270120        11.586601757
     2.230327939        76.164705155        11.553000825
     0.073120606        76.506921232         9.832132971
     3.998402097        76.273744975         9.539570433
     5.995318712        76.535002506        11.524932325
     7.933168609        76.386539394         9.523504499
     9.749294129        76.438478017        11.483767275
    11.847296974        76.053944478         9.701136219
    13.939745202        76.032042649        11.511023101
    17.889783002        76.005134688         7.773255365
    15.791936624        76.319269491         9.430140791
    17.505262586        76.422208087        11.542561093
    18.024502057        78.214759043         9.505438137
    19.709741991        76.020074864         9.837227810
    21.602145721        78.199177777         9.956690847
    23.619176313        76.304172873         9.459928409
    21.819010542        76.017962902        11.575849459
    25.752228019        75.940915396         7.809950709
    27.511868545        76.016163823         9.900147510
    25.324600635        76.386226511        11.593665767
    29.411391576        78.182645807        10.009202072
    29.235130233        76.321850778         7.832080439
    31.422006974        76.311994955         9.533506637
    29.641712655        75.987222120        11.641832313
    33.549738764        75.926366324         7.875433456
    33.662474047        78.136104420         9.617399570
    35.351469216        75.991915369         9.933748443
    33.119451421        76.351340026        11.663837017
    37.098748761        76.282349265         7.915504522
    37.193255508        78.144474048        10.107066741
    41.464052963        78.131958717         9.693071995
    39.239076234        76.262481177         9.615211602
    41.325500439        75.924410804         7.939853477
    40.931748404        76.341640645        11.736852625
    44.860975944        76.307223485         7.962327031
    44.997024978        78.118035412        10.142793128
    43.150153472        75.934735952         9.997136992
    49.277914627        78.101765482         9.797094231
    49.107677308        75.904620937         8.028372398
    47.040029278        76.264671360         9.674192960
    52.763007396        78.101687261        10.280541323
    50.936163809        75.936769693        10.072590621
    52.765354418        76.329359976         8.046563787
    54.826274318        76.419157475        10.044990972
    56.680890996        76.533829193         8.057628652
    57.034039553        78.149323739        10.125977033
    58.735786874        76.115582482         9.750553033
    60.895751097        76.123326343         7.978799302
    62.620499232        76.444031695        10.045272282
    64.449142202        76.523112941         7.975079757
    66.545971537        76.178315578         9.628870772
    64.846805940        76.081947530        11.737040165
    68.446668078        78.196021567         9.554792437
    68.756787901        76.128332475         7.916754789
    70.447113048        76.459832300         9.974288358
    72.254398119        76.536566922         7.878246558
    72.662623456        78.199454835         9.911024835
    74.382990483        76.167677546         9.498124073
    72.694464719        76.077723606        11.648990093
    76.250828718         0.014990159         9.475556749
    76.204905324        76.521000979        11.597541596
     2.401238071         1.768760415        15.326057355
     0.112270573         2.143813591        13.591530332
     1.961719110         0.027055016        13.135057756
     4.073326859         1.890714492        13.144247220
     5.872428647         2.393017294        15.266200810
     6.230521596         0.068293735        13.564243249
     7.994347645         2.232296980        13.537768840
    10.282381028         2.153348709        15.285923776
     9.835195129         0.023513882        13.621505489
    11.928347463         1.721843569        13.222357667
    13.646836873         1.601406976        15.367534971
    14.084321749         0.013629586        13.248238199
    15.815954481         2.040788952        13.772662801
    19.735402763         1.688443280        13.309470038
    18.135437957         2.108481248        15.383100799
    21.486437543         1.620923070        15.407543523
    23.658058642         2.051067168        13.807889081
    27.566241219         1.631514169        13.372077171
    25.917145422         2.042275148        15.434017933
    25.468160139        78.175371271        13.797105525
    31.468947411         2.038434506        13.862713300
    29.288564098         1.599498388        15.480246564
    29.771737666        78.183506236        13.401489708
    33.244312985         1.588789958        11.703032896
    33.764569498         2.029407823        15.500438381
    35.368680710         1.615220772        13.412335777
    37.663989860         1.980152175        11.721036744
    37.070897435         1.554928166        15.527506667
    41.057392308         1.589978914        11.744041662
    39.288285460         2.000012440        13.956577114
    41.581169354         2.019379915        15.545385489
    45.457119498         1.968982242        11.787269652
    43.195685696         1.604606207        13.481538070
    44.889687845         1.538642592        15.603147836
    48.806710871         1.584362660        11.832716867
    47.105198252         1.967058010        14.005275024
    49.402150318         1.959423658        15.627621817
    50.995152292         1.563939204        13.524641033
    53.241721622         2.002038359        11.835748765
    52.677575800         1.484161792        15.658190852
    56.631447069         2.144361137        11.822339649
    54.849744537         1.961997123        14.096794587
    58.750181941         1.736955831        13.412116980
    57.134726791         1.618920617        15.611430856
    60.975002202         1.746968095        11.762795670
    60.541116093         2.177127837        15.544854125
    62.685668206         2.112712994        13.765442507
    64.511572984         2.144079542        11.735477331
    66.601283019         1.819846431        13.337819848
    64.959697692         1.715226088        15.492467927
    70.503519807         2.101503951        13.677111125
    68.368121080         2.210449906        15.472932501
    68.748495090        78.174589063        13.743375290
    74.409042426         1.829913450        13.256427450
    72.778409868         1.753069319        15.408981331
    76.223446796         2.277406926        15.352156684
     2.266777188         3.895967727        13.558241966
     1.937263142         6.171888457        15.331996124
     0.123743599         5.766071033        13.203041038
     5.978568799         3.998022427        13.082171451
     4.022701597         6.113301064        13.553584720
     6.316453890         5.718121672        15.252666667
    10.144689079         3.946592240        13.216668951
     7.983238409         5.856658562        13.109552304
     9.804292674         5.606907314        15.274515087
    13.744785919         3.892267882        13.732904302
    11.908163075         5.967716479        13.650105353
    14.122734673         6.013647743        15.338685054
    15.806018756         5.602832009        13.345352709
    17.652733794         5.542719311        15.369097805
    18.026144972         3.871289059        13.346884286
    19.719521249         5.913681538        13.714337833
    21.580474886         3.855676184        13.737780344
    23.643428872         5.568493070        13.388580699
    21.956076619         5.956304061        15.369785452
    25.445315793         5.507668562        15.401010877
    25.862694514         3.832483711        13.396144816
    27.559747792         5.900454398        13.759753791
    31.463549261         5.531244317        13.446843153
    29.415616215         3.837263003        13.823517421
    29.778152859         5.949295476        15.442175926
    33.647687809         3.805505351        13.460189756
    35.373140051         5.906469579        13.841114933
    33.302440893         5.481918269        15.474339052
    37.183710952         5.489881148        11.712347387
    37.205538256         3.810542772        13.867745626
    37.595691524         5.923834600        15.489654826
    39.280774990         5.533317168        13.503511517
    41.472736944         3.792278211        13.495259753
    41.109496193         5.431434553        15.533257896
    45.011732982         5.475691892        11.765202435
    45.043339543         3.770532824        13.926070593
    43.190052843         5.821967629        13.892032067
    45.415733679         5.888244128        15.556169044
    49.289180332         5.835515475        11.787738502
    49.278775202         3.761443565        13.588560947
    47.100660676         5.485367807        13.552615763
    48.908023981         5.417917996        15.602585216
    52.800325043         5.386379363        11.842406438
    52.799777405         3.755475316        14.031999487
    50.985685971         5.810414415        13.949919441
    54.863200795         5.439256635        13.567118863
    56.651866159         6.112385881        15.591176527
    56.980214518         3.789736034        13.941980244
    57.087708120         5.574930643        11.803116790
    58.757927114         5.968968012        13.837270361
    60.617707240         3.830700277        13.410460376
    62.692631038         5.684033040        13.346571719
    61.010129296         5.618820344        15.531976372
    66.583836823         5.997886248        13.717119678
    64.832097936         3.847416065        13.751158204
    64.446716946         6.086213195        15.507158567
    68.484689832         3.872376328        13.321816427
    70.524173600         5.750293894        13.272712181
    68.853641670         5.643874472        15.447145739
    74.441587796         6.059399099        13.636039846
    72.663327562         3.884187672        13.644447893
    72.310961346         6.155368220        15.410012801
    76.292840410         3.898861897        13.214449727
    76.699814001         5.714883330        15.356188796
     1.970755144         7.850475913        13.161188342
     2.381640438         9.652214225        15.312210645
     0.127100622        10.008197166        13.571619826
     4.042361817         9.726836885        13.132182141
     6.197225179         7.907107785        13.552490737
     5.856140315        10.236445512        15.248103191
     7.961019935        10.112309074        13.533611701
     9.874233926         7.885284177        13.591655358
    10.227304249         9.969321420        15.279422386
    11.913717693         9.588151376        13.260584589
    13.713335826         9.479033335        15.312867035
    14.085964664         7.814275319        13.273431085
    15.804845245         9.901895075        13.687300804
    17.633879385         7.781508619        13.703648048
    18.047815808         9.872953372        15.334402889
    19.688697028         9.514623807        13.304812793
    21.877138450         7.771191293        13.342102014
    23.625513272         9.813036226        13.702772861
    21.525476340         9.464014938        15.348218342
    27.543866277         9.440470472        13.400583265
    25.496324401         7.763228413        13.747188605
    25.868483835         9.864740187        15.393603043
    29.748971554         7.723069846        13.406178211
    31.448528321         9.807795431        13.807889081
    29.335661003         9.384855471        15.431861222
    33.323955260         7.734161558        13.838114292
    35.351312748         9.446649917        13.464253125
    33.663647558         9.837832225        15.473745175
    37.556652727         7.704594089        13.443029838
    37.172523482         9.328849365        15.487279318
    39.284999629         9.771813855        13.884749260
    41.138599265         7.686196552        13.882842603
    41.543382302         9.784250965        15.500313354
    45.392811099         9.773691155        11.748823934
    45.370592625         7.682895634        13.508543842
    43.201396782         9.414501161        13.483194674
    44.980595825         9.345588620        15.535977227
    48.913500365         9.369680632        11.786582005
    47.106293529         9.754214171        13.912567707
    48.919133218         7.654814360        13.955795697
    53.193685908         9.781669678        11.805148474
    50.997029910         9.346370828        13.553991057
    53.185784268         7.642189520        13.526453921
    52.767936142         9.245387753        15.597271580
    56.689574977         9.875612880        11.779861819
    54.877595863         9.754214171        13.995022832
    56.699510703         7.696255749        13.409303879
    58.772009245         9.532067049        13.390143533
    57.138716728         9.432179065        15.561701476
    60.976566883         9.577200461        11.722724605
    60.565525121         9.983088283        15.529382068
    62.663136796         9.895011643        13.723589811
    60.930721723         7.724469998        13.762848203
    64.533947925         7.731900976        13.333631453
    66.588139697         9.619283261        13.304312686
    64.936383941         9.523149876        15.461648839
    68.759134922         7.765551572        13.693177060
    70.527850601         9.958996272        13.673860431
    68.400979386        10.021572926        15.439394082
    72.389038940         7.799100480        13.241017906
    72.758460182         9.574853837        15.404074032
    74.430947963         9.683893656        13.239830152
    76.613991235         7.854934500        13.577496082
    76.211633453        10.065845908        15.341185589
     2.262333494        11.770981511        13.530267236
     1.920771401        14.006845360        15.281047734
     0.115776242        13.626144641        13.147591685
     5.930493968        11.823545900        13.064011319
     4.063602365        13.965075443        13.526141354
     6.351361929        13.551365539        15.250697496
    10.136474502        11.776222305        13.234891596
     7.925188734        13.658371618        13.076201425
     9.800615673        13.458673870        15.267638617
    13.781399460        11.735625701        13.651574417
    11.908867181        13.811527978        13.622318163
    14.139867933        13.828736558        15.286830220
    15.809461054        13.476977542        13.294279291
    17.614790273        13.374977596        15.307772196
    18.004082967        11.724518345        13.314408594
    19.721790037        13.763578617        13.703710561
    21.567175096        11.669450889        13.722995934
    23.612995822        13.410333405        13.340726720
    21.962961216        13.785715109        15.347374412
    25.822403972        11.656700896        13.355167307
    27.528375933        13.738704397        13.748376359
    25.438978834        13.375681583        15.360158394
    31.456742898        13.343532827        13.407178424
    29.381819100        11.656231571        13.788478681
    29.800214865        13.774294869        15.404511625
    33.659657621        11.666478498        13.428589251
    35.363360793        13.681446759        13.804513359
    33.240401282        13.325698481        15.437081087
    37.234954263        11.604371169        13.866901695
    37.596786801        13.722434467        15.487685655
    41.447154406        13.694744298        11.723756075
    39.266849327        13.378966857        13.493384352
    41.426422379        11.614070551        13.492821732
    41.102533362        13.276028261        15.502157498
    45.031291497        13.280565069        11.754575163
    43.185124097        13.644526533        13.867870652
    45.039584308        11.595375775        13.895345275
    45.451173709        13.686452891        15.532695276
    49.286598608        13.632793410        11.762795670
    49.267274795        11.580357378        13.555897715
    47.098000718        13.291515983        13.523859616
    48.907476343        13.269223050        15.566358722
    52.824029964        13.190767570        11.758513505
    52.797117447        11.553449417        13.987552486
    50.986624780        13.635687581        13.936354041
    53.253613200        13.738469735        15.586144201
    54.857020304        13.236057424        13.479600155
    56.619320789        13.858382248        15.532914073
    57.101086144        13.391482188        11.762826927
    57.028328467        11.591386513        13.836082607
    58.774278033        13.805583196        13.789072558
    60.593141745        11.632687105        13.333225116
    62.687858760        13.493403913        13.318034369
    61.029296641        13.412367146        15.481996939
    66.600657146        13.808555587        13.666171287
    64.829985617        11.656466234        13.680361820
    64.469561292        13.896319345        15.458366887
    68.473032957        11.673987697        13.282214212
    70.513533767        13.553633943        13.269899080
    68.861465076        13.482218336        15.410919245
    72.689457739        11.713880314        13.618411078
    74.446985946        13.894363824        13.579996616
    72.324574073        13.935742637        15.388664488
    76.297769156        11.730776010        13.196039541
    76.709202089        13.507874765        15.326619975
     1.971036786        15.689218704        13.165376737
     2.377916497        17.511450870        15.276953108
     6.212465175        15.777999332        13.578840119
     4.061364871        17.582318931        13.109583560
     9.847869047        15.697744773        13.601126133
    11.891890390        17.429866557        13.192882617
    13.698393120        17.305730120        15.251197603
    14.063355020        15.673574541        13.249676007
    17.679098673        15.632117507        13.628475729
    15.816971524        17.723976831        13.623599687
    19.696755137        17.376363518        13.296936109
    18.022467972        17.732190017        15.295957171
    21.517183530        17.281638108        15.344280000
    21.864542766        15.610215678        13.325254662
    23.617455163        17.629094980        13.677204895
    27.524698932        17.315429501        13.374827759
    25.475514141        15.598717218        13.715556844
    25.822091036        17.688464580        15.351031443
    29.716269716        15.584402809        13.363419070
    29.357723009        17.262082904        15.394634514
    31.446416001        17.594756041        13.741281092
    33.303770872        15.544119088        13.790822933
    35.331597764        17.295639634        13.402833746
    33.659422919        17.646303560        15.426203762
    37.518630973        15.544197308        13.446374303
    37.189422039        17.162038478        15.449458733
    41.117241366        17.243935674        11.675527016
    41.151038480        15.519792413        13.837395388
    41.529065469        17.596007574        15.495437312
    39.272951583        17.563702376        13.825767902
    45.365898581        15.487487216        13.491446438
    43.178552436        17.197237846        13.482475770
    44.999528468        17.158831425        15.510628059
    48.878920910        17.201305328        11.738634256
    47.090099078        17.547745329        13.875466026
    48.939161138        15.484593045        13.857649717
    49.349655262        17.579424761        15.536383564
    53.213713828        17.591705429        11.736571315
    51.004696848        17.173224055        13.515764136
    53.165208709        15.453382939        13.465128312
    52.783270018        17.034147441        15.546948323
    56.676275187        17.711696163        11.746667223
    54.865626051        17.544929380        13.948325350
    56.709915833        15.499611442        13.371514551
    57.099208527        17.254495484        15.524881106
    58.743375578        17.352427948        13.351979125
    60.925010636        15.537704980        13.736092483
    62.694195719        17.716467633        13.696771578
    64.516032325        15.556712639        13.302687338
    66.600187742        17.420714722        13.270274160
    64.947806114        17.329743911        15.447145739
    68.759526093        15.599812310        13.637946504
    70.532779346        17.769892451        13.623162093
    72.383093151        15.621792359        13.222326410
    74.452775267        17.477581256        13.188881761
    72.785294465        17.397248476        15.370379329
    76.629559813        15.668881292        13.579246456
     0.127427641        17.864852524        13.550959159
     2.273466201        19.595253450        13.518764777
     5.869995567        18.082775722        15.228692792
     5.920573889        19.677541750        13.021939826
    10.263526619        17.813383226        15.241039181
     7.958907615        17.937754326        13.507324832
    10.148600782        19.623178282        13.148873209
    13.725383871        19.565920643        13.619411291
    17.609313889        21.190567024        15.263450222
    15.807896373        21.333398237        13.237579671
    17.989374963        19.555204391        13.250801247
    21.565297478        19.530564834        13.683018638
    23.600400138        21.238047061        13.295154478
    25.817631695        19.498650740        13.316846615
    25.393916014        21.166318571        15.330089467
    29.349664901        19.493879271        13.724777565
    31.423024017        21.199249535        13.374765246
    33.624999931        19.462669164        13.393269201
    33.243452410        21.106714308        15.392259006
    37.202878298        19.435604761        13.830206351
    41.435028126        19.412373179        13.472504889
    41.097448148        21.075738864        15.467712635
    39.252532493        21.161234218        13.437091069
    45.052805864        19.382336385        13.831581645
    49.303731868        19.374123199        13.536956166
    48.909979833        21.038975080        15.535445864
    47.103790039        21.118525651        13.478537428
    52.791484594        21.010815586        11.750886875
    52.810573706        19.352221370        13.966485482
    54.867738371        21.074878435        13.471629702
    57.078085330        21.211843087        11.721661878
    57.023712657        19.392739753        13.793385980
    60.522965791        17.790699189        15.466212314
    60.611292047        19.434744332        13.310220199
    62.680348290        21.296947336        13.276369213
    61.045021688        21.202300147        15.452896968
    64.841798960        19.458210578        13.678486419
    68.376726826        17.837318796        15.391633873
    68.471702978        19.503891535        13.246737879
    68.845114157        21.279582315        15.385820130
    72.705104551        19.529939067        13.588342150
    76.236355417        17.924691449        15.319555965
    76.300742050        19.567406839        13.145278691
     1.999240166        23.529056586        13.136870643
     1.915474955        21.825094296        15.260605864
     0.124266984        21.462619028        13.132432195
     6.327649184        21.389873667        15.226848648
     4.046124875        21.798342777        13.461471280
     6.235231287        23.583028950        13.513013548
     9.816497188        21.294913595        15.214345975
     7.968530405        21.513853663        13.025503087
     9.853501899        23.539772838        13.550959159
    11.896115029        21.670138857        13.599625812
    14.048099378        23.502461508        13.212230502
    14.146048424        21.686878112        15.233193754
    17.685983270        23.472346494        13.615785516
    19.706769097        21.606467111        13.674016714
    21.874009087        23.458344967        13.268117449
    21.958423641        21.617652688        15.315586367
    27.519848420        21.548114381        13.723120960
    25.447506346        23.410943152        13.692864493
    29.722293739        23.392874143        13.338976346
    29.779795774        21.578776942        15.385163740
    35.354363876        21.510881272        13.787290927
    33.282725909        23.385052061        13.768911999
    37.592796864        21.549757019        15.431923735
    37.532634870        23.364479986        13.375890486
    41.124360665        23.342187053        13.795886515
    45.424730596        21.492030055        15.489748596
    43.187705822        21.466217185        13.839114505
    45.353772302        23.286728493        13.454876120
    49.304670676        21.431017818        11.728788401
    48.914048004        23.281331257        13.870308673
    50.986546545        21.415373654        13.923601315
    53.175926776        23.269598134        13.445124036
    53.260967202        21.540292300        15.560076129
    52.773725462        24.870465387        15.538540275
    56.706864705        23.308004556        13.342102014
    56.587948931        21.644169545        15.504814316
    58.775920948        21.576977863        13.751189460
    60.922820083        23.363306674        13.688832381
    66.588765569        21.650036107        13.650824256
    64.546621844        23.374726913        13.248644536
    64.451567458        21.745074400        15.426516329
    70.524721238        21.362261719        13.193413980
    68.765628350        23.401556654        13.631351344
    74.434155560        21.736000785        13.555428865
    72.353520676        23.442075037        13.157062460
    72.310804878        21.806086638        15.315336313
    76.681194294        21.341298540        15.279266103
    76.605463722        23.499723780        13.514701409
     2.298062990        27.432118941        13.437747459
     2.379754997        25.342762683        15.215002366
     0.130070387        25.673558521        13.490383710
     4.059252551        25.402288725        13.021502232
     5.907829560        27.512764604        12.961833227
     5.819292072        25.923630474        15.167179643
    10.151104272        27.470290700        13.116272490
     7.954370040        25.800119803        13.434934358
    10.221671396        25.655333070        15.202030843
    11.874444194        25.295360868        13.168533662
    13.758633348        27.422888885        13.563336805
    13.687675053        25.158709099        15.222191402
    15.808913416        25.524313201        13.598688112
    17.987340878        27.392148103        13.208010850
    19.689948773        25.197506625        13.226796116
    18.034985422        25.572966549        15.244508673
    21.525867511        25.113575688        15.288768134
    21.585403632        27.360703335        13.609565437
    23.647731746        25.495293277        13.644729203
    27.506313927        25.158630879        13.321066267
    25.803236627        27.349283095        13.312939530
    25.851115873        25.534247245        15.330933397
    29.317823637        25.055535841        15.364034223
    31.433037977        25.461658326        13.761004058
    29.386356676        27.301255513        13.681518317
    35.362421985        25.118894703        13.380672759
    33.600199734        27.300238643        13.380266422
    33.677338519        25.449768762        15.401761037
    37.215239280        27.280448776        13.821391967
    37.162900692        24.992568083        15.415951571
    39.261060006        25.419810188        13.801919054
    41.466556453        27.277241722        13.428245428
    41.534228917        25.450238087        15.446926942
    44.969330120        24.984433118        15.485966537
    43.191148120        25.051468359        13.427057674
    45.040131946        27.219045434        13.834832340
    49.248342152        27.201523971        13.477255904
    47.086422077        25.333610848        13.834363490
    49.343787708        25.374754998        15.481215522
    50.991553525        24.975594166        13.461252483
    52.798056256        27.187757107        13.938135672
    54.882994013        25.359110834        13.950669601
    57.004388844        27.212787769        13.755002776
    58.773730394        25.188433010        13.283745789
    57.134492089        25.076499020        15.488529585
    60.553007671        25.609886775        15.444020071
    60.608945025        27.247908916        13.262647529
    62.656799837        25.534325465        13.677142382
    66.574996374        25.243344024        13.204103765
    64.822475147        27.290304599        13.601282416
    64.938418027        25.201417666        15.385757616
    68.447763355        27.311893545        13.233391276
    70.507587978        25.562406739        13.571494799
    68.352787203        25.630145967        15.362065052
    72.663640498        27.362033089        13.546583224
    74.428835644        25.316715151        13.129400297
    72.766127120        25.229029614        15.309710111
    76.292449239        27.407010059        13.072606906
    76.215701624        25.764763994        15.274546344
     1.971701776        31.342221170        13.069262441
     1.881020674        29.655780343        15.186246219
     0.109691979        29.276487599        13.075670061
     6.222087964        31.419894442        13.463159141
     4.038512701        29.635364710        13.402458666
     6.303631327        29.217039777        15.161490927
     7.959455254        29.334058120        12.972523012
     9.839498002        31.391813168        13.487383069
     9.766818558        29.127164058        15.158959136
    11.872488342        29.497148525        13.558929613
    14.076185406        31.308507997        13.175535158
    14.122265269        29.516781950        15.230443166
    15.804219372        29.122392588        13.204978952
    17.602742228        29.033533739        15.234600305
    17.647179175        31.285667519        13.580903060
    19.710446097        29.428939972        13.622661986
    21.896462263        31.269397589        13.251863974
    23.603216564        29.091026040        13.275431512
    21.947392638        29.442941498        15.282673081
    25.463231393        31.230756505        13.634789579
    27.519066079        29.398042749        13.674673104
    25.418090339        28.990590510        15.306990779
    29.701092308        31.233650675        13.264335390
    31.423336953        29.041355821        13.315283781
    29.760159025        29.391863304        15.321681420
    33.290627550        31.209011117        13.736936414
    35.355380919        29.330772846        13.777976436
    33.247285879        28.949915685        15.371535826
    37.506974097        31.201501919        13.390831180
    37.617440593        29.377236012        15.408700021
    39.276315648        29.011944794        13.401239655
    41.131636433        31.168962059        13.787978574
    41.092675870        28.923477049        15.439300312
    45.385613565        31.120543373        13.427870348
    43.218217106        29.316536657        13.797949456
    45.437952152        29.321933894        15.483809826
    47.078051032        28.921130424        13.435965828
    48.928990710        31.099345531        13.829674988
    48.872192781        28.897820621        15.478808757
    50.991084121        29.272185454        13.884655490
    53.205421017        31.092227437        13.416961766
    53.227561257        29.365659331        15.539540489
    54.850839814        28.886947927        13.422775509
    56.567842777        29.490343314        15.476714559
    56.721103304        31.108575588        13.321941454
    58.764342307        29.404456856        13.725152645
    62.665014414        29.159391035        13.239486329
    60.887692989        31.177488128        13.639196771
    61.035477132        29.056999984        15.416732988
    64.533634989        31.216129212        13.200321707
    66.572492884        29.453970634        13.603220330
    64.449533372        29.569033456        15.370879436
    70.493505847        29.191539791        13.155968476
    68.732300639        31.252580113        13.566993837
    68.842454199        29.117386456        15.326463692
    72.346792547        31.279800957        13.127118559
    74.435642007        29.555344813        13.516076703
    72.306189068        29.618234351        15.304146421
    76.574248331        31.312184376        13.473755156
    76.676734953        29.168073545        15.249916079
     2.270368132        35.240512055        13.400426981
     2.372260174        33.121197224        15.176744188
     0.101853708        33.466620354        13.445717913
     4.048276312        33.201217120        12.984087984
     5.895523342        35.306843308        12.918824034
     5.830463896        33.709261330        15.125952080
     7.958203509        33.631196954        13.405521820
    10.144610845        35.284472154        13.082765328
    10.229964207        33.500959293        15.144581062
    11.881094089        33.058777011        13.130150457
    13.728669702        35.241528925        13.530142209
    13.707859442        32.995652811        15.173118413
    15.796943604        33.370643411        13.552584507
    17.985385026        35.213525873        13.184099489
    18.009559351        33.367123474        15.230880760
    19.693078136        32.996122136        13.223576678
    21.561385775        35.160413938        13.601469956
    21.504666080        32.967493317        15.248509528
    23.604624777        33.318235463        13.634883349
    25.745969294        35.169800436        13.269180176
    27.514137333        32.981260181        13.288590575
    25.820135185        33.306424120        15.280422600
    29.379315610        35.149306581        13.677048612
    31.424823400        33.274197143        13.711180908
    29.304054442        32.859235706        15.310929121
    33.601920883        35.131081131        13.329474314
    35.344271682        32.961235652        13.357198991
    33.693845906        33.301261546        15.350625107
    37.175965780        35.105502924        13.734592163
    37.157424308        32.848128349        15.385351280
    39.256991835        33.249401144        13.774506945
    41.429629976        35.077578092        13.374608962
    41.518503871        33.265123528        15.412825903
    43.191930461        32.921186593        13.390831180
    45.041618393        35.068817360        13.779539271
    44.977779399        32.800491872        15.410419138
    49.258043175        35.040892528        13.452094276
    47.104102975        33.193160376        13.787603494
    49.326732682        33.190579089        15.464524454
    50.985607737        32.836629889        13.456470211
    52.784052358        35.027047444        13.884780517
    52.753384606        32.734317060        15.494624638
    54.847319281        33.210916501        13.871465171
    56.973799325        35.024231494        13.732029115
    57.064863774        32.880981093        15.469994373
    58.734143959        33.015364457        13.274306272
    60.595723469        35.068895581        13.222451437
    60.521401110        33.427822828        15.412044486
    62.656252199        33.355781455        13.638259070
    64.816372890        35.109805069        13.563336805
    66.562165988        33.060888973        13.189163071
    64.918077171        32.996904344        15.367034864
    68.409976303        35.154078051        13.158875347
    70.481457802        33.420861176        13.533267877
    68.364052908        33.499707760        15.321337596
    72.647680750        35.183958404        13.468691574
    74.410137703        33.148965614        13.096049417
    72.753531436        33.061984065        15.260011987
    76.298473262        35.215637835        13.043788246
    76.193717853        33.585203113        15.230974530
     1.876522216        37.500233253        15.149019511
     0.086059033        37.104435916        13.018939184
     4.015942174        37.448059968        13.370358054
     6.262871381        37.026293320        15.126983551
     7.950223634        37.146753379        12.946111117
     9.782074201        36.951670660        15.124170449
    11.871393066        37.316648995        13.494040742
    14.132044527        37.286768642        15.161428414
    15.790137241        36.932506559        13.164126470
    17.585217798        36.839502007        15.196998517
    17.642798068        39.104933326        13.561305121
    19.702700925        37.267917425        13.600751053
    23.573644089        36.892144618        13.211105262
    21.932136996        37.268621413        15.237413406
    27.500602841        37.181639863        13.640665835
    25.397984185        36.821354778        15.267326050
    25.471915374        39.034456369        13.581121857
    31.424119294        36.858196783        13.301187018
    29.742634595        37.239132164        15.301552117
    29.689904837        39.056592860        13.259146781
    35.337856489        37.181639863        13.704335695
    33.266609692        36.792334854        15.335153049
    33.258629818        39.016856685        13.682299735
    37.589589267        37.204949667        15.346999331
    37.501888883        39.009816812        13.308844905
    39.258869452        36.844273477        13.336006961
    41.060599905        36.740083348        15.376349355
    41.133826987        38.992217128        13.729403553
    43.165017943        37.122270263        13.764942400
    45.436543939        37.157391410        15.406637080
    45.350564705        38.956704876        13.362325087
    47.080398054        36.765739776        13.369014016
    48.864212906        36.747201443        15.417733202
    48.945732799        38.951933407        13.758659807
    51.008686785        37.112649102        13.823579935
    53.190087141        38.904766254        13.354667200
    53.253378498        37.197440469        15.500938488
    54.851543920        36.684703009        13.404365323
    56.552430666        37.285438888        15.449208680
    56.687149721        38.982595967        13.308063488
    58.742202067        37.206044758        13.690864065
    62.657112773        36.944474345        13.163157512
    61.028905471        36.847636972        15.368722725
    60.900288673        39.001134301        13.626975408
    66.561853052        37.299049311        13.575058061
    64.438424136        37.356463391        15.330839627
    64.508991260        39.017638893        13.177504329
    70.500546913        37.004860816        13.127118559
    68.826963854        36.923511165        15.301052010
    68.718922614        39.063789176        13.521734162
    74.406695404        37.339724136        13.481756866
    72.279511253        37.415129004        15.256198672
    72.358449422        39.066057579        13.108302037
    76.656785267        36.976701321        15.206438035
     1.948857430        39.153430233        13.004998704
     2.338416119        40.947659346        15.128296331
     0.073218242        41.261246604        13.397457597
     6.204774766        39.217101978        13.414304948
     4.028897735        41.038708378        12.974585953
     5.829556381        41.538774064        15.078910775
     9.796234566        39.184171014        13.459970959
     7.927613990        41.434114610        13.344540035
    10.216664416        41.295194438        15.099946521
    14.049116421        39.132936378        13.126305885
    11.847218740        40.887742200        13.105520192
    13.690647948        40.808582732        15.139048630
    15.778323898        41.166364752        13.500979725
    18.005569414        41.193038051        15.167210900
    19.679621877        40.821802050        13.177535586
    21.857188764        39.091166462        13.185318500
    21.521799339        40.737010684        15.213220735
    23.600556606        41.106760489        13.577902419
    27.490197710        40.738027555        13.237735954
    25.823264547        41.111375517        15.243695999
    31.420833463        41.084623998        13.634039418
    29.311330210        40.698291380        15.284579739
    35.309692227        40.738966205        13.289153195
    33.660127025        41.105352514        15.307615913
    37.133797621        40.657225450        15.332496231
    39.253158366        41.033232920        13.698115615
    41.488931395        41.097608653        15.330995911
    43.181760033        40.720897196        13.342070757
    44.986385145        40.628205527        15.375817992
    47.076877521        41.029400100        13.740530932
    49.301932484        41.028930775        15.415982827
    50.997655782        40.653157968        13.392925378
    52.757531011        40.524875827        15.457616727
    54.852091559        41.067493638        13.854617819
    57.108205444        40.736776022        15.420108709
    58.751198984        40.861694667        13.264585444
    60.560205204        41.240674529        15.372942377
    62.675419544        41.177628550        13.581809504
    66.574761672        40.917231448        13.145403717
    64.919720086        40.786289799        15.309772624
    70.472304416        41.205631602        13.502542560
    68.356620672        41.340640733        15.289049444
    74.384242228        40.973550437        13.081890141
    72.762919523        40.877808156        15.231849717
    76.544206451        39.134187911        13.426182487
    76.180809233        41.389763407        15.187121406
     2.234122291        43.075030921        13.369982974
     1.854327212        45.288523617        15.109667349
     0.067331442        44.920494670        12.987307423
     5.871028257        43.115705746        12.902289249
     4.011013428        45.231422420        13.338226185
     6.289361434        44.816226320        15.066939466
    10.129981075        43.082696561        13.026472045
     7.928865735        44.946072877        12.888348769
     9.766975027        44.722204898        15.095132992
    11.852382188        45.098368809        13.430839732
    13.737823087        43.043038607        13.462440237
    14.082522365        45.121287509        15.135610395
    15.765493511        44.732686487        13.120742196
    17.561904047        44.673160445        15.159803066
    17.967860596        43.001659794        13.127587409
    19.667965002        45.039859638        13.528204295
    21.544330749        42.986328514        13.555647661
    23.599461329        44.683016268        13.176910452
    21.923687717        45.059101959        15.186058679
    25.780001111        42.953553992        13.222013844
    27.475333238        44.978534517        13.617004527
    25.397671249        44.642341443        15.238413620
    31.389774540        44.674411978        13.271555684
    29.346144368        42.944558598        13.653105994
    29.748345681        45.061370363        15.277765782
    33.588464624        42.930869955        13.303593782
    35.333005977        44.977674088        13.660138747
    33.221077468        44.604639009        15.281579097
    37.195915466        42.914912908        13.678705216
    37.574490093        44.990111198        15.309460057
    39.231252828        44.652901253        13.320503647
    41.443399171        42.909281009        13.314189797
    41.064511608        44.563338417        15.349468609
    43.173780158        44.947871956        13.722089490
    45.037393754        42.905995735        13.712056095
    45.455867753        44.976578996        15.372567297
    49.283625714        42.877366915        13.379422491
    47.108405848        44.619657406        13.343539821
    48.868124609        44.536586898        15.401761037
    52.792892808        42.847564784        13.857712231
    50.996716974        44.944195578        13.805919910
    53.258150775        45.026483878        15.445864215
    54.866956030        44.559740260        13.360730996
    56.597728188        45.209833474        15.379006173
    57.020348592        42.899268744        13.692958263
    58.763012328        45.087417895        13.649761529
    60.604876854        42.928679772        13.220263469
    62.684807631        44.798313753        13.158250213
    61.034773026        44.737457957        15.345248957
    66.594711358        45.140216947        13.536424802
    64.807532441        42.948547859        13.535768412
    64.427080196        45.228606471        15.282891878
    68.459733166        42.983669006        13.123461527
    70.501329253        44.866522306        13.085640942
    68.863264459        44.777115912        15.253948191
    72.603556739        43.009872980        13.444061309
    72.259796269        45.277494481        15.245915224
    74.380095823        45.152966940        13.443498688
    76.271560745        43.041474191        13.020533275
    76.639886709        44.832809134        15.159646783
     1.954740631        46.957286539        12.991245765
     2.314938077        48.812606111        15.097258447
     0.066382697        49.119701040        13.346946799
     6.174881531        47.024634663        13.383329577
     4.025103383        48.853202715        12.981087343
     5.822929956        49.326595103        15.043934548
     9.825259403        46.966281933        13.422587968
     7.943573739        49.226316015        13.330380758
    10.216195012        49.062286960        15.071502941
    11.865290809        48.651158343        13.080764900
    13.685093329        48.573563292        15.111073900
    14.038398354        46.938435322        13.082171451
    15.772221641        48.985083013        13.486945476
    17.613694997        46.904800370        13.527235338
    17.993443134        49.015432691        15.165491782
    19.661158638        48.612517259        13.145028637
    21.487298118        48.541258094        15.182839241
    21.848426549        46.873903147        13.173972324
    23.579276941        48.934552365        13.549990202
    27.479401410        48.577396112        13.196477135
    25.437101216        46.870148548        13.600594769
    25.807070096        48.982579947        15.217815467
    29.629351673        46.868036586        13.242080633
    31.386019305        48.903733363        13.619692602
    29.308044379        48.547437539        15.246134020
    35.304607013        48.579116970        13.281839132
    33.259333925        46.848559602        13.637227600
    33.626721081        48.930171999        15.285329899
    37.485303262        46.817505938        13.274525068
    37.124096597        48.468043409        15.298832785
    39.212007249        48.844754867        13.651949497
    41.102142192        46.791693068        13.689144948
    41.466008815        48.860555472        15.317680564
    45.321226932        46.787938469        13.345133912
    43.153517536        48.509187559        13.315502578
    44.991626828        48.461472861        15.361689972
    47.053016132        48.854219586        13.703116684
    48.937205286        46.794196134        13.728122030
    49.316953424        48.887306991        15.392384033
    50.981070161        48.527413010        13.355823697
    52.773725462        48.421580244        15.400104433
    53.183750182        46.778786633        13.337944875
    54.874466500        48.907722625        13.800793814
    56.709446429        46.812734468        13.256396193
    57.124712831        48.584514207        15.359376977
    58.790237781        48.720853092        13.224514378
    60.572409718        49.113834479        15.303208721
    62.697246847        49.013633612        13.537862610
    60.939405704        46.851140889        13.580809290
    64.528236839        46.880082592        13.116866367
    66.587513824        48.749403690        13.112459175
    64.893746377        48.708103098        15.270889312
    68.768210074        46.891189948        13.453438313
    70.521748344        49.083093698        13.438247566
    68.387757829        49.155839058        15.217784210
    72.369949829        46.913482881        13.097330941
    74.411937086        48.810494148        13.069793805
    72.729122408        48.739704309        15.201405709
    76.545771133        46.930456798        13.386205191
    76.219143923        49.208403447        15.135297828
     2.231485803        50.895782924        13.314564877
     1.798530679        53.125232666        15.090413234
     0.099728871        52.759315682        12.898882271
     5.875385894        50.946313572        12.849527971
     4.005787393        53.070165211        13.376921957
     6.334831071        52.619926185        15.025649390
    10.125991138        50.877479253        13.013969372
     7.933168609        52.756108628        12.812770113
     9.737480785        52.518786668        15.061313263
    11.841429420        52.912237380        13.475693070
    13.727417957        50.818187873        13.479350102
    14.079784173        52.898548737        15.099852751
    15.742492697        52.528173166        13.079702173
    17.562216984        52.473496814        15.145206196
    17.934063481        50.798945552        13.130087943
    19.648015316        52.848643855        13.480944193
    21.487141650        50.791123470        13.555616405
    23.540864017        52.461685471        13.131213184
    21.879329004        52.861863174        15.169836461
    25.739945271        50.773289124        13.193726547
    27.458669383        52.815947554        13.560930040
    25.355816025        52.454332714        15.192622582
    29.313520764        50.747476254        13.577246028
    31.335323633        52.478190063        13.195852001
    29.660254127        52.838240487        15.223379156
    33.528693801        50.756940973        13.239173762
    35.266741726        52.756969057        13.592311749
    33.155282622        52.424921687        15.257167629
    37.170724098        50.709617378        13.653543588
    37.516440419        52.817903074        15.280235060
    39.172420813        52.474122581        13.259428091
    41.385271263        50.701325972        13.285214853
    41.001846124        52.410763719        15.310772838
    43.112992292        52.743749739        13.667296527
    45.007351874        50.699839776        13.725902805
    45.391402885        52.795766583        15.345217701
    49.270482391        50.699839776        13.311345439
    47.059509560        52.415691630        13.350478804
    48.893472446        52.350768352        15.353938315
    50.997890485        52.752275808        13.748188819
    52.835295669        50.701325972        13.778257747
    53.283029207        52.844028827        15.403323871
    54.896919676        52.443068916        13.311845546
    56.594989996        53.105129916        15.352969358
    57.014637506        50.755298336        13.683237435
    58.829511281        52.957214350        13.629319659
    60.681546235        50.805516101        13.149623369
    62.721812343        52.694627066        13.065386613
    61.145865394        52.608114841        15.292518936
    64.863156859        50.829920996        13.490665021
    66.627726132        53.027925969        13.561023811
    64.421369110        53.097542497        15.254229501
    68.476788192        50.856828957        13.063042362
    70.543340945        52.717154661        12.975336114
    68.996731769        52.633693049        15.202374666
    72.691961229        50.866450117        13.415523958
    72.270749038        53.122964263        15.167585980
    74.441744264        53.075249564        13.467878900
    76.283139386        50.901727706        12.999028678
    76.759115420        52.702683810        15.120888498
     1.925074275        54.807527790        12.944642052
     1.734996797        56.658701658        15.117669060
     6.195003332        54.808701102        13.387142892
     3.960701103        56.686782932        13.395050832
     9.791618756        54.753398984        13.393988105
    10.064186229        56.884759821        15.071815508
    14.005618282        54.723909736        13.062667282
    11.813108689        56.487554509        13.062761052
    13.621880207        56.366703346        15.092538688
    15.689293535        56.767585036        13.470191894
    17.557444706        54.697783983        13.477881038
    19.597241409        56.400729402        13.067418297
    17.935941099        56.750689340        15.129796652
    21.371746408        56.326184963        15.145675046
    21.829728608        54.692386746        13.106301609
    23.491028919        56.758746084        13.531017396
    25.379520946        54.679402090        13.529329536
    27.393656878        56.414418045        13.146591471
    25.725080799        56.746387195        15.207500762
    29.591095216        54.669233384        13.192007429
    29.199455501        56.321178830        15.220503542
    31.305203519        56.713456230        13.575901991
    33.165922454        54.629027884        13.595749984
    35.219488353        56.384928797        13.192226226
    33.558031574        56.728318186        15.235037899
    37.380939023        54.645141372        13.259959455
    37.002599098        56.274637444        15.277296932
    39.118674013        56.689207777        13.598313031
    41.028054535        54.632704262        13.627569285
    41.395598159        56.696325871        15.285173616
    45.260752002        54.625664389        13.297311189
    43.041877530        56.366859788        13.223826731
    44.873493394        56.246165066        15.335746926
    48.885023167        54.597426674        13.728528366
    46.982996647        56.656667917        13.649386449
    49.234416489        56.686313607        15.341216845
    50.899315566        56.303735588        13.339351426
    52.789919913        56.295835285        15.367347431
    53.154881813        54.583268706        13.333443913
    56.772111913        54.689727238        13.208542214
    56.718052176        56.445941034        15.337653584
    54.820641466        56.726049782        13.543301272
    58.782883779        56.659327425        13.573213916
    61.011302807        54.731731817        13.593468246
    64.530270925        54.764506340        13.082796584
    66.577656332        56.659953191        13.608283913
    64.354478987        56.596907212        15.303021181
    68.837134282        54.780463387        13.491383924
    72.357901783        54.800253254        12.996871967
    72.181718675        56.607936348        15.222097632
    74.417257003        56.671451651        13.525328680
    76.649978904        54.788598352        13.384236020
     0.067150017        57.002482151        13.082702814
     2.055944214        58.736168352        13.441967111
     5.674246120        58.701985855        13.006686565
     6.010715175        57.155716733        15.062876097
     7.907429602        56.956488311        13.097862305
     9.955988521        58.661232809        12.839838400
    10.013881727        60.189354701        15.068502300
     7.852587525        60.284471215        13.410647916
    13.475347809        58.633777302        13.379422491
    17.729716111        58.613909214        12.911822537
    15.642040161        60.392103060        13.434684304
    17.824926965        60.288851581        15.099540184
    21.200022642        58.605696028        13.403802703
    23.422965285        60.329917510        13.500135795
    25.530825623        58.594823335        13.021752286
    25.632921074        60.242466636        15.175400150
    29.065362318        58.601472104        13.474442803
    31.257793677        60.326710456        13.524484750
    33.317618301        58.567680711        13.069137415
    33.442245162        60.259596995        15.241383005
    36.853797912        58.560406175        13.555960228
    39.060859041        60.289399126        13.583153541
    41.172239911        58.547343298        13.123899121
    41.279029406        60.212820946        15.292894016
    44.698092626        58.524737482        13.601094876
    49.025453308        58.519027362        13.171753100
    49.138032124        60.129359334        15.347999545
    46.927841633        60.264759569        13.650980540
    52.609042761        58.512847918        13.669640779
    56.791670428        58.660137717        13.760222641
    54.752030193        60.463596887        13.880560865
    60.480249993        58.685794145        13.322785385
    62.687389355        56.962589534        13.283308196
    60.815561183        57.030954529        15.336840910
    64.692371901        58.687045678        13.680549360
    70.528398239        56.976825723        13.163001229
    68.700850546        57.037368636        15.255479768
    68.298570998        58.697605489        13.263397690
    72.560528004        58.722949034        13.602345143
    76.505167654        57.036038882        15.154426917
    76.114388514        58.730614674        13.171409276
     1.756104347        62.636805861        13.162532379
     2.131917312        60.975395696        15.170930445
     0.022770415        60.583274738        13.547302127
     5.550378130        60.480883688        15.114824702
     3.904137876        60.867920293        13.071106586
     5.981494753        62.577905586        13.449781281
     9.582342640        62.518066660        13.432840160
    11.759048952        60.666110584        12.894412565
    13.776157778        62.551154066        13.007467982
    13.306675171        60.723759326        15.092851255
    17.422960353        62.562965410        13.370639364
    19.525657243        60.681363643        12.912947778
    21.098709531        60.717032336        15.115637375
    21.585481866        62.530190887        13.028066135
    27.349141696        60.638889739        12.991558331
    25.216246459        62.505707771        13.452156789
    28.936745520        60.687386646        15.217221590
    29.437521752        62.481537539        13.077639232
    35.177946066        60.620977172        13.057166106
    33.053421873        62.478956252        13.514451355
    37.246376436        62.470899507        13.166439464
    36.777832638        60.695599832        15.284642252
    40.874402836        62.471368832        13.578246242
    43.009723330        60.590705716        13.127587409
    44.615712159        60.634822257        15.322900430
    45.075884913        62.456272215        13.217825448
    48.712517060        62.430381124        13.635946076
    50.851123384        60.539549301        13.215606224
    52.446628848        60.631224099        15.399698096
    52.903281069        62.482554409        13.336319528
    56.486557586        62.544583518        13.386767811
    56.873816194        60.952007672        15.418045768
    58.684308861        60.835927979        13.396926233
    60.359300133        60.462423575        15.408574994
    62.607668846        60.558478739        13.739749515
    60.726217884        62.570239946        13.768130582
    64.359564201        62.575246078        13.352823055
    66.543389813        60.869171826        13.304031376
    64.709113991        60.922831307        15.356063769
    68.219241659        60.499500242        15.311554255
    70.449225368        60.567865237        13.641259712
    68.573798429        62.597930115        13.703929358
    72.175772887        62.617719982        13.254677076
    74.366561330        60.911254626        13.213637053
    72.546993512        60.940274549        15.275734098
    75.992499845        60.520385201        15.207907099
    76.393214711        62.647052789        13.609659207
     2.045061856        66.515228659        13.541113304
     1.721743947        64.444880059        15.215596243
     0.012517450        64.825737220        13.212011706
     5.664083516        66.469313039        13.110490004
     3.934265813        64.476324828        13.493946972
     5.996546986        64.827614520        15.161240874
     7.842964735        64.631671372        12.949299298
     9.887924887        66.462820711        12.939109620
     9.490887021        64.738599229        15.126420931
    11.723061284        64.333884719        13.387455458
    13.510161966        66.497628975        13.391768881
    13.875515037        64.273028923        15.121794942
    15.676697851        64.642231182        13.024315333
    17.372890553        64.693465818        15.170992958
    17.723535620        66.486912723        13.040099958
    19.586053939        64.353987469        13.412367034
    21.368695280        66.485113644        13.453250773
    23.492671834        64.605389177        13.050633459
    21.699625363        64.248467587        15.192560068
    25.563449227        66.481750149        13.112771742
    27.390136345        64.293444557        13.491415181
    25.155849762        64.681341591        15.208751029
    29.519745752        64.160390946        15.266544633
    31.317720969        64.549930617        13.157031203
    29.132800080        66.434113671        13.538800310
    33.391314788        66.430046188        13.143340776
    35.225434142        64.257071877        13.519702478
    33.006716138        64.640197441        15.278390916
    37.350584207        64.189567311        15.311335458
    36.967472005        66.412681167        13.577152258
    39.135103166        64.534912220        13.215950047
    41.203220600        66.408691905        13.238736168
    40.815727290        64.624709719        15.344748850
    45.180249152        64.156010580        15.367628741
    43.067773004        64.266614816        13.589092310
    44.865357051        66.394768600        13.658044550
    46.982761945        64.517156095        13.273274801
    49.037031950        66.379124436        13.290966083
    48.632248912        64.581688269        15.411044272
    52.572585688        64.594672925        11.698656960
    53.016329289        64.147484511        15.449677530
    52.637519960        66.414636687        13.778257747
    50.880930562        64.259340280        13.717150934
    54.789582543        64.742275608        13.425401070
    56.438678340        64.296416948        15.492905520
    56.833682120        66.468217947        13.890344206
    58.679145413        64.431973625        13.844053061
    60.403111208        66.477448004        13.453563340
    60.764004936        64.793275581        15.454209749
    62.591474395        64.748220390        13.419337274
    64.280547798        64.389577941        15.405699379
    66.521484276        64.458177598        13.782289858
    64.634400461        66.493326830        13.804419589
    68.218928723        66.514993996        13.359855809
    70.419261722        64.786079266        13.320972497
    68.657117705        64.845996412        15.353500721
    72.463752470        66.531889693        13.689113691
    74.330730130        64.488449055        13.680143024
    72.097851761        64.435728224        15.313367142
    76.048202497        66.527822210        13.244862478
    76.447352682        64.894727981        15.250322416
     1.746090387        70.446059404        13.270211646
     2.091110425        68.747259688        15.261824875
     0.013065636        68.371486880        13.640259498
     3.909293501        68.692661557        13.211417829
     5.952696794        70.406323229        13.588123353
     5.578808388        68.255720070        15.199686592
     7.844294714        68.164983922        13.461940130
     9.578665639        70.365648403        13.513669938
     9.953954435        68.049764658        15.179932369
    11.772035807        68.529805815        13.038599637
    13.840779113        70.381057905        13.083296691
    13.427077392        68.594025106        15.188496700
    15.687102981        68.247194001        13.428776791
    17.466145555        70.400222005        13.496041170
    17.827899859        68.136120440        15.225129531
    19.623293352        68.557183101        13.076701532
    21.276535555        68.592773573        15.225629637
    21.687420849        70.423610029        13.112209122
    23.523808991        68.253529888        13.489008416
    25.297922819        70.387002687        13.550740362
    27.429957482        68.513926989        13.127774949
    25.643952077        68.136511545        15.279516156
    29.497605512        70.358921413        13.162469865
    31.326483184        68.187433297        13.568275361
    29.075219810        68.556948439        15.307959736
    35.254615447        68.446735307        13.207385717
    33.130169488        70.349065590        13.586591776
    33.460004294        68.085668013        15.341029305
    37.320151157        70.343903016        13.234235206
    36.895966072        68.536298143        15.337778610
    39.163032726        68.163263064        13.635164659
    40.949116366        70.322079408        13.670015859
    41.281924066        68.074560657        15.404761679
    43.085688604        68.422330412        13.255646033
    45.128614671        70.319967446        13.307782177
    44.734080295        68.544198446        15.415451464
    48.763760370        70.319576342        13.757003203
    46.996061735        68.170615821        13.699959760
    49.128487568        68.034355157        15.481653115
    52.971579406        68.095914940        11.737071422
    50.910581271        68.451897881        13.363887921
    52.950456209        70.332795660        13.394769522
    52.527053464        68.555305802        15.528100544
    56.494928631        68.243204740        11.737008908
    56.502517335        70.384421400        13.475192963
    54.781837371        68.253608108        13.926539443
    56.859421126        68.765719801        15.553637252
    58.669913794        68.619759755        13.544582796
    60.390828460        68.298350416        15.512065866
    60.754069211        68.632979074        11.720224070
    62.602192462        68.339885670        13.826736859
    60.729347247        70.374956681        13.866432845
    64.301592761        70.398501147        13.449562485
    66.497622887        68.689063400        13.440279250
    64.677429196        68.741080243        15.457366674
    70.430292725        68.372660193        13.739218151
    68.558151617        70.417117701        13.766067641
    68.223779235        68.327370339        15.410950502
    72.143149283        70.435734256        13.385986394
    74.336597684        68.698293456        13.328849181
    72.514448142        68.756020420        15.370316816
    76.380540793        70.450439770        13.727871976
    76.034824472        68.320252245        15.318712035
     2.066912630        74.325968397        13.708461577
     1.596843267        72.211425036        15.310616554
     0.002977041        72.637884933        13.252051514
     5.726772470        74.300311969        13.153186631
     3.934922979        72.282449538        13.670703506
     6.091311906        72.717513725        15.269451505
     7.844216480        72.426297621        13.027159692
     9.917575596        74.281147868        13.047007684
     9.494642256        72.539326703        15.225348327
    11.780719787        72.137897467        13.468191467
    13.586049007        74.289908600        13.544489026
    13.908686279        72.047395981        15.227192472
    15.731226992        72.457585948        13.100519123
    17.346682142        72.543237744        15.271389419
    17.807011364        74.293037433        13.143528317
    19.637766654        72.169811561        13.535393332
    21.424554400        74.320962265        13.584341295
    23.573565855        72.462357418        13.150279760
    21.776138276        72.090104548        15.305959309
    25.659051251        74.295384057        13.192413766
    27.476428515        72.159251750        13.570307045
    25.194027985        72.532052167        15.307022036
    31.397285010        72.414173395        13.211324059
    29.247960620        74.279348790        13.636727493
    29.622936480        72.027840777        15.347311898
    33.457109634        74.275828853        13.258927984
    35.293654244        72.115291651        13.647854872
    33.065861089        72.479096673        15.363065266
    37.073479159        74.231946974        13.678892756
    37.427879461        71.992954292        15.416639218
    39.207078503        72.381320651        13.268898866
    41.262678487        74.233276728        13.320753700
    40.855939598        72.464156497        15.446583119
    44.773510262        72.402049168        11.710972093
    43.112522888        72.100586137        13.736436307
    44.840478619        74.224359555        13.761847989
    45.241662890        71.953452779        15.473495121
    49.108537882        72.015638329        11.754418880
    46.987064818        72.356524652        13.326286133
    49.044698888        74.222716918        13.413461017
    48.654076215        72.433493937        15.528631907
    52.568204581        72.483555260        11.797271790
    50.914023570        72.064213457        13.821860817
    52.650819751        74.217241460        13.950544575
    53.079777114        71.959554003        15.588832276
    54.798579460        72.583365023        13.516983146
    56.902684563        74.242506785        14.103421004
    56.922634249        72.648914068        11.812212484
    58.673590795        72.163553895        14.006306494
    60.307978588        72.188349894        11.768140563
    60.402563569        74.234997586        13.542676139
    62.591787331        72.578671774        13.462815317
    60.821663440        72.607848139        15.582549683
    64.743615212        72.615435558        11.734977224
    64.172975962        72.148066173        15.547198376
    64.712634524        74.271213825        13.976456364
    66.483384287        72.216274726        13.915662118
    68.233636727        74.257212298        13.404709147
    70.411907720        72.606127281        13.359793295
    68.688176628        72.627794448        15.484091136
    74.331121300        72.255541577        13.798980926
    72.490430285        74.305943868        13.850023087
    72.041601470        72.184282412        15.439081515
    76.051175391        74.302815035        13.332537469
    76.509861698        72.705780603        15.398385316
     1.864161234        76.586784687        15.329057996
     0.066573041        76.178237357        13.240080205
     4.011647124        76.493780135        13.514951462
     6.020048499        75.929495157        15.254354528
     7.927770458        76.118320211        13.366325942
     9.970383588        75.950692999        15.259043030
    11.863491425        76.312464280        13.182224088
    13.490055812        76.512318469        15.291143642
    17.640372812        78.218258947        13.758722321
    15.782705005        76.077880048        13.591624102
    17.927570054        75.977913843        15.325807301
    19.686741177        76.402965766        13.189819462
    21.335758740        76.485488728        15.348343369
    21.932371698        78.210101314        13.323316748
    23.623948591        76.044401538        13.666171287
    27.518205505        76.338668254        13.258084054
    25.767405427        75.933719081        15.379193713
    31.428422167        76.034702157        13.735186040
    29.165501918        76.424476491        15.423609458
    33.273337822        78.154251650        13.895407789
    35.344193448        76.299870728        13.331849822
    33.605832586        75.912364798        15.450865284
    37.439692804        75.937786564        11.682747309
    37.569639581        78.159492445        13.448374731
    36.968410813        76.426979557        15.480590388
    41.066467459        78.145334477        13.923382518
    39.226949955        75.961409251        13.781977292
    41.395285223        75.888663890        15.497594023
    45.383735947        78.132897367        13.515076489
    45.263490194        75.934735952        11.760857756
    43.139513639        76.307223485        13.345477735
    44.771241474        76.414777109        15.522911935
    48.744514791        76.291657542        11.803179303
    48.868202843        78.097854441        14.004868687
    47.013977335        75.980104026        13.887468592
    49.157355937        75.871220648        15.595177382
    52.929645948        75.857532005        11.835342428
    50.931000361        76.272258780        13.540113091
    53.147449577        78.089954138        13.488445796
    52.743996519        76.452948868        15.635435988
    54.832141873        75.965789616        13.847741349
    56.684333295        78.147289997        13.458720692
    56.650379712        76.567855249        15.619463824
    56.914497906        75.994653098        11.842250155
    58.722956488        76.401166687        13.880592122
    60.910615569        78.155737846        13.830706458
    60.549956542        76.455921259        11.793427218
    62.646864111        76.093054886        13.424588396
    60.982825608        75.975176114        15.580580512
    64.537155522        78.153078338        13.353260649
    66.556141965        76.388651356        13.818360069
    64.383738526        76.522565396        15.543978938
    68.337609795        76.493389031        11.704939553
    70.461195180        76.112375428        13.281557822
    68.804354210        75.985735925        15.466962475
    72.340299119        78.188434147        13.236423174
    74.363823138        76.438478017        13.713025052
    72.221696281        76.555339918        15.444332637
    76.534740130        78.218566566        13.656387946
    76.652873564        76.037752768        15.382600692
     1.874198664         2.360790317        19.310409052
     0.070528085         1.734272857        16.948998025
     4.057030704         2.373266537        17.468327788
     6.381951447         1.797803805        19.284215953
     5.848230851         0.015776513        16.813937905
     7.947485442         1.783012248        16.845882233
     9.669025981         1.625960491        19.299062876
    10.297167266         0.038477681        17.044205877
    11.876556514         2.140543961        17.743667894
    13.584014921         0.013297539        17.815245695
    14.292346120         2.108676800        19.416462972
    15.786225538         1.509497515        17.162199850
    17.501585585         1.590917564        19.440874440
    19.716626588         2.139261140        17.857535985
    18.202953953         0.015071822        17.207990888
    23.644758851         1.487572220        17.213148240
    22.118647000         2.121027867        19.425996260
    27.553019662         2.096685549        17.911891354
    26.056949691        78.173708453        17.288258046
    25.322175379         1.574960518        19.484665051
    31.449388896         1.454445704        17.265815749
    29.272291413        78.169191826        17.915423359
    29.920538852         2.101175424        19.491541521
    35.366411922         2.080016692        17.949086805
    33.826530876        78.166375877        17.326953817
    39.269431051         1.423266886        17.348896008
    43.170572562         2.078334945        18.046670164
    47.089238503         1.390453253        17.420755118
    50.971056201         2.029196627        18.117872885
    54.832454809         1.378876572        17.438008807
    58.729684617         2.234025660        17.796741740
    62.655469858         1.674911078        17.141070333
    66.583210951         2.326373157        17.673621671
    70.478171971         1.701912904        17.078556970
    68.894245148         1.699198642        19.481851949
    74.401453722         2.342893394        17.563535639
    72.285926446         2.270327942        19.445500429
    76.731968201         1.771756272        19.375047869
    76.160390142        78.200793037        16.981254921
     1.890690404         3.900660976        16.929431343
     2.432062291         5.721860627        19.331757365
     0.111722153         6.231218947        17.515900457
     4.038262352         5.720593450        16.949779442
     6.417031600         3.967062628        17.470078162
     5.848700256         6.381653223        19.280246354
     7.943417271         6.358061825        17.426162524
     9.716748759         3.939920004        17.712004876
    10.270880621         6.102756898        19.321598944
    11.871314832         5.465984689        17.160199422
    13.662796622         5.506471784        19.374922842
    14.234531148         3.888395952        17.228964121
    15.780592685         6.073361515        17.724320009
    17.562921090         3.893472483        17.761921796
    19.714983673         5.421383178        17.261971177
    18.088497520         6.029010311        19.405116796
    22.133902642         3.865711915        17.267409839
    23.604233607         6.029815986        17.749700434
    21.504431378         5.469277785        19.418682196
    27.555444918         5.379738415        17.303636333
    25.432016002         3.855816981        17.775112116
    25.907913802         6.008101887        19.439030296
    29.909429616         3.836238310        17.323140502
    31.440235510         6.020429488        17.815214438
    29.318136573         5.478531308        19.476382030
    35.369697752         5.380497157        17.371619615
    33.198311356         3.845484011        17.835312484
    37.736434602         3.802345230        17.375870524
    39.250498408         5.972832120        17.868288283
    41.031183897         3.813538629        17.946523757
    43.151796387         5.360144100        17.412378328
    45.558119672         3.780670242        17.456043912
    48.813751936         3.767544788        17.979905893
    47.060839539         5.946362196        17.933145897
    53.220754894         5.965620161        15.635248448
    50.978097267         5.300320819        17.511899602
    53.335211327         3.754278538        17.466514900
    54.855299155         5.969961416        18.026134525
    56.561114647         3.781632358        17.207271984
    58.745722600         5.542242164        17.230464442
    62.659772732         6.186687835        17.702346562
    61.095560892         3.801602132        17.696751616
    60.554337650         6.105682357        19.559274749
    64.434668901         3.827790462        17.159167951
    66.560053668         5.606617897        17.133318676
    64.972606312         5.599789219        19.542271115
    70.495774635         6.223310822        17.613546330
    68.971070997         3.857451796        17.637582718
    68.359671801         6.183410383        19.488103286
    74.396837912         5.685613100        17.050519727
    72.252442268         3.861574033        17.016356174
    72.816040452         5.670782433        19.440936953
    76.784541490         3.890781687        17.517900884
    76.206704707         6.217483371        19.390644953
     2.455336925         7.840854753        17.478392439
     1.895439212        10.144066726        19.345291508
     0.086080939         9.578921319        16.970690162
     5.828930508         7.891854726        16.830097609
     4.028506565        10.224868831        17.434758112
     6.381967094         9.588151376        19.269369029
     7.947954846         9.631485709        16.853071270
    10.323297443         7.865416090        17.139288702
     9.747025341         9.474496528        19.328506670
    11.869437214        10.013125077        17.671058623
    13.634632359         7.835301075        17.716724635
    14.189859499         9.955241672        19.327443943
    15.770500491         9.340817150        17.187674045
    17.555254152         9.419116189        19.362763993
    18.161724602         7.806414127        17.204021289
    19.689009964         9.966896574        17.739448242
    21.453657471         7.795330237        17.758546075
    23.598835457         9.332056419        17.253750669
    22.003799397         9.920589850        19.400772118
    25.987321376         7.752003726        17.286726468
    27.507018034         9.898688021        17.803680723
    25.383119713         9.386889212        19.427840404
    31.423102251         9.283872395        17.307981012
    29.285747672         7.767718288        17.831374143
    29.802561887         9.904163479        19.458471952
    33.808928212         7.743462013        17.344082479
    35.342550533         9.864661966        17.860817936
    37.103912209         7.719557731        17.913547958
    39.253627770         9.249611677        17.328079058
    41.640157837         7.710468472        17.359054429
    41.022812852         9.323061025        19.529424619
    43.167286731         9.871858281        17.900451409
    44.922467917         7.713346998        17.937959426
    49.364832670         9.754448834        15.568984283
    47.063499497         9.230604019        17.426725145
    49.433991581         7.692031825        17.463951852
    52.738833071         7.655948562        18.081802674
    50.952123558         9.819059229        18.004661184
    54.869537754         9.168574910        17.451667976
    57.241203350         7.695058971        17.795804039
    58.760587072        10.067644987        17.719881560
    60.518819385         7.702708967        17.197238589
    62.649289367         9.452125374        17.179891131
    65.008046342         7.713104514        17.650616754
    66.581724503        10.094631169        17.616797024
    64.458452055        10.065141921        19.511983390
    68.326813495         7.743540234        17.078838280
    70.482631313         9.524244968        17.046393845
    68.895262191         9.539341585        19.447188290
    72.833095477         7.789119504        17.576163339
    74.421951046        10.128657225        17.541437165
    72.275286614        10.122712443        19.426277570
    76.189727916         7.797551708        16.998133529
    76.714600239         9.603639097        19.386394044
     1.885073199        11.747906369        16.931431770
     2.456823372        13.546281186        19.295843438
     0.092055674        14.105716473        17.486300379
     4.030939644        13.566931482        16.893642443
     6.382506909        11.800548980        17.490301235
     5.846517525        14.211627460        19.254397079
     9.713854098        11.797420147        17.675903409
    10.273931750        13.948961955        19.282278038
     7.947172506        14.204978691        17.445479153
    11.869437214        13.298086532        17.116940175
    13.639248169        13.352841104        19.324036965
    14.239616362        11.761829675        17.168388672
    15.778010961        13.885055547        17.690531536
    17.541172021        11.747124161        17.741917520
    19.690809348        13.277592678        17.215117411
    18.101327906        13.864327030        19.364639394
    21.467896071        13.264764464        19.371859687
    22.086336332        11.696202409        17.204833963
    23.597818414        13.831943612        17.770142304
    27.496221733        13.243253739        17.266222085
    25.363248261        11.721702396        17.766829095
    25.913703123        13.829049442        19.440155536
    29.879465970        11.673205489        17.287789196
    31.414496504        13.792598541        17.809807032
    29.280818926        13.275324274        19.444125135
    35.340829383        13.171759912        17.318295717
    33.205587124        11.646610411        17.827091977
    33.725452467        13.790017254        19.470161951
    37.705610381        11.633234651        17.349364858
    37.112283254        13.274150962        19.479914035
    39.264111134        13.780865418        17.871882802
    41.018040575        11.638788329        17.900732719
    41.580230546        13.737843968        19.537863923
    45.559997289        11.620171774        17.387185443
    43.173936627        13.134526802        17.373588786
    48.827912301        11.590995409        17.921299615
    47.084075055        13.771400699        17.962183354
    51.006183295        13.124905642        17.451136613
    53.372059570        11.559315978        17.395687260
    56.573866799        11.589196331        17.143914691
    54.855220921        13.738156852        18.016913804
    58.735161002        13.344706139        17.171920677
    62.669004351        13.966483418        17.652585925
    61.095560892        11.618920241        17.671715014
    60.545575435        13.924087735        19.515609165
    64.436311816        11.611802147        17.111907849
    66.584932100        13.370206126        17.071461703
    64.993573041        13.437710691        19.459909759
    68.964421102        11.672970826        17.590791465
    68.357637715        13.976965008        19.439655429
    70.499373402        14.034457308        17.584352589
    72.261986823        11.680792908        17.019950692
    74.425393345        13.464305769        17.015699784
    72.845299991        13.471736747        19.388144418
    76.765765316        11.723266812        17.512712275
    76.195439002        14.068014039        19.350292577
     2.449852717        15.692347537        17.436789796
     0.105001847        17.440191705        16.936589123
     5.819409423        15.701968697        16.794902586
     6.382287853        17.450751516        19.226484862
    10.330260274        15.702046918        17.092497450
     7.921277031        17.472809786        16.820845632
     9.733569082        17.283280745        19.282309295
    13.637292317        15.680536193        17.688062258
    11.860127361        17.832703768        17.644677984
    15.760799468        17.193405026        17.146415225
    17.542893170        17.231263902        19.321567687
    18.130665680        15.625859842        17.147165386
    19.677431323        17.783189990        17.685155387
    21.473998327        15.611154328        17.743699151
    23.584440389        17.146707198        17.217211609
    21.998557715        17.745722219        19.359794608
    25.965337604        15.611388991        17.225713426
    25.364030602        17.243622791        19.379361291
    31.409567758        17.118860587        17.262783850
    29.269396753        15.614674265        17.764484844
    33.796254293        15.559919693        17.276974384
    33.156456133        17.159144308        19.435560804
    35.329954849        17.712321930        17.814276738
    37.123548959        15.558120614        17.846314836
    37.645448388        17.690732984        19.479195131
    39.254801281        17.078107541        17.338581303
    41.637341411        15.538408968        17.395937313
    41.036973218        17.143891248        19.504700584
    44.936315346        15.508997940        17.905389964
    43.165722050        17.674228391        17.899263655
    49.444005541        15.491789361        17.436789796
    47.068662945        17.028359101        17.390467394
    52.740945390        15.468557778        18.023102627
    50.984512460        17.631363383        17.919768038
    54.855846794        16.935902094        17.379715096
    57.212804385        15.488269424        17.746606022
    60.511308916        15.500471871        17.126035869
    62.655078688        17.290085956        17.108813438
    61.080383484        17.290085956        19.514171358
    65.044659883        15.538174305        17.614796597
    70.486777718        17.373469348        17.017731468
    68.371093974        15.570870607        17.040611359
    68.922018240        17.378006155        19.422901848
    72.843187671        15.614596044        17.550564116
    76.212102857        15.642207993        16.962375885
    76.750196737        17.424547542        19.345760358
     1.883086054        17.976473631        19.297468786
     1.888100857        19.588135356        16.913896772
     4.035117343        18.049375433        17.434476802
     6.387529536        19.647896060        17.433851668
     9.701180180        19.629044843        17.616390688
    13.644020447        21.192287882        19.275526595
    11.858406211        21.116022585        17.116064988
    14.177498517        17.818702242        19.296656112
    14.237034638        19.579922170        17.117971645
    17.527402826        19.552310221        17.644209134
    19.676023110        21.087237324        17.139820066
    21.449354598        21.126034850        19.320692500
    22.053947431        19.532676796        17.163700170
    27.486286007        17.746817310        17.742511397
    27.487772454        21.040774159        17.209397439
    25.354407812        19.551215130        17.731008938
    29.821963934        17.734614863        19.416369202
    29.892374590        19.497633870        17.255532300
    29.280740692        21.101864617        19.399615621
    35.316342122        21.028493490        17.262533797
    33.194164951        19.486135410        17.801742809
    37.708035637        19.449215184        17.288539356
    37.136770515        21.051568632        19.441530830
    41.033452685        19.463216710        17.835249971
    43.157585708        20.951524206        17.331142213
    45.575252932        19.416675324        17.327141358
    48.828772876        19.394304170        17.885010608
    51.002975699        20.930717468        17.431913754
    53.368851973        19.361764310        17.352740580
    56.564791648        19.390706012        17.159761828
    58.770053393        17.863522770        17.657055630
    58.740637386        21.172889120        17.080494884
    57.178303164        21.147545575        19.522079298
    61.093526806        19.418396182        17.639020525
    64.450315713        17.832312664        19.485102644
    66.570693501        17.896219072        17.591541626
    64.450237479        19.443270402        17.079682211
    66.580472758        21.232806266        17.039048525
    64.973779823        21.250327729        19.457909331
    68.932892775        19.487934488        17.543656390
    72.305093791        17.925786541        19.382486959
    74.436971986        17.976317189        17.519776285
    72.281623573        19.505690614        16.988475214
    72.812989323        21.316893645        19.371953457
    76.781803298        19.558880770        17.477798562
     2.419818661        21.398008633        19.271807050
     2.439697936        23.515837268        17.388717020
     0.091208399        21.952046683        17.452730704
     4.028357920        21.410758626        16.897455758
     5.809489344        23.553930806        16.745392003
     5.832677920        22.048649393        19.214638580
    10.314691696        23.547594920        17.031359381
     7.953118295        22.057331904        17.393530549
    10.279173432        21.796621919        19.234080236
    13.620471994        23.504573470        17.596855262
    15.769796385        21.718557543        17.628987130
    18.134342681        23.475084222        17.124848115
    18.107117227        21.693292219        19.305814320
    21.421503272        23.460691592        17.715880705
    23.594610817        21.661065242        17.725445249
    25.956340687        23.437303567        17.208022145
    25.902750354        21.665836712        19.380330248
    29.268692646        23.430341915        17.765703855
    31.427561592        21.639241634        17.764578614
    33.796723698        23.400774445        17.241341767
    33.767072988        21.624223237        19.402178668
    37.095932335        23.393812793        17.788958826
    39.249011960        21.599427238        17.827279517
    41.635620262        23.376447771        17.305636761
    41.561689073        21.585660374        19.506919808
    44.896024804        23.324665590        17.849909355
    49.393779273        23.307144127        17.366431006
    47.055597856        21.563602103        17.904514777
    47.052468494        24.860766005        17.328016545
    49.382044164        21.535051505        19.556149081
    52.725376812        23.278984633        18.013881905
    54.839887045        21.556014684        18.002535730
    54.835975342        24.784970033        17.333236410
    57.195671126        23.301668670        17.692750760
    60.503485509        21.725753858        19.477663554
    60.512091256        23.328967735        17.080651168
    62.652731666        21.786140329        17.633613119
    65.030264816        23.373631822        17.600324753
    68.314374279        23.385521386        17.018669168
    70.477546099        21.819305956        17.533060375
    68.351535458        21.798342777        19.414837624
    74.404348382        21.291158996        16.969752462
    72.846395268        23.434800501        17.478861289
    76.183390957        23.473519806        16.901019019
    76.187380894        21.929988413        19.323880681
     1.860226061        27.420776923        16.894455116
     1.852144482        25.812635134        19.246207828
     0.060054500        25.261960579        16.877263942
     6.360726546        27.458401136        17.388779533
     3.999974602        25.882095220        17.366243466
     6.355297102        25.248584819        19.185288556
     9.707517139        25.143143157        19.228360263
     7.910324263        25.315854722        16.761833017
     9.673954727        27.447841326        17.602887801
    11.845419357        25.695382129        17.575975798
    14.153245958        25.639767127        19.245082587
    14.206210418        27.426799926        17.069023682
    17.545631362        25.073604850        19.258397934
    15.765571745        25.047244434        17.095904428
    17.529906316        27.397623561        17.623048361
    19.683142410        25.601595369        17.664901057
    23.581232793        24.949859517        17.172764608
    22.036970639        27.375878173        17.154729503
    21.986353201        25.571715016        19.326224933
    25.326556486        25.012905496        19.357387844
    27.485034262        25.580632189        17.749481637
    25.362465921        27.342634326        17.733603243
    31.405656055        24.952597245        17.230933292
    29.892687526        27.334499361        17.230401928
    29.845121216        25.560764102        19.365514581
    33.194947291        24.979505206        19.409430219
    33.175310542        27.305088333        17.806337541
    35.332067168        25.565770234        17.777831447
    37.742302157        27.289991716        17.277286951
    37.657496433        25.498031006        19.448000963
    39.254957749        24.893227645        17.285194891
    41.019839958        24.954943870        19.486634222
    41.012251254        27.276068410        17.807994145
    45.534336517        27.251428853        17.337612346
    43.149371131        25.517664431        17.848659087
    45.464395265        25.464865379        19.495854943
    48.808901424        27.214352185        17.817871256
    48.806397934        24.914190824        19.543427612
    50.946021301        25.440147601        17.907171595
    53.325119133        27.204809245        17.321327615
    56.539130876        27.232421194        17.098467476
    56.571441543        25.627799342        19.506763525
    58.741341492        25.648684301        17.623329671
    62.644282387        25.115687650        17.067054511
    61.096108530        27.257530076        17.605044512
    64.417770343        27.278649697        17.054239272
    66.552073794        25.773290063        17.541749732
    64.434043028        25.708914330        19.430153398
    70.473399693        25.155032721        17.004384865
    68.917402430        27.297344473        17.491395218
    68.891194019        25.201730549        19.397552680
    72.218332216        27.327303046        16.951811127
    74.391205060        25.812635134        17.460857441
    72.252520502        25.741688853        19.357919208
    76.767329997        27.373844432        17.433882925
    76.727039455        25.244282674        19.291873840
     2.408247843        31.306004931        17.328860475
     2.392350681        29.223844988        19.220827403
     0.065873315        29.754573236        17.402845040
     5.786504176        31.366234961        16.702007729
     3.997048648        29.216101127        16.824408893
     5.798810394        29.860327781        19.166034440
    10.275183495        31.369754897        16.992601096
     7.911028369        29.862674405        17.339081410
    10.253356191        29.618312571        19.198010025
    11.836813610        28.983394195        17.062991143
    13.621097867        31.358725762        17.570974729
    13.636666445        29.042842017        19.221983900
    15.745856762        29.566139286        17.593073203
    18.120417017        31.314765663        17.107844481
    19.654352275        28.919878891        17.082714109
    18.069956047        29.540639299        19.266087077
    21.463906133        31.278236541        17.653492368
    21.430343721        28.972834385        19.298125176
    23.598913691        29.507786556        17.664369694
    27.519222547        28.859727083        17.163856454
    25.962912348        31.256882258        17.163950224
    25.911434335        29.473682280        19.337102258
    31.418721143        29.479314179        17.738385515
    29.266110922        31.249685942        17.710535812
    29.285591204        28.937009250        19.352761855
    33.809475850        31.221761111        17.197644926
    35.337465319        28.803877419        17.228495271
    33.742742195        29.471804980        19.374047655
    37.081302565        31.209871546        17.780081928
    37.150930880        28.890154981        19.418775966
    39.250967812        29.424168502        17.802711766
    41.667070355        31.209011117        17.277224437
    41.537436514        29.414860225        19.451220402
    43.155238686        28.816001646        17.308168552
    44.908855190        31.175141503        17.839750933
    44.940227049        28.849010831        19.476850880
    49.415606577        31.152066362        17.361367424
    47.062717156        29.417441512        17.858723739
    49.336746642        29.346338789        19.502137536
    50.959164624        28.751000146        17.372869882
    52.681487503        31.128913000        17.979437043
    54.838948236        29.404143973        17.939209694
    57.205450383        31.122186010        17.671152393
    58.719357721        28.987931003        17.058458924
    60.502546701        31.146590905        17.049988363
    60.535717943        29.544237457        19.432872730
    62.651636389        29.616278830        17.578976440
    66.554029645        29.040417171        17.016887538
    65.039965840        31.188204380        17.529903450
    64.966504055        29.077806722        19.401147198
    68.319224791        31.215659887        16.957999950
    70.470896203        29.695047193        17.474547867
    68.367729909        29.612524231        19.359794608
    74.396916146        29.102915604        16.950092009
    72.847959949        31.250624592        17.441884635
    72.787406785        29.131309761        19.329725681
    76.173455231        31.297087758        16.888235037
    76.164771250        29.737129993        19.288591888
     1.860593761        35.222521267        16.813187745
     1.856564707        33.619933156        19.193259010
     0.074043298        33.057681920        16.836880309
     4.017444268        33.723262856        17.327672721
     6.375246788        35.285254362        17.355491168
     6.327430129        33.094680366        19.140872812
     7.903283197        33.144115923        16.698757034
     9.659403191        35.265777379        17.521401633
     9.700084903        32.970152825        19.166409520
    11.842915867        33.499785981        17.485581476
    14.218101995        35.228935374        17.035954113
    14.150820702        33.479448568        19.212044275
    15.750785508        32.869951958        17.056208443
    17.542502000        32.916336902        19.247583122
    17.514650674        35.206094895        17.619203789
    19.667182661        33.439243068        17.627174243
    23.584362155        32.768264895        17.133443703
    22.054338601        35.199211463        17.130818141
    22.025626700        33.410066703        19.272744751
    25.328121167        35.162760562        17.641833626
    27.504436310        33.400523763        17.637145124
    25.364187070        32.886691213        19.318191965
    31.412384184        32.772958144        17.167075892
    29.901527975        35.150558115        17.153854316
    29.788245053        33.393249227        19.340040386
    35.312586887        33.370565190        17.768173133
    33.184698629        35.154234493        17.733384446
    33.168113008        32.838976514        19.364326827
    37.723995386        35.110039731        17.244998799
    37.647638941        33.347255386        19.411680700
    39.222412379        32.696849288        17.227370030
    40.995039760        35.107693106        17.775205886
    40.986512248        32.805498004        19.423714522
    45.534258283        35.089780539        17.258501685
    43.151014046        33.356641884        17.802242915
    45.466116415        33.315575955        19.462160240
    47.046444471        32.700056342        17.294665665
    48.803659742        35.061621045        17.792522088
    48.821575342        32.775382989        19.491729061
    50.951810622        33.258865862        17.864006118
    53.256586094        33.333957847        19.564244562
    53.316669854        35.035964617        17.300448152
    54.822832019        32.632160672        17.348114591
    56.541243195        35.032210018        17.067835928
    56.584819568        33.451132632        19.489697376
    58.718731848        33.481716972        17.582821012
    62.654139879        32.917744877        17.061272025
    61.090866848        35.081880237        17.549313849
    61.051358647        32.933232599        19.419401100
    64.387180825        35.093456918        17.027233499
    66.562400690        33.571045145        17.504523025
    64.460877311        33.503618801        19.391551397
    70.468940352        32.978366011        16.943684390
    68.898078617        35.126935428        17.464264419
    68.899565064        32.994792382        19.330569611
    72.234448433        35.156737559        16.916084740
    74.387449825        33.618212298        17.400688329
    72.264490313        33.562049751        19.312128169
    76.753560802        35.204686920        17.382465684
    76.717025495        33.113688025        19.236768310
     2.372064589        37.037791780        19.177818209
     0.061641087        37.554674942        17.353271943
     3.984930192        37.020661421        16.789245127
     5.781465903        37.649869677        19.120337172
     7.909228986        37.668095128        17.301104542
    10.248740382        37.419118266        19.171691899
    11.831415460        36.791865529        16.997977245
    13.612022715        36.825891585        19.185882433
    15.749611997        37.354116766        17.558940907
    18.051101638        37.338237940        19.232204835
    19.662723320        36.723265872        17.086527424
    18.110637760        39.117526877        17.061928415
    21.406169396        36.796480558        19.261023495
    23.557293170        37.348015542        17.630674991
    21.396703074        39.098910323        17.608982854
    27.481435495        36.694245949        17.154448193
    25.874038453        37.303116793        19.286028840
    25.930445212        39.081545301        17.136288061
    31.413322993        37.286768642        17.721069314
    29.265719752        36.732652371        19.313878543
    29.263920368        39.058079056        17.681373328
    35.320723229        36.675238290        17.219805913
    33.723418382        37.284422018        19.363170330
    33.791951420        39.058548381        17.192206264
    37.095384696        39.029137354        17.715318084
    37.115569084        36.720684586        19.375047869
    39.227184657        37.270498712        17.750669391
    41.556760327        37.265805463        19.417463186
    41.644460711        39.010520799        17.219149523
    43.136071340        36.628305800        17.261721123
    44.903300571        39.001994730        17.782144869
    44.914096872        36.689787363        19.440155536
    47.051216749        37.220124506        17.821903368
    49.445491988        38.984786150        17.322452855
    49.373516651        37.173583119        19.467005026
    50.967535668        36.587083429        17.326609994
    52.727410897        38.965778491        17.932239454
    52.712311723        36.599598760        19.524611090
    54.842312301        37.231857628        17.917079963
    57.221097196        38.974304560        17.608607774
    58.715758954        36.794681479        17.015574757
    57.219532515        36.781227498        19.450720295
    60.484865802        38.977824497        16.986193476
    60.517176470        37.449389722        19.401616048
    62.652888134        37.469257810        17.556252832
    66.554342582        36.858900770        16.964720136
    64.941156219        36.899262712        19.380861612
    65.026744283        39.003559146        17.504272971
    70.471600310        37.489673443        17.461857655
    68.331507538        37.451267022        19.317816885
    68.336045114        39.034612811        16.904175944
    74.385572207        36.953235076        16.867168033
    72.801332448        36.954251947        19.289310792
    72.824255028        39.068169541        17.413003461
    76.164849484        37.532460230        19.236424487
    76.172985826        39.082796834        16.841600068
     2.421234697        39.151474712        17.291758794
     1.843437031        41.448663682        19.141279148
     0.031700598        40.859739147        16.819314054
     5.765725209        39.184640339        16.671282411
     3.982348468        41.519140639        17.272223368
     6.322736085        40.879059689        19.093550196
    10.276513474        39.173063658        16.961250645
     7.883646447        40.953213024        16.662030433
     9.683812218        40.725512224        19.145780111
    13.601617585        39.123784543        17.536186043
    11.818115669        41.290814073        17.511055671
    14.132826867        41.245054894        19.187664064
    15.731618162        40.666455507        17.034891386
    17.506123161        40.698526042        19.199166522
    19.654821679        41.254754276        17.566223714
    23.558388447        40.594257692        17.082245258
    21.992690160        41.237545696        19.227797643
    27.483234879        41.212202151        17.678591484
    25.338056893        40.632742334        19.263430260
    31.398536755        40.547794527        17.150322311
    29.834324916        41.201251236        19.302313571
    35.308675184        41.183260448        17.675465816
    33.182742778        40.656599684        19.326068649
    37.626750447        41.161906165        19.343634904
    39.233130446        40.564299119        17.222931582
    41.010686573        40.608493881        19.399396824
    43.141156555        41.163001257        17.723257281
    45.449296091        41.136562620        19.408086181
    47.057788410        40.504303752        17.280287592
    48.804755019        40.589408001        19.452783236
    50.950950047        41.101989019        17.825904223
    53.255177881        41.154866292        19.521047828
    54.840982322        40.464411135        17.285569971
    56.590061250        41.313576331        19.424777249
    58.729919319        41.358944405        17.586353017
    62.656173965        40.758130305        16.982317648
    61.075611206        40.768455453        19.380361505
    66.561383647        41.384991937        17.474360327
    64.433182453        41.344317112        19.350792684
    70.467610373        40.815231502        16.901237816
    68.892523998        40.837993760        19.304501539
    74.383929292        41.442249575        17.382434427
    72.252676970        41.378890713        19.248927159
    76.703569236        40.882814288        19.201510774
     1.806651375        43.026221131        16.775179620
     2.374763664        44.861281511        19.126119658
     0.055492907        45.382779702        17.321546412
     3.975706396        44.828976314        16.717698583
     6.366820979        43.107101456        17.305855557
     5.784681323        45.501127799        19.083923138
     9.661593745        43.069399022        17.538592807
     7.898119749        45.494479029        17.265253128
    10.243029295        45.239557385        19.142841982
    11.824922033        44.578278593        16.979066953
    13.632128869        44.643514755        19.156032302
    14.228663594        43.020667453        17.004884972
    17.525916379        43.020823895        17.564160773
    15.738815696        45.137244556        17.531528797
    19.639253101        44.537134443        17.048550556
    18.055169810        45.147022158        19.208918607
    21.430656657        44.599554656        19.229047910
    22.017646826        42.991882192        17.080994991
    23.559092553        45.121522171        17.572287510
    27.488398327        44.494112994        17.110751352
    25.344080916        42.971075455        17.613233763
    25.866840920        45.108459295        19.250396223
    29.866009711        42.962392944        17.131849612
    31.383359347        45.130986890        17.660837689
    29.256096962        44.585787792        19.288404348
    35.295375393        44.494191214        17.144133488
    33.149336833        42.963253373        17.670714800
    33.691655352        45.070522198        19.314347394
    37.691606484        42.948000314        17.188486719
    37.079268479        44.528764816        19.321598944
    39.223742358        45.090781390        17.707847737
    40.993944484        42.957465032        17.737197761
    41.576084140        45.052218527        19.388894579
    45.548966287        42.913974258        17.235871848
    43.155629856        44.471741840        17.208365968
    44.902048826        44.486056249        19.396583722
    47.057319006        45.066767599        17.786270751
    48.792159335        42.900285615        17.788552489
    50.961276943        44.424731128        17.277349464
    52.706444169        44.428563948        19.479976549
    53.317765131        42.867980417        17.272911015
    56.548753665        42.886205868        17.014668313
    54.836914150        45.050575890        17.842501521
    58.716854231        44.659706464        16.972534307
    57.161169904        44.655247878        19.390457413
    60.478528843        45.231735303        19.361701266
    61.092275061        42.899894511        17.509711634
    62.661728583        45.276712273        17.484049898
    64.420899706        42.910767204        16.916366050
    66.562400690        44.734407345        16.897987121
    64.963765863        44.733155812        19.285903813
    70.465810989        45.342104877        17.416191643
    68.912786621        42.961923619        17.438571427
    68.349657841        45.315353357        19.263305233
    72.245088266        42.969041713        16.865605199
    74.364918415        44.768589842        16.853040013
    72.797890149        44.795576024        19.245989031
    76.733376414        42.992977284        17.350365072
    76.172438188        45.376834920        19.186820133
     2.408380841        46.950872432        17.230433185
     1.873643202        49.247044531        19.125025674
     0.058679615        48.712327022        16.796121596
     5.769996789        46.991234374        16.616551962
     3.992886596        49.329645715        17.211116556
     6.287976691        48.679004954        19.056073435
     7.889279300        48.731647564        16.677221180
    10.279173432        46.974808002        16.931212974
     9.686863347        48.571060226        19.112960595
    13.557102404        46.941877038        17.483080941
    11.816394520        49.090681117        17.466452387
    14.115771842        49.066041559        19.161158398
    15.725594140        48.411333316        17.017950265
    17.516606525        48.479620090        19.193665347
    18.130352743        46.912231348        17.025201815
    19.636984313        49.037803844        17.551126737
    21.407655843        46.910432269        17.576350879
    23.538047590        48.408752029        17.053739165
    21.944419743        49.019343731        19.218233098
    25.930523446        46.896430743        17.075462559
    27.439032634        49.015510911        17.596042588
    25.313569632        48.513567925        19.232423632
    31.380855857        48.404293443        17.124379265
    29.235677872        46.879222163        17.647366059
    29.768608304        49.027635138        19.273026061
    33.755729049        46.855677697        17.144414798
    35.273548090        48.981171972        17.645615685
    33.157160239        48.452164583        19.289904669
    37.055328856        46.850358681        17.679404157
    37.608365442        48.977808477        19.329069291
    39.206217928        48.387788850        17.168044849
    41.609646553        46.837765129        17.194956852
    40.988155163        48.453103233        19.331351028
    43.117216931        49.007532388        17.704190706
    44.878578608        46.817662379        17.756451877
    45.407440868        48.941279355        19.377235837
    49.428906367        46.798654721        17.285319918
    47.034944064        48.356265861        17.225057036
    48.805928530        48.435034224        19.408648801
    52.700263678        46.806476802        17.865068845
    50.974420266        48.953325361        17.771705138
    53.282794505        49.007454167        19.466036069
    54.840825854        48.341169243        17.217899256
    56.562679328        49.168980155        19.383893510
    57.177755525        46.830099489        17.578226280
    58.749712537        49.199642716        17.521182836
    60.503954914        46.841597950        16.991882192
    62.669473755        48.632541789        16.966939361
    61.049559263        48.680647591        19.325037179
    66.589704378        49.241803737        17.402876297
    65.015791515        46.854191501        17.445510410
    64.453914480        49.161079853        19.308627421
    70.484587164        48.656086255        16.869824851
    68.315860726        46.879143942        16.901644153
    68.874295462        48.657181346        19.241425556
    74.386667484        49.259168758        17.330642106
    72.826602050        46.913639323        17.380652796
    72.268323782        49.223187182        19.204698955
    76.151549693        46.922243612        16.782493683
    76.687453019        48.753705835        19.150718666
     1.868338933        50.892184766        16.757457082
     2.491684470        52.709097917        19.106615489
     0.091644163        53.225277092        17.354240900
     3.978679290        52.697912340        16.599767124
     6.354280059        50.902197031        17.255782354
     5.674324354        53.275103753        19.007781862
     9.655100318        50.888977713        17.475391798
    10.249209786        53.045056328        19.088142790
     7.891469854        53.284959576        17.259283102
    11.836187738        52.363049020        16.936089016
    13.603573437        52.430710027        19.114773483
    14.215207335        50.813103520        16.948466662
    17.465989087        50.819282964        17.516681874
    15.725515906        52.958309442        17.514556419
    18.042104721        52.941413745        19.168441205
    19.619538117        52.342633386        17.026420825
    21.403118267        52.414909422        19.205042779
    22.004268801        50.797302915        17.052738951
    23.506284561        52.943838590        17.545844358
    27.429253376        52.293980038        17.080244831
    25.274765537        50.794174082        17.571724890
    25.834530252        52.879384637        19.234517829
    29.830178511        50.781345868        17.122941458
    31.324449098        52.926160686        17.623329671
    29.208921823        52.373217726        19.262430046
    35.240924486        52.296248442        17.114783464
    33.138775235        50.785022246        17.670964853
    33.679137902        52.914349342        19.286028840
    37.648968920        50.732536078        17.145821348
    37.047114280        52.343259153        19.314441164
    39.159355725        52.914975109        17.680591911
    40.973681861        50.776652619        17.681779665
    41.484784990        52.883217457        19.333914076
    43.100396608        52.298125741        17.178672121
    45.493889507        50.753342815        17.225463373
    44.886402014        52.324016832        19.383018323
    47.027277126        52.887988927        17.741917520
    48.797635719        50.727529945        17.757389578
    49.359121584        52.859516549        19.399521851
    50.976610820        52.260970853        17.251156365
    52.740163050        52.282403357        19.446406873
    53.362045610        50.715405719        17.232121046
    56.619711960        50.766562133        16.953530244
    54.872745351        52.925143815        17.799336044
    57.255441949        52.590828041        19.385768911
    58.773495692        52.552812723        16.872825493
    60.404050016        53.184680488        19.287497904
    61.102367255        50.777825931        17.480080300
    62.680817694        53.143301675        17.549157566
    66.610201702        52.595051965        16.788713763
    64.440849391        50.807236958        16.910270997
    65.082055765        52.603734476        19.248864646
    68.952764226        50.798554448        17.387279213
    68.326187622        53.125623770        19.219483365
    70.523078323        53.180613005        17.423474450
    72.260030972        50.821473147        16.838099320
    74.415222917        52.631893970        16.699569708
    72.890832215        52.643939976        19.169316392
    76.727821795        50.863868830        17.281631629
    76.116813770        53.203062380        19.130464337
     2.480489176        54.801348345        17.262690080
     0.073448719        56.529402647        17.567911575
     5.730613762        54.786408169        16.545130445
     5.736684725        56.490996225        19.059011563
     7.882472936        56.297869027        17.008698287
    10.292082052        54.761925053        16.900800223
     9.700789010        56.237873660        19.091112175
    13.604199309        54.740023224        17.441822122
    14.114598331        56.889296628        19.156719949
    15.678027830        56.290438049        16.954874282
    17.410129967        56.337605202        19.158564093
    18.086228732        54.719685812        17.008135667
    19.561566677        56.892894786        17.554189892
    21.352187893        54.722892865        17.546657031
    23.477650894        56.252422732        17.004416122
    21.920793057        56.880066572        19.177599412
    25.887572946        54.717417408        17.061897159
    25.209283627        56.312261657        19.211419142
    27.386772280        56.842051255        17.625767692
    31.294641921        56.202439629        17.041142722
    29.148759829        54.686833068        17.615765554
    29.749597426        56.833838069        19.244238657
    33.693767672        54.689179693        17.120722233
    33.070633367        56.264155854        19.252177854
    35.211195542        56.859416276        17.676434773
    36.979598284        54.672362217        17.622423227
    37.526063209        56.788939319        19.289435818
    39.143474210        56.199780121        17.115408597
    41.536341237        54.671658230        17.175984046
    40.881052732        56.230364461        19.325255975
    44.843373280        54.639118369        17.740479713
    45.359639856        56.773216935        19.365014474
    43.049388000        56.794258335        17.737854152
    46.973060921        56.172089952        17.173483512
    49.373203715        54.632078496        17.210303882
    48.734813767        56.207523982        19.376516933
    52.713485234        54.623239543        17.799304787
    53.084471157        56.784167850        19.393020461
    50.860433237        56.818272126        17.727008083
    54.850918048        56.233649735        17.407596056
    57.307232898        54.678698103        17.571974943
    60.328554146        56.473709425        19.345447792
    60.516081193        54.695593800        16.884609262
    62.671664309        56.488649601        17.726195409
    65.071807103        54.709829988        17.456700302
    68.358420056        54.726960348        16.837349159
    70.515411385        56.504215543        17.666588918
    68.137095894        56.523379644        19.273276114
    72.925802841        54.763333028        17.332736303
    76.165084186        54.764584561        16.750330558
    75.975131883        56.542934848        19.211637938
     1.562162107        58.707852416        16.999508823
     2.231337158        57.111443750        19.118336744
     1.607506570        60.490739511        19.204292618
     3.979312986        57.192089413        16.932557011
     6.155182194        58.709025728        17.527871766
     3.949638806        60.452176648        17.545750588
     9.393642082        58.669837099        17.332423737
    11.789169066        56.960555793        17.457731773
    13.948585651        58.664674525        16.714166578
    11.760065995        60.209301009        17.329016758
    13.997951344        60.265854660        19.074452364
    17.164787948        58.655131585        17.286382645
    19.544120481        60.193813287        17.350271302
    21.710265195        58.653645389        16.724106202
    21.764324932        60.221972782        19.117305274
    24.970826205        58.622826387        17.367462477
    27.343039439        60.181767281        17.415660279
    29.512313516        58.613283447        16.824940257
    29.561053337        60.218843949        19.186507566
    32.793058914        58.597561063        17.423880787
    35.180449556        60.160100115        17.512774789
    37.364040466        58.602410754        16.879670706
    37.419117246        60.159630790        19.278996087
    40.648384631        58.584419966        17.471328429
    45.170000489        58.555869367        16.918804071
    43.041329891        60.140232027        17.555221362
    45.240724082        60.152747358        19.336445867
    48.451293526        58.565725190        17.531653824
    50.865205515        60.065844030        17.601387480
    53.115764782        60.136086324        19.422901848
    53.241878090        58.564082553        17.213085727
    56.327116567        58.615082526        17.180891345
    56.326568929        60.355730380        19.447969707
    56.935073464        56.899543555        19.381049152
    58.741576195        57.140541894        17.214586048
    58.701050950        60.403523299        17.806587594
    60.874784368        58.641834046        17.794928852
    64.831550298        57.061304206        19.325193462
    64.207086014        58.641677604        17.189174366
    66.595415464        57.128886993        17.118815576
    64.253635281        60.439661317        19.382174392
    68.736838215        58.653880052        17.650335444
    72.027519339        58.671010411        17.106125363
    74.424767472        57.170891572        17.041330262
    72.702522827        57.107454489        19.226297322
    74.400436679        60.454601493        17.641771113
    76.563686733        58.700108555        17.584977723
     2.173882063        62.613574279        17.570224569
     0.053862040        61.110795932        17.060928202
     5.462458691        62.578453132        16.966720564
     6.079162156        61.020998433        19.166034440
     7.858846250        60.780156536        16.601048648
     9.975468802        62.528078925        16.664405941
     9.346936347        60.875664154        19.070545278
    13.360813142        62.581894848        17.242091927
    15.677558425        60.778748561        16.636368698
    17.159702734        60.746365143        19.111647814
    17.797701511        62.565937801        16.791870688
    21.168337846        62.549354987        17.297103687
    23.472252744        60.756533849        16.697006660
    24.983578358        60.770926479        19.163346366
    25.641370352        62.561948539        16.842662795
    31.291434324        60.738855944        16.800497532
    28.956225802        62.534805915        17.397531404
    33.461021337        62.534414811        16.927649712
    32.789773083        60.744722505        19.251208897
    36.781353171        62.522525247        17.466202333
    39.116561693        60.716015465        16.842694052
    41.298353220        62.511730774        16.961844522
    40.621785050        60.707567617        19.286966541
    44.618841521        62.496868819        17.483393508
    48.449885313        60.674636653        19.358825651
    46.940515551        60.684570697        16.872262872
    49.118551842        62.479034472        17.015762297
    52.457346915        62.478330485        17.607263737
    54.791851331        60.995342005        17.258689225
    56.916844928        62.548963883        17.866881733
    60.241010231        62.566016022        17.275567833
    62.628713809        61.024205487        17.235059174
    60.848106553        60.941838966        19.420057490
    66.557315476        60.441147512        17.698283193
    64.763173728        62.574698532        17.776518667
    70.463855138        61.078177851        17.158417791
    68.092893649        62.576732274        17.195894552
    68.683560818        60.981340478        19.349386133
    72.091280099        60.464613758        19.282590605
    72.604182611        62.576966936        17.678653997
    75.903860652        62.619127957        17.108750924
    76.504541782        61.037972350        19.251208897
     1.565166295        66.533141226        17.119346939
     2.166442003        64.905366012        19.232048551
     0.051112738        64.397712906        17.606919913
     3.966779890        64.983039284        17.046581385
     6.123661691        66.495438792        17.625111302
     5.525890868        64.342097905        19.174067407
     7.855012781        64.060502962        17.312919567
     9.947617476        64.099378708        19.123587867
     9.388556868        66.477369783        17.398500361
    11.773913424        64.719982675        16.776804967
    13.932078264        66.516558413        16.831941753
    13.425512711        64.698784833        19.146561528
    15.695943430        64.149440032        17.271723261
    17.260311738        66.511708722        17.379402529
    17.789408700        64.193634793        19.155969789
    19.598806091        64.721703533        16.847882661
    21.221067604        64.715680530        19.199010239
    23.518802011        64.116978392        17.352553040
    21.763855528        66.513507801        16.872950519
    25.620873028        64.176269772        19.225140825
    25.075581615        66.495673454        17.407220975
    27.425028736        64.676804784        16.913896772
    31.329299610        64.119325017        17.435477015
    29.562383316        66.455937279        16.896174234
    29.012632561        64.696359988        19.263524030
    33.443262205        64.142556600        19.322630414
    35.241941529        64.676413679        16.996664465
    32.887565661        66.453590655        17.474079017
    37.428270631        66.440371336        16.976472648
    36.850746784        64.672189755        19.338977659
    39.164362705        64.057999896        17.482612091
    41.257202103        64.092417056        19.365108244
    40.745238400        66.425509381        17.546063154
    45.221713205        66.430437293        17.036047883
    43.082246306        64.643795599        17.042893096
    44.689721582        64.642309403        19.396177386
    46.995748799        64.039930887        17.547876042
    49.097741582        64.104775945        19.444156392
    48.549399040        66.407205710        17.618516142
    50.888284563        64.628855422        17.080369858
    53.097458012        66.429498643        17.097373492
    52.494351626        64.680481162        19.450626525
    54.797014779        64.261530463        17.875727374
    56.298482900        66.463290036        17.302261039
    58.696513375        64.947214150        17.333486464
    60.275354984        64.335996681        19.466661202
    62.629809086        64.327705275        17.805618637
    60.860780471        66.468217947        17.826279303
    64.149505744        66.454059979        17.284225934
    66.533454087        64.942520901        17.255594814
    64.773657092        64.873999465        19.447782167
    70.435299705        64.354847898        17.736291318
    68.670730432        66.470642793        17.777268827
    68.120823209        64.358602498        19.403272652
    74.363744904        64.998761669        17.154229396
    71.970252005        66.491214868        17.221462518
    72.579304179        64.895823073        19.331257258
    76.496092503        66.524145832        17.682623596
    75.968794924        64.394349411        19.295062021
     2.189442818        70.444886092        17.694313594
     1.653320436        68.310787526        19.299219160
     5.490521249        70.406323229        17.088090258
     3.967085002        68.278091224        17.604606919
     6.102233381        68.835179887        19.253209325
     7.870503125        68.650969862        16.792589591
    10.006918895        70.379884592        16.772679085
     9.446215372        68.698919223        19.200448046
    11.779233340        68.062514651        17.369744214
    13.355102055        70.423453588        17.392780389
    13.928948901        68.134321362        19.211481655
    15.716753691        68.667787337        16.839412100
    17.305296323        68.635482140        19.224953285
    17.899249324        70.427990395        16.889047710
    19.659202787        68.052033062        17.397937741
    21.212774794        70.433152969        17.460013510
    23.555650254        68.646667717        16.874544610
    21.784118150        68.093098991        19.266087077
    25.135821843        68.595198419        19.302188544
    25.727662523        70.410468932        16.933682252
    27.458434681        68.036310677        17.451980543
    31.373032451        68.613893194        16.911271211
    29.049089634        70.392243481        17.502522597
    29.568329104        68.062827534        19.309877688
    33.543401804        70.373235823        17.022201173
    35.284735561        68.010576028        17.516806901
    32.940217185        68.562423896        19.353949609
    36.859508999        70.357435218        17.551908154
    37.373037383        68.033651169        19.385550114
    39.211068440        68.573922356        17.055333256
    41.336374974        70.341712833        17.079213360
    40.749854209        68.547327278        19.453064546
    44.662809064        70.333968972        17.614296490
    43.083576285        67.965990162        17.583196092
    45.204188775        68.039908835        19.461003743
    47.013273229        68.561954571        17.104750069
    49.207660439        70.337958234        17.178703377
    48.604475820        68.550221449        19.518078443
    50.910033633        67.953944156        17.661369052
    52.472289621        70.324973578        17.793772355
    54.799048864        68.890090901        17.415972846
    56.949625000        70.370967419        18.049577036
    58.688455266        68.217861195        17.884322961
    60.231074505        70.350082461        17.451574206
    62.629417915        68.816485112        17.364086755
    66.520467233        68.212229296        17.780488265
    64.734227125        70.361189817        17.867475610
    64.252148833        68.211838192        19.504200477
    70.451259454        68.855517300        17.282913153
    68.069032260        70.381057905        17.322734165
    68.653597173        68.771899246        19.448188504
    74.362023755        68.280437849        17.696282765
    72.580868861        70.414223531        17.792865911
    72.096521782        68.259709332        19.402928829
     0.032579011        68.916216654        17.195269419
    75.878356348        70.441991921        17.212116770
    76.513147529        68.858724353        19.359982148
     1.547735746        74.315721470        17.173420998
     2.282439648        72.798237609        19.398677920
     3.964331163        72.815055085        17.082151488
     6.271453658        74.317442328        17.614890367
     5.492367573        72.188584557        19.300500684
     9.482281274        74.298043565        17.462201478
     7.879108872        71.904017223        17.419348568
     9.986186869        71.934210458        19.205886709
    11.823044415        72.557786816        16.832223064
    13.397896087        72.559194790        19.279933787
    13.964780102        74.346696914        16.875169744
    17.301619323        74.333712258        17.459825970
    15.723481820        71.971443567        17.404564157
    17.840260841        72.019001824        19.287654188
    19.670312024        72.582739257        16.913365409
    21.254551783        72.553875775        19.318473276
    21.829415672        74.333321154        16.942840459
    23.580998091        71.974807062        17.518744815
    27.511086205        72.547696330        16.980817327
    25.133161884        74.296166265        17.539217941
    25.704818177        71.993892942        19.347354449
    29.670268087        74.289282833        16.983630428
    31.399632032        71.925215064        17.528434386
    29.070212830        72.504049114        19.371984714
    32.947023548        74.281773635        17.592291786
    35.340125277        72.528454009        17.061397052
    33.534639590        71.989277914        19.406335807
    37.492422562        74.263313522        17.090590792
    36.898469562        72.470883487        19.448188504
    39.235633936        71.911135317        17.573287724
    40.802192797        74.252753712        17.643115150
    41.342398997        71.956346950        19.459753476
    43.151092280        72.475889620        17.082714109
    45.268418940        74.259558923        17.144696108
    44.708263054        72.461496989        19.495073526
    47.007327440        71.871399142        17.663181940
    48.581631474        74.229287466        17.728195837
    49.133416314        71.927327026        19.554742531
    50.922629317        72.483085935        17.157917684
    53.085331732        74.230069675        17.177078030
    52.460006873        72.487544522        19.606066001
    56.385792114        72.066638302        15.646157030
    56.290737728        74.251111074        17.408752553
    54.814069804        72.121001770        18.156599913
    58.683917691        72.733236110        17.429444476
    62.608294719        72.105983374        18.030729257
    60.906625632        74.227410167        18.002035623
    64.127287270        74.236718444        17.375401674
    66.510375039        72.749036715        17.266628422
    70.416523530        72.161050829        17.941803998
    68.718374976        74.269571187        17.928582422
    74.351227454        72.804104170        17.216336422
    71.936141954        74.278175477        17.263659038
    72.627652830        72.739493775        19.491416494
     0.052416822        72.185690387        17.810119599
    76.538104195        74.305318101        17.839532136
    75.868185920        72.192182714        19.438655216
     2.483078723         0.009388532        17.501459870
     2.417409052        76.045887733        19.330132018
     0.070231344        76.654993240        17.542687433
     3.972756972        76.027505841        16.979035696
     5.887778170        76.620341418        19.317035468
     7.937002078        76.493701914        17.034610076
     9.663549596        76.552523969        19.257804057
    11.840490611        75.894843335        17.452543163
    14.010859964        75.872706843        19.291186193
    15.780670919        76.523582266        16.941871502
    17.377193427        76.478761738        19.355574956
    19.698632754        75.856202251        17.525214948
    21.464140836         0.005613501        17.847877670
    23.612369949        76.506530128        16.954061608
    21.842402526        75.898519713        19.367483752
    25.180884662        76.448959606        19.394583295
    27.522430144        75.814979880        17.606388550
    31.422006974        76.449350711        17.020857136
    29.692877731        75.862147033        19.452533182
    35.338951766        75.797458417        17.685374184
    32.995685135        76.453965739        19.470193207
    37.071366839        78.166532319        17.978280545
    37.525906740        75.813102580        19.515234085
    41.670747356        78.166610539        17.395249666
    39.266145220        76.423224957        17.092497450
    44.878030969        78.130628963        18.039387358
    43.142955938        75.779545850        17.711410999
    49.477176784        78.125231727        17.455543805
    47.038621065        76.403904415        17.181985329
    52.666701265        78.133523134        18.199921673
    50.935694405        75.779467629        17.793147221
    54.817746805        76.668916545        17.633019242
    57.190742380        78.109196459        17.860224060
    58.723269424        75.941932267        17.293446655
    60.521479344        78.112168850        17.190174579
    62.643108876        76.574738681        17.764578614
    65.046850437        78.138685707        17.695438835
    66.555359624        75.955542689        17.140445199
    68.327595835        78.151279259        17.083433012
    70.470661501        76.641382818        17.662275496
    68.300839786        76.613849090        19.499418204
    72.872212508        78.189685681        17.618078548
    74.357799115        76.014442965        17.031984515
    72.781773932        76.046513500        19.465067111
    76.149280905        76.640757051        19.391207573
     0.114991554         2.358897373        21.560171212
     2.465523000         1.800197362        23.356211384
     4.019368826         1.780211943        20.910688628
     6.377116582         0.076152346        21.525413782
     5.825801146         2.390216989        23.304262780
     7.954213571         2.442781378        21.475153038
    10.357407494         2.121442437        23.351741679
     9.530629925         0.027377286        21.543448887
    11.870767193         1.521152417        21.121483688
    15.772612811         2.132182156        21.902181820
    14.264885964        78.202044570        21.203001113
    17.516684759         0.010989164        21.844013136
    19.729065804         1.574944873        21.196437210
    23.609005885         2.142992273        21.932344518
    22.106129550         0.027377286        21.267546160
    27.559982494         1.539127561        21.235414292
    31.448371853         2.098836621        21.996014378
    33.150197408         1.552518965        19.528924512
    35.374157094         1.474454589        21.314056102
    37.770701121         2.065843080        19.573902876
    37.756384288        78.172242438        21.389603501
    40.937224788         1.530953486        19.606722392
    39.241579724         2.090498282        22.074437392
    45.582450465         2.014459825        19.636510009
    43.165487348         1.469659653        21.377350882
    48.723782765         1.463472386        19.682738641
    47.067332966         2.037965181        22.138326049
    50.994839356         1.413504928        21.465150900
    53.364940270         2.093251655        19.732811845
    56.560175838         2.247612616        19.632821721
    54.866173690         1.992331156        22.299016648
    58.759413561         1.635237480        21.193217772
    61.083121676         1.678470125        19.555117611
    62.672290181         2.292354924        21.722830982
    64.449298670         2.232774127        19.517078229
    66.553169071         1.707067656        21.149708471
    70.478641375         2.322313497        21.617996073
    74.419760493         1.752052448        21.059564202
    76.215701624         2.339060574        23.428508088
     2.514301938         3.939333348        21.509722928
     0.101264605         5.673590561        21.001489288
     1.924401462         6.259847766        23.347365743
     5.800445486         3.975627807        20.845424677
     4.054855797         6.323621199        21.455367559
     6.391597707         5.693036256        23.295135829
     7.956169423         5.699990086        20.906093896
    10.373914881         3.946255890        21.179464832
     9.708847118         5.497124396        23.363619218
    13.629390677         3.885892885        21.817288673
    11.857545637         6.092556904        21.778249078
    14.163964024         6.034204174        23.409535283
    15.774490428         5.476536677        21.288206827
    17.564485771         5.508536813        23.423788330
    18.120808188         3.904595483        21.282049260
    19.707473203         6.027445895        21.790970548
    21.476971222         3.895568801        21.835730115
    23.606502395         5.453938683        21.294458163
    21.997775374         6.037763221        23.465703539
    25.959939454         3.885845953        21.327340192
    27.522586612         6.026976570        21.832166854
    31.432881509         5.401710643        21.379570107
    29.300612144         3.876928780        21.892679789
    33.746340962         5.959604980        19.502262562
    33.806268253         3.851866830        21.397949035
    35.340125277         6.007405722        21.888616420
    37.132937046         5.406396070        19.537207532
    37.103286337         3.832906104        21.945753634
    41.528439596         5.979989325        19.555961541
    39.223194720         5.403760028        21.439707962
    41.579135269         3.833821287        21.443677560
    44.970190695         5.403361102        19.591812955
    44.957751479         3.810707036        22.015674831
    43.141704193         5.952619861        21.921592219
    49.341284218         5.905554395        19.637478966
    49.405201446         3.785637264        21.519818836
    47.069054115         5.371939800        21.500752260
    52.768640248         5.312272960        19.673361637
    52.734451963         3.750195411        22.154860833
    50.969335052         5.927956837        21.979667134
    54.842859939         5.268649210        21.495969988
    57.117358829         5.548398142        19.602315200
    57.221879536         3.783173308        21.832416907
    58.737116853         6.134358108        21.764871219
    60.523044025         3.803776671        21.154990850
    62.674011331         5.596097197        21.162867534
    65.035741200         3.848589378        21.717986196
    66.586183845         6.223772325        21.661567886
    68.339643881         3.847071894        21.101073075
    70.483648355         5.642474319        21.089383076
    72.860477399         3.879924637        21.620965457
    74.431339134         6.254880744        21.601461288
    76.198411897         3.895733064        21.001739341
    76.762714187         5.701585791        23.413004774
     1.879127410         7.833501996        20.949790737
     0.113028661        10.213996137        21.510441832
     2.427055311         9.633910554        23.326298740
     4.039490627         9.609974984        20.943008037
     6.475120392         7.899755028        21.522538167
     5.821114925        10.282908677        23.295635936
     9.720425760         7.868623143        21.756525685
     7.951162443        10.316152525        21.496501352
    10.291143243        10.009370478        23.325986173
    11.888839261         9.408947483        21.170869245
    13.645585128         9.456271077        23.393688145
    14.217241420         7.843201377        21.222192715
    15.764711171         9.992083678        21.757557155
    17.563077558         7.833971321        21.773216753
    19.685489432         9.390174486        21.223786806
    18.090844542         9.957275414        23.397001354
    22.031416021         7.798513824        21.263263995
    23.601026010         9.952112840        21.820570625
    21.459837962         9.409886132        23.423944613
    25.362544155         7.802776859        21.831447950
    27.517423164         9.367803333        21.311930648
    29.875554267         7.792396956        21.332935138
    31.410741269         9.939988613        21.884709335
    33.212158785         9.331899977        19.491260211
    33.210515870         7.794978243        21.892023399
    35.345836363         9.357869289        21.329903240
    37.663442222         9.872562268        19.505450744
    37.677837289         7.759833630        21.370599439
    39.225385274         9.866382824        21.900493959
    41.001220251         7.728600058        21.969539969
    45.475660970         9.837128238        19.562744241
    45.518142066         7.713941476        21.416109167
    43.141782427         9.256416888        21.434706893
    48.846140838         9.282542641        19.608003916
    48.815081915         7.714074452        21.973915904
    47.035648171         9.843542345        21.982792802
    50.965110412         9.245231311        21.502440121
    53.285767399         9.880853675        19.657889579
    53.342408860         7.694222008        21.448834913
    56.596789380        10.023997771        19.586655602
    54.874544734         9.851911972        22.081001295
    56.614313809         7.700917710        21.194061702
    58.742045599         9.466361563        21.189998334
    61.039701772         9.491548666        19.570152074
    61.106357193         7.722162484        21.736677692
    62.693961017        10.096743131        21.682916200
    66.590330250         9.542548639        21.107824518
    64.448751032         7.751104187        21.117357806
    68.947209608         7.769423502        21.648877674
    70.508683255        10.172148000        21.625810243
    72.282562381         7.789588829        21.072035618
    74.415066449         9.581893710        21.029651558
    76.774918701         7.816442036        21.536697444
    76.227984372        10.153140341        23.402471273
     2.493734203        11.792492235        21.476809642
     0.112069512        13.497549617        20.967888355
     1.910288037        14.074428146        23.324079516
     5.837583195        11.808058178        20.794913880
     6.388961219        13.523675370        23.253408159
     4.051264853        14.143418907        21.425079835
     7.945216654        13.554963697        20.815605803
    10.314378760        11.790145611        21.113044384
     9.707125969        13.389292005        23.341958337
    13.650044470        11.770121082        21.734989831
    11.845810527        13.939027911        21.686635745
    14.156610022        13.895928241        23.348115904
    15.783174409        13.322334985        21.222442769
    17.562373452        13.363792019        23.395876113
    18.118461166        11.746263732        21.243103435
    19.673363152        13.855331636        21.761464240
    21.472511880        11.732340427        21.791283114
    23.579511643        13.294410154        21.263639075
    22.027739020        13.859399119        23.410191673
    25.930366978        11.720841967        21.253261857
    27.487381284        13.877389907        21.842825382
    25.347836151        13.324681610        23.441354584
    31.393216839        13.259680111        21.280455170
    29.264546241        11.724049020        21.857484766
    29.833386107        13.846179801        23.462202791
    33.774818160        11.687207015        21.307523456
    35.320879698        13.809885341        21.849608082
    37.115021446        11.669059785        21.883521581
    39.234851595        13.198276769        21.375663021
    41.583594610        11.643481578        21.416484247
    44.958768521        13.170977703        19.578372582
    44.925127875        11.616260733        21.989481731
    43.145615896        13.750593962        21.939846121
    49.395265720        13.703113925        19.604128087
    47.060604836        13.140315143        21.431518711
    49.392527528        11.614774538        21.479310177
    52.764728545        13.093069769        19.651356933
    52.746108838        11.584346640        22.149109604
    50.967222732        13.732524953        22.031396941
    54.850683345        13.079850451        21.458118147
    57.149356561        13.343845710        19.572465069
    57.231971730        11.604214728        21.758651139
    58.759100625        13.962259494        21.721830768
    60.529068048        11.618216254        21.182809297
    62.674950140        13.387962251        21.148677001
    65.056082057        11.654823597        21.645689492
    66.598231891        13.997771745        21.643564038
    70.496635210        13.480810362        21.060470646
    68.354351885        11.666556719        21.088570402
    72.889893406        11.717713134        21.568641773
    74.437441391        14.114007880        21.541729770
    72.303920280        14.036960375        23.405253117
    76.189258511        11.728585827        20.988486508
    76.770146423        13.523910032        23.371964752
     1.892685373        15.673887424        20.939351005
     2.460727252        17.455601206        23.283133263
     4.071942116        17.469680954        20.862053232
     6.426505745        15.728485555        21.489937449
     9.684907495        15.728329113        21.703014246
    11.863882596        17.264351307        21.162148630
    13.639326403        17.295248530        23.305981897
    14.177967921        15.680223310        21.165180528
    17.500490309        15.658165040        21.718142480
    19.667339129        17.189728647        21.197531194
    18.067374323        17.790855630        23.353554566
    22.033528340        15.643459526        21.213440845
    25.336961616        15.659494793        21.789063890
    27.478462601        17.168374364        21.240852954
    25.899386290        17.780530483        23.426663944
    29.848719983        15.618663527        21.281267843
    29.243110108        17.216401946        23.450231482
    35.312352185        17.150852901        21.318650834
    33.165844220        15.606617521        21.851764793
    37.670326819        15.572669686        21.340749308
    40.983148183        15.546074608        21.906995349
    39.232191637        17.707394018        21.908183103
    45.464395265        17.659131774        19.547428467
    43.139513639        17.077951099        21.385977726
    45.491073081        15.524642104        21.412170825
    48.830650494        17.117296170        19.573684079
    48.816959533        15.532151302        21.966789381
    47.040029278        17.672507533        21.934126149
    50.978566671        17.061681169        21.471245953
    53.248840922        17.653656316        19.605659665
    53.323945622        15.483341512        21.390009838
    56.586384249        15.515724931        21.146113953
    54.846145770        17.623697743        22.004516195
    58.746896111        17.272877377        21.155334674
    61.124272793        15.529178911        21.665381202
    66.586575015        17.371748490        21.068347329
    64.441162328        15.546622154        21.136549408
    68.946661969        15.596527035        21.581738322
    74.432512645        17.409607366        20.998113566
    72.287960532        15.620853710        21.028495061
    72.847490545        17.443555200        23.406034534
    76.812705753        15.657852156        21.505440763
     2.483078723        19.587353147        21.450741570
     0.119648828        18.049531874        21.505284479
     5.826372254        19.654701271        20.738026720
     5.837677076        18.143866180        23.239592706
    10.254686170        17.906309557        23.294073102
     7.936376205        18.163812489        21.434519352
    10.313831121        19.624351594        21.094040322
     9.709316523        21.186734204        23.276725643
    13.625244272        19.640386862        21.659223635
    15.757044233        17.814869421        21.687510932
    15.758765382        21.177582369        21.131829649
    17.531236295        21.171715807        23.326642564
    18.123311678        19.558176783        21.187997906
    23.559014319        17.834815730        21.783250147
    21.411332844        19.564121565        21.746336007
    23.571610003        21.095998056        21.205064054
    25.916050145        19.559271874        21.224286913
    25.352530195        21.159748022        23.401377289
    31.382420539        17.766450735        21.808443033
    29.248430024        19.530877717        21.814538085
    31.383515815        21.050395319        21.251386456
    33.755494347        19.499667611        21.278235945
    37.101486953        19.485118539        21.858860060
    39.216075420        21.018950551        21.319526021
    41.591965655        19.456802603        21.377194599
    44.953605073        20.942528812        19.522610662
    44.900327677        19.447728988        21.957443633
    49.393779273        19.405098643        21.434675636
    47.051842621        20.958251196        21.395573527
    52.732809048        20.889338656        19.598689425
    52.728506174        19.401265823        22.093097630
    56.576996162        17.762461474        19.541583468
    54.837070619        20.918906125        21.412264595
    57.217341961        19.404551097        21.718423790
    60.523356961        19.436230528        21.086820028
    62.672837820        17.896766617        21.643345241
    62.657034539        21.201752601        21.082412836
    65.027213688        19.461730514        21.623747302
    70.504067446        17.972327927        21.563890757
    68.344963797        19.491141542        21.032902253
    70.495931103        21.274028637        21.004739983
    68.952529524        21.298042428        23.420225068
    72.852341056        19.530095509        21.541542230
    76.201854195        19.585866952        20.934131139
    76.235181906        18.031932190        23.333737830
     0.100673938        21.372039321        20.907813013
     1.883007820        23.513177760        20.909438361
     1.880285274        21.880787519        23.266129628
     6.379854774        21.350919700        23.215400034
     4.035015639        21.934916324        21.397792752
     6.407197579        23.558467614        21.488812208
     7.952727124        21.393550046        20.785380592
     9.673485322        23.565194604        21.671507511
    11.827816693        21.790442474        21.669882164
    14.153245958        21.750706299        23.296729919
    14.183600774        23.527726832        21.113356951
    17.509017821        23.495734518        21.682103526
    19.653726402        21.702444054        21.704170743
    22.002469418        23.464055087        21.194843119
    21.963430621        21.701974730        23.374715340
    27.486598943        21.660048371        21.767653063
    25.321705974        23.449349573        21.769122127
    29.843713003        23.445438532        21.227443838
    29.788870926        21.665836712        23.407691139
    33.171633541        23.410630268        21.784187848
    35.314620973        21.618982442        21.794940146
    37.674238522        23.388493777        21.300240649
    40.982287608        23.366904831        21.867236850
    43.137870724        21.569937990        21.898399762
    45.519863216        23.315357313        21.355502462
    48.812109021        23.314184000        21.909652167
    50.943204875        21.524569915        21.992919966
    53.298597786        23.304484619        21.371380856
    56.573788565        23.310194739        21.111981657
    58.749556069        21.792006891        21.674851976
    61.150637672        23.336711596        21.626997997
    64.420352067        23.387711569        21.084600804
    66.582506844        21.862640289        21.628529574
    64.448516330        21.790990020        23.466922550
    68.946974906        23.404998370        21.563484420
    72.256666907        23.441762154        21.001926881
    74.422498685        21.900655606        21.518693596
    72.305797898        21.844336618        23.381591810
    76.738774564        21.366172760        23.334738044
    76.772336977        23.497298934        21.473621461
     2.439963932        27.422810664        21.374350241
     2.415312379        25.328057169        23.256158747
     0.088435784        25.875524672        21.461868949
     5.783969393        27.462312177        20.728837256
     4.004011480        25.286678357        20.845049597
     5.807048441        25.960081375        23.218494446
    10.295837287        27.473419533        21.066096848
     7.910558965        25.950694877        21.379476336
    10.233015335        25.732537017        23.263691607
    11.832197800        25.127264331        21.077349254
    13.607954544        27.451830587        21.647689920
    13.610223332        25.129610955        23.283195776
    15.723951224        25.655098408        21.639031819
    19.646372401        25.062262831        21.155334674
    18.098980884        27.409747787        21.149208364
    18.031543123        25.624748731        23.310857939
    21.441296489        27.382214060        21.709734433
    21.443878214        25.080566503        23.359305796
    23.542819868        25.595337703        21.739490793
    27.467040428        25.006804272        21.225224614
    25.927315850        27.357418060        21.192061275
    25.864415664        25.580006423        23.364463148
    29.248899428        27.358200269        21.752493573
    31.364270236        25.563501830        21.783156377
    29.234191425        25.017911628        23.417130656
    35.307266971        24.967850305        21.281955490
    33.729755341        27.338879727        21.242040708
    37.072227414        27.310876674        21.830885330
    37.077625564        24.991707654        23.480081613
    39.212241951        25.507261063        21.856453295
    41.563410222        27.282951842        21.317994444
    41.533446576        25.487392975        23.506587279
    43.136462511        24.904960767        21.373475054
    44.887810227        27.259563818        21.890960672
    49.374924864        27.236566897        21.401949890
    47.033457617        25.469871512        21.918997915
    50.944847790        24.892601878        21.402606281
    53.269651183        25.500690514        19.577747448
    52.708400020        27.217246355        22.017862798
    54.846145770        25.492320886        22.020175793
    58.758787688        25.068833380        21.087007568
    57.232049965        27.210910469        21.689230050
    61.090397444        25.146663094        19.452220615
    60.507710149        27.255965660        21.094509172
    62.648741729        25.751935780        21.611463426
    66.585166802        25.171380872        21.039841236
    65.021189665        27.313692623        21.568923083
    68.348953734        27.312910415        20.986923674
    70.490141783        25.801371337        21.527539236
    68.368512250        25.746616764        23.394313279
    74.410450639        25.240919179        20.950728437
    72.855626887        27.370559158        21.515661698
    72.826289114        25.263212112        23.362931571
    76.162580696        27.397076015        20.885308203
    76.203340642        25.859098300        23.316421629
     1.851941073        31.323839278        20.875743658
     1.868847454        29.708579395        23.230153188
     0.055820629        29.196545923        20.861084275
     4.017976260        29.786018004        21.339155217
     6.338023021        29.171828145        23.186862684
     6.395266884        31.407066227        21.406169542
     7.915174774        29.212815853        20.762750755
     9.670590662        29.061223909        23.240592920
     9.654474445        31.395958871        21.600586101
    11.807319369        29.605093253        21.602117678
    14.125238163        29.565278857        23.259034362
    14.192206521        31.347227302        21.067659682
    15.752271955        28.965246965        21.100010348
    17.492901605        31.333773321        21.643001418
    17.512068950        29.019923317        23.292416497
    19.644651251        29.532191451        21.682759916
    23.560970171        28.916828279        21.160367000
    22.022184401        31.293254938        21.152771626
    21.955841917        29.506769685        23.322360398
    25.346427938        31.280817828        21.737865446
    27.482296070        29.489326443        21.769434694
    25.337978659        28.949524581        23.340520530
    29.836202533        31.247808643        21.209127423
    31.390869817        28.915498526        21.250480012
    29.800606035        29.484398532        23.385999002
    33.157003771        31.234354662        21.761620524
    35.307736375        29.435666962        21.786938436
    33.182586310        28.925041465        23.415255255
    37.644353111        31.228253438        21.279204902
    37.622134637        29.431677701        23.451700546
    39.221942975        28.880220937        21.280986533
    40.978610607        31.224498839        21.830166426
    43.131924935        29.396087229        21.892398479
    45.468932841        31.175767270        21.315431396
    47.036821682        28.806693368        21.355033612
    48.797557485        31.149093971        21.852890034
    52.715049916        28.712202621        19.534863281
    50.944769556        29.367145526        21.923780187
    53.304465340        31.107558717        21.322557920
    54.840669385        28.711420412        21.362160135
    56.599918742        31.137439069        21.099604011
    57.161639309        28.973694814        19.493416922
    58.742280301        29.620111650        21.663630827
    62.667830840        29.057391089        21.040872706
    61.133035008        31.172716658        21.601273748
    64.448438095        31.212296392        21.014929661
    66.578595141        29.680654563        21.580925648
    64.456730906        29.624335574        23.427789185
    70.482709547        29.090556715        20.987892631
    68.951043077        31.235058650        21.515380387
    68.884152954        29.128650253        23.388311996
    72.245557670        31.276593904        20.935193866
    74.401531956        29.767557891        21.480591701
    72.261517419        29.712412215        23.340833097
    76.764904741        31.301937449        21.446240608
    76.736349308        29.149300549        23.297167513
     2.391670045        33.138249362        23.218244392
     2.425169871        35.252636281        21.345531580
     0.080153144        33.674061962        21.402356227
     5.783593869        35.273130136        20.676107234
     3.991157623        33.153033096        20.823763797
     5.772328164        33.798433062        23.156981297
    10.306555354        35.266403145        21.000957924
     7.898980324        33.803204532        21.365410830
    10.219637310        33.554149449        23.210211425
    11.824765564        32.905073105        21.058376448
    13.603729905        35.261084130        21.594022198
    13.603573437        32.935892107        23.230528268
    15.740849782        33.470531395        21.626779200
    18.095616820        35.228622490        21.083788130
    19.654430509        32.858062393        21.103823663
    18.071755431        33.419687863        23.276788157
    21.429639614        35.204295816        21.652941042
    21.430187253        32.891071578        23.304075240
    23.576851685        33.409206274        21.680259382
    27.473846791        32.864163617        21.196343440
    25.929349935        35.204765141        21.164399111
    25.873881985        33.397864255        23.342333418
    29.246474172        35.187243678        21.724706383
    31.370763663        33.404043700        21.718330020
    29.284808863        32.848675895        23.396595017
    35.287082583        32.793373777        21.249104718
    33.750878537        35.147898607        21.218660710
    37.070584499        35.141875604        21.804598461
    37.075591479        32.814102294        23.442323542
    39.191040520        33.378387272        21.826384368
    41.573033012        35.116453838        21.295895970
    43.134663127        32.745033312        21.297646344
    44.899075932        35.092205385        21.842887896
    47.040342214        33.305329028        21.880677223
    49.392683996        35.084539744        21.347969602
    50.951888856        32.715231180        21.403075131
    52.718257512        35.056771354        22.001515554
    54.857567943        33.301730871        21.975853818
    58.746817877        32.897720348        21.067472142
    57.227042985        35.065297423        21.646314626
    60.503329041        35.086260602        20.997207122
    62.653435772        33.537019090        21.545574342
    60.545731903        33.500177085        23.427164051
    66.571319373        32.982511714        20.982078889
    65.033394179        35.110900160        21.567110195
    64.994120679        32.987752509        23.404659240
    68.338783306        35.144613332        20.942226620
    70.488264165        33.620637144        21.511535816
    68.354743055        33.543120314        23.345459086
    74.410450639        33.045479472        20.902530634
    72.867127294        35.177074972        21.460368628
    72.804070640        33.077158903        23.304856657
    76.165710059        35.213604093        20.871117669
    76.213902241        33.620089598        23.273568719
     1.853443167        37.537701025        23.213055783
     0.061587731        36.994222785        20.810698504
     3.980908961        37.630236252        21.334247918
     6.302270055        36.998290267        23.138821165
     7.914001264        37.019566329        20.715146829
     9.674580599        36.833322563        23.200428084
    11.801530048        37.443288498        21.589740033
    14.114363629        37.380555402        23.236779604
    15.728958204        36.823857844        21.085257194
    17.505497289        36.802112457        23.255064763
    17.492353966        39.146703242        21.640438370
    19.630647354        37.349110634        21.666381415
    23.540707548        36.786702956        21.115638688
    21.965308238        37.317274761        23.286321445
    21.984240881        39.107201729        21.120358447
    27.473846791        37.319073840        21.654691417
    25.349870237        36.775517379        23.312452030
    25.315838420        39.123940984        21.675289570
    31.375379473        36.717477532        21.195843333
    29.788088585        37.319464944        23.344083792
    29.812028208        39.078885793        21.149552188
    35.307814609        37.269325400        21.756463171
    33.126492487        39.055497769        21.750649429
    33.168504178        36.729288875        23.377715981
    37.668449202        39.059095927        21.226881218
    37.624012254        37.284891343        23.414286298
    39.199411565        36.701833368        21.243947366
    40.990658653        39.052290716        21.792470868
    41.020700533        36.708795021        23.434634398
    43.147102343        37.234204253        21.828759876
    45.489743102        39.005358225        21.297302521
    47.047461514        36.637770519        21.284424768
    48.782145375        39.001290742        21.845263403
    50.955409389        37.226851496        21.889272811
    53.314948705        38.947240158        21.294833243
    54.841921130        36.559862585        21.326089925
    56.576996162        38.963040763        21.013804420
    58.768488712        37.460497078        21.618777490
    62.642717706        36.845212127        21.019711933
    61.137650817        39.036255448        21.577799980
    66.572492884        37.509541531        21.518631082
    64.429740155        39.050491637        21.000239021
    64.443900520        37.454552296        23.372746169
    70.480831929        36.901296453        20.947196432
    68.864672672        36.962308691        23.344365102
    68.927494624        39.065431813        21.465182157
    74.390109783        37.565156532        21.434738149
    72.282718850        37.508524660        23.302262352
    72.235309008        39.081858185        20.907469190
    76.724614199        37.011509585        23.261472383
    76.786340874        39.129885767        21.369442942
     1.862354027        39.155463974        20.805228585
     2.390903351        40.944921617        23.185487390
     0.075112993        41.515855365        21.352376794
     6.348850615        39.189490030        21.336498399
     4.005443163        40.929668558        20.761250434
     5.760397470        41.560363010        23.122348894
     9.637341186        39.158671027        21.621590591
     7.882551171        41.533846153        21.313118402
    10.213222117        41.357536430        23.180298781
    11.801217112        40.689139544        21.011522683
    13.579320877        40.752420185        23.207242040
    14.157157661        39.154916428        21.032433402
    15.729662311        41.285260395        21.587958402
    19.635889036        40.674981576        21.080443665
    18.073085410        41.258430654        23.254127063
    21.438792999        40.706504565        23.270067970
    23.540316378        41.236685267        21.656504304
    27.461094639        40.650029135        21.151083765
    25.861912174        41.221353987        23.287602968
    31.369668386        41.205396940        21.713266438
    29.214711143        40.693285247        23.326736334
    35.273782792        40.599733149        21.208189722
    33.690090671        41.190143880        23.335550718
    37.053998877        40.615690196        23.413379855
    39.210990206        41.190300322        21.764871219
    41.518190934        41.185841735        23.415036459
    43.119955124        40.596369654        21.258981830
    44.915270383        40.621947862        23.447293354
    47.035413468        41.144071819        21.837417976
    50.937337320        40.542319069        21.344343827
    54.845832834        41.134607100        21.934751282
    58.754719517        40.775729989        21.030964338
    62.667361436        41.431689765        21.528977044
    66.560366604        40.824930883        20.952197501
    64.992947168        40.872489140        23.362619004
    70.464402776        41.447177487        21.469995686
    68.328925814        41.401887634        23.323391869
    74.372820055        40.879763676        20.878744300
    72.792883169        40.891887903        23.286915321
    76.177914572        41.439355405        23.234466610
     2.468589775        43.068773256        21.313993589
     1.867173245        45.361738302        23.153636832
     0.046319807        44.801677248        20.796320431
     5.787935860        43.087155148        20.629503522
     4.005920391        45.435813416        21.257356482
     6.343741931        44.810516201        23.097937425
     7.898119749        44.832809134        20.624752506
    10.264387194        43.061029395        20.949634453
     9.624119629        44.616685015        23.160294505
    13.576817387        43.057978783        21.558202041
    11.796992472        45.222818130        21.538103995
    14.130166909        45.192468453        23.191988780
    15.723403586        44.619735627        21.057032411
    17.506044927        44.614964157        23.216400248
    18.082082327        43.032948121        21.053937999
    19.645120656        45.172913248        21.608681581
    21.412584589        43.026612235        21.637062648
    23.533275313        44.546364500        21.112044170
    21.972349304        45.141859584        23.281820482
    25.903141525        43.010029422        21.118920640
    27.432148036        45.130361124        21.666068849
    25.312943759        44.596191160        23.282226819
    31.367790769        44.528921257        21.162242400
    29.252732897        42.993446609        21.709765689
    29.786132733        45.124963887        23.336957268
    33.715829678        42.963253373        21.200438065
    35.272061643        45.075606551        21.713704031
    33.148398024        44.598068460        23.346990663
    37.055015920        42.937596945        21.761808064
    37.593500970        45.086713907        23.378684938
    39.192605201        44.479329259        21.219754694
    41.579369971        42.948000314        21.229381752
    44.887497291        42.941820869        21.800910172
    43.110723504        45.101654084        21.784437901
    45.435839833        45.083819737        23.422256752
    49.377350120        45.015689405        19.436467248
    47.016715528        44.491375265        21.272015866
    49.402932659        42.913270271        21.342468426
    52.707226509        42.872751887        21.961381975
    50.957130538        45.046508407        21.851389713
    54.833393618        44.389297098        21.284924875
    57.210457363        42.902554019        21.601930138
    58.734456895        45.298535881        21.557389367
    60.501451424        42.917572416        20.979672124
    62.647489984        44.732921150        20.946102448
    61.054175073        44.740352127        23.387186756
    65.035897668        42.964348464        21.491594053
    66.575465778        45.311051212        21.466276141
    64.425593749        45.302212260        23.338520103
    68.333541624        42.969589259        20.926848332
    70.471678544        44.732451825        20.880432161
    68.904180874        44.780635848        23.326955130
    72.835833669        43.013314696        21.388009410
    74.390500953        45.395216812        21.389822298
    72.258075120        45.336394757        23.251657785
    76.145682139        43.026455794        20.787099710
    76.712957324        44.801442586        23.197646239
     1.818339544        46.943285012        20.784005298
     2.364147302        48.747682832        23.124943198
     0.074439397        49.315565968        21.283518324
     4.003964539        48.757382213        20.749435409
     6.349945892        47.015326385        21.312618295
     5.776842269        49.440641055        23.098593816
     9.607455774        47.002341730        21.564922227
     7.871285466        49.400826659        21.291269981
    10.213143883        49.149346730        23.144447367
    11.789873173        48.549080176        20.991018299
    13.565238746        48.568009614        23.171828220
    14.152776553        46.942424583        21.025213109
    17.481401197        46.939921517        21.605837223
    15.693048770        49.080355969        21.559202255
    18.025753802        49.062834506        23.229871878
    19.623371586        48.488850147        21.052437679
    21.398893628        48.535939079        23.243718588
    21.982910902        46.931160786        21.102260829
    23.523026650        49.057906594        21.639563183
    27.438719697        48.440979006        21.118295506
    25.279616049        46.904409266        21.595397492
    25.834373784        49.010191896        23.260690966
    29.789262096        46.890485961        21.156366144
    31.357072702        49.025444955        21.668381843
    29.226289784        48.465071018        23.297792647
    35.252816063        48.442074098        21.138362296
    33.139322873        46.889938415        21.680259382
    33.672488007        49.028730229        23.335957055
    37.643101366        46.857007451        21.179683629
    37.068159243        48.461238198        23.357117828
    39.201680353        49.004951101        21.719080180
    40.953341005        46.859745179        21.752931166
    41.532351300        48.993139758        23.392625418
    45.481450291        46.837530467        21.227475095
    43.101178949        48.394672282        21.226287341
    44.904082912        48.422206010        23.426788971
    48.788951738        46.842380158        21.805348621
    47.030562957        49.005498647        21.790251644
    49.312728785        48.988055404        23.453513434
    50.950793579        48.390135475        21.305366745
    53.321911536        46.791301964        21.256293755
    56.557359412        46.818209925        20.994550305
    54.847866919        48.989306937        21.865830300
    58.743766748        48.605008061        20.991018299
    57.195279955        48.563081703        23.416818090
    61.087972188        46.846134757        21.495907475
    62.668691415        49.220762337        21.457524270
    60.569123887        49.160219424        23.367463790
    66.573979331        48.634027984        20.903937185
    64.421838514        46.849028927        20.923910204
    64.972371610        48.675406797        23.311201763
    68.923348219        46.873668485        21.444083897
    70.493505847        49.253067534        21.383914785
    68.380560295        49.186501619        23.269536607
    72.238281902        46.914421531        20.841517592
    74.410137703        48.695353105        20.827452086
    72.788736764        48.705052486        23.221526344
    76.771163466        46.936245139        21.324214524
    76.194969598        49.255179496        23.187175251
     2.422220446        50.877244590        21.232819987
     1.766540771        53.203531705        23.061835958
     0.071780221        52.644878626        20.651164402
     5.755789483        50.939195478        20.551518102
     6.376021305        52.603656255        23.027516122
     4.015238068        53.255783211        21.315525166
     7.881690596        52.688525842        20.489317306
    10.219559076        50.902509914        20.921003333
     9.640470548        52.455818910        23.123380364
    13.553894807        50.880999189        21.525757606
    11.783301512        53.036686701        21.496751405
    14.105288477        52.977551763        23.164857980
    15.705722688        52.371418647        20.997050839
    17.465519683        52.426564324        23.190269662
    18.063462620        50.826635721        21.032839739
    19.614922308        52.984748078        21.583895033
    21.377457495        50.838447065        21.601430031
    23.525451906        52.371105764        21.088664172
    21.927912356        52.955806375        23.230653295
    25.884130647        50.812008428        21.120295934
    27.418300607        52.943603928        21.635906151
    25.315760186        52.412641018        23.252032865
    29.200629012        50.790263041        21.674039302
    31.314200436        52.363753007        21.122827725
    29.739270530        52.957918337        23.311795640
    33.690168905        50.801057514        21.139675076
    35.255163085        52.897844750        21.685197938
    33.122659018        52.401533662        23.306169437
    37.005963163        50.766171029        21.723206062
    37.582078797        52.890491993        23.344177562
    39.171325537        52.332777563        21.173869886
    41.538297088        50.763902626        21.222536539
    40.948099323        52.377910975        23.379841435
    44.867625839        50.762807534        21.774498277
    43.085766838        52.908717443        21.735021088
    49.408017873        50.762885755        21.297083724
    47.005997461        52.286157956        21.240946724
    48.794662825        52.363049020        23.472079902
    52.730540260        50.706879650        21.888897731
    50.933112681        52.887910706        21.854359098
    54.876265884        52.261127295        21.221380042
    56.558376455        53.115376843        23.409972876
    57.234788157        50.754829011        21.566547575
    58.756753603        53.180691226        21.615901875
    60.530476261        50.825071305        20.927848546
    62.684651163        52.603656255        20.833203315
    61.183730680        52.598493681        23.323266842
    65.026118411        50.807236958        21.439457908
    64.405957000        53.120852300        23.274475162
    66.622406216        53.187809320        21.504253009
    70.518071343        52.615624040        20.746309740
    68.371719846        50.809974687        20.867773205
    69.031780629        52.614372507        23.237467251
    72.847412311        50.860036010        21.355877542
    72.205423596        53.174433560        23.185487390
    74.415144683        53.229501016        21.426298845
    76.182765084        50.866606559        20.771533882
    76.813957498        52.651292733        23.150667447
     1.801472280        54.801895891        20.703644370
     1.741372873        56.601287578        23.184205866
     6.372078308        54.806276257        21.296333564
     3.986221054        56.482157273        21.433550395
     9.597832984        54.772563084        21.548574983
    11.763664762        56.316094477        20.961261939
    13.521740608        56.346913479        23.159012981
    14.143936104        54.760908182        20.995831828
    17.438528931        54.750191930        21.546543299
    19.578152298        56.280660447        20.994206481
    21.299066964        56.342220230        23.216744072
    21.953416661        54.748549293        21.042591824
    27.388728132        56.295835285        21.031933296
    25.262482789        54.736033962        21.625466419
    25.819509312        56.869663203        23.227340087
    29.751944448        54.725787035        21.103261043
    29.119578524        56.306316875        23.256315030
    31.301604752        56.887810433        21.683697617
    35.221913609        56.267284687        21.099041391
    33.069538090        54.707248702        21.664756068
    33.632979806        56.869663203        23.300887058
    37.587085777        54.674630621        21.182746783
    36.951668724        56.258211072        23.329299382
    40.915788655        54.683626015        21.759963920
    41.473910455        56.821792063        23.376246917
    39.129000909        56.827345741        21.751837182
    45.433962215        54.656796274        21.218566940
    43.044302786        56.238108322        21.177776971
    44.808011484        56.226296979        23.373277532
    48.768767350        54.650773271        21.800066242
    46.947556617        56.819523659        21.800097499
    49.281043990        56.811779798        23.384467424
    50.904166078        56.182102217        21.234476591
    53.286549740        54.600399065        21.210815283
    56.414973419        54.687615276        21.205126567
    58.748617260        56.454388883        21.780593329
    61.171056762        54.719451149        21.505628303
    64.420743237        54.732826909        20.846299864
    66.613565767        56.488102055        21.739178226
    64.271550881        56.490918004        23.326955130
    69.029981246        54.746437331        21.434519352
    72.250173480        54.760517078        20.744934447
    74.410998278        56.506483947        21.643501525
    72.069922200        56.520720136        23.260909763
    76.807620539        54.753477205        21.348876045
     2.200426880        58.690565615        21.512817339
     0.065418071        57.127087914        21.029901611
     6.053039803        57.227992768        23.134101406
     5.468975588        58.697527268        20.949103090
     5.468568771        60.404305507        23.189300705
    10.032657902        57.004359451        23.095061811
     7.884428788        57.192871621        21.042279257
    10.029137369        58.674139244        20.533201686
    10.051199375        60.182862373        23.029985400
     7.856577462        60.201870031        21.327558989
    13.263568202        58.667099370        21.327152652
    15.671064998        56.916517473        21.619652677
    15.642353097        60.207189047        21.335748239
    18.017304523        56.904706129        23.195520785
    17.825944007        58.650907661        20.698205708
    21.074065802        58.674295685        21.357659173
    17.917321392        60.254277979        23.116097557
    23.474990936        56.917377902        21.650534278
    23.452381292        60.235270321        21.406107029
    25.620951262        58.643789566        20.804540938
    25.661007102        60.243327065        23.194176748
    28.879087016        58.645666866        21.412483392
    31.258810720        60.157831711        21.486436700
    33.450537973        58.601784987        20.813324065
    33.494427282        60.197802549        23.255127276
    36.697955660        58.606400016        21.480935524
    39.100445476        60.126386942        21.516224318
    41.286226940        58.582855549        20.892903576
    41.350300637        60.133113933        23.315452672
    44.534818138        58.585593278        21.552607095
    49.116908927        58.556886238        20.884558043
    46.951781256        60.098462111        21.610088132
    49.210633334        60.060994339        23.367963896
    52.399375475        58.561501266        21.655222780
    54.787079053        56.897666256        21.521225387
    54.774405135        60.329526406        21.916403610
    56.928501803        58.618133138        21.866267893
    60.275354984        58.624703687        21.254762178
    60.307743886        60.409311640        23.455701401
    62.655313390        57.091419221        21.161460983
    62.643187110        60.390147539        21.789814050
    60.890587649        57.031032750        23.394219509
    64.808001845        58.643007358        21.748023867
    70.489437676        57.145313364        21.074254842
    68.109948674        58.642850917        21.143582162
    68.773373522        57.076322603        23.331018499
    70.476607290        60.452489531        21.692105664
    72.631877469        58.650907661        21.647314840
    76.602490828        57.121612457        23.235685621
    75.979200054        58.673278815        21.081100055
    75.980451799        60.445840761        23.287759252
     0.041688976        60.462501796        21.654128796
     1.580124648        62.609037471        21.108918502
     2.194027334        60.975708580        23.237904845
     3.941244292        61.073797485        21.007646854
     6.078231171        62.581816627        21.617183399
     9.418129343        62.551310508        21.359284520
    11.770549359        60.770926479        20.590964034
    13.903601065        62.588856500        20.806885189
    13.266384629        60.751449496        23.109658681
    17.226827559        62.578922456        21.287581693
    19.539035267        60.784849785        20.642068708
    21.067807077        60.785866655        23.149198383
    21.691176084        62.570318167        20.801696580
    25.038576903        62.560697006        21.368724038
    27.388728132        60.763182618        20.718303754
    29.520293390        62.552718483        20.903999698
    28.859763203        60.751058392        23.231653509
    35.184517727        60.738386619        20.776691235
    32.835774712        62.515954698        21.432518925
    37.344169014        62.499606547        20.949759480
    36.740358522        60.759819123        23.274850242
    40.708546625        62.504299796        21.512786083
    43.026387185        60.721178039        20.856833366
    45.199494731        62.472307482        21.009647282
    44.541859204        60.692392778        23.363963041
    48.568801087        62.446025287        21.550012790
    50.878270603        60.680112110        20.898873603
    53.029550846        62.477078952        21.038028348
    50.896499140        64.048065852        21.601867625
    56.337991102        62.531285979        21.266514690
    58.717636572        60.977272996        21.309773937
    60.860545769        62.532928616        21.814881909
    64.191673903        62.548807442        21.242040708
    66.564043605        61.005901815        21.253074317
    68.171284179        60.406026365        23.347178203
    68.671982177        62.548729221        21.765277556
    74.389796847        61.023188616        21.150583658
    72.044574364        62.594566620        21.166118229
    72.612006017        60.984312870        23.331549863
    76.523865595        62.597617232        21.679853045
     1.639504301        64.373542674        23.299480507
     2.175235512        66.499740937        21.684447777
     0.054560591        64.948700345        21.144301065
     5.516463664        66.496690325        21.045905032
     3.949763981        64.347573362        21.638906792
     6.095247079        64.924999438        23.252032865
     7.864087932        64.753070081        20.781817331
    10.018654005        66.471737884        20.694611189
     9.478760741        64.816428943        23.160075708
    11.771722870        64.141148625        21.271797069
    13.914240898        64.200518225        23.187675358
    13.352989735        66.507484798        21.343499896
    15.698759856        64.734766409        20.802696794
    17.293952384        64.737113034        23.199802950
    17.839869670        66.517418842        20.826389358
    19.583706917        64.134656297        21.337404843
    21.146354075        66.504355965        21.403825291
    21.719340347        64.174001368        23.205647950
    23.492750068        64.709970410        20.857364730
    27.401636752        64.075208476        21.412889729
    25.660068293        66.476665796        20.905093682
    25.111569283        64.685721957        23.260065832
    31.310914606        64.696594650        20.957354854
    28.981651872        66.453277771        21.459462184
    29.504255407        64.151473773        23.293260428
    35.224338865        64.055418609        21.491000176
    33.455623187        66.436616737        20.964981484
    32.916355796        64.674692821        23.343802482
    37.328913372        64.124644032        23.345709139
    36.773686232        66.449210289        21.534134396
    39.149811169        64.645203573        21.014116987
    41.286226940        66.418000183        21.035777867
    40.772542088        64.628464318        23.403877823
    43.043051041        64.045328123        21.513192420
    44.628855481        66.416748649        21.586333054
    45.166323489        64.085768286        23.417161913
    46.983700753        64.608048685        21.081193825
    49.116674225        66.428951097        21.119577030
    48.594227158        64.616652975        23.458545759
    52.447020019        66.397819212        21.720424218
    54.808202250        64.933134403        21.340155431
    56.918253141        64.899499451        19.494542162
    56.945322127        66.426369810        22.034678893
    58.710986676        64.305959887        21.852858777
    60.247973062        66.442326857        21.381789331
    62.626523255        64.912327665        21.310023990
    66.565764755        64.321134726        21.830635276
    64.801508418        66.436851400        21.876019978
    68.128490147        66.456093721        21.290175998
    70.474573204        64.929692687        21.230725789
    68.707735144        64.856399781        23.441198301
    72.598862695        66.465401998        21.770122341
    74.395977338        64.364390838        21.717454833
    72.083847864        64.357038081        23.384936274
    75.915908698        66.485817631        21.176776757
    76.531297831        64.903097609        23.332174996
     1.620376073        70.440583947        21.216535256
     0.039264346        68.292953180        21.688229836
     2.182526927        68.830486638        23.358055528
     3.965340383        68.855360858        21.163805235
     6.107944468        70.433074748        21.714735502
     5.545566735        68.227325914        23.297323796
     7.879734744        67.988595978        21.402637537
     9.993384403        68.009402716        23.199177817
     9.435575539        70.378241955        21.444490234
    11.790655513        68.624453004        20.821325776
    13.943813373        70.417978130        20.891497026
    13.401338386        68.596606393        23.215087468
    15.728410566        68.065643484        21.387665587
    17.260624674        70.425096225        21.436426010
    17.820624091        68.104988555        23.259440698
    19.640113676        68.677799602        20.862990932
    21.214887113        68.614753623        23.294291898
    21.792802131        70.404211267        20.944633384
    23.544462783        68.023247801        21.455242532
    25.111725751        70.392634586        21.505378249
    27.467509832        68.606853321        20.939757342
    25.653340164        68.070806058        23.328799275
    29.619494181        70.377146864        20.959073971
    31.349718701        68.018632772        21.519693809
    29.021942414        68.621324172        23.368276463
    35.251642552        68.580101801        21.004927523
    32.913617604        70.352116202        21.549856507
    33.496070197        68.040847485        23.382373227
    37.405426285        70.365257299        21.052906529
    36.825868352        68.573765915        23.400220792
    39.163658598        67.966224825        21.598741957
    40.724115203        70.327476645        21.636843851
    41.319163480        67.979991689        23.447137071
    45.196756539        70.322939837        21.105542780
    43.079821050        68.557808868        21.066909522
    46.984639562        67.975611323        21.650065428
    48.544079124        70.319263459        21.686448205
    53.025873845        67.925237116        19.540426970
    50.899159098        68.534186181        21.165805662
    53.059436257        70.317933705        21.143144568
    56.379611623        68.098730890        19.585530362
    54.796701842        68.165766130        21.982230181
    56.361461320        70.362441350        21.397636468
    58.689550543        68.772133908        21.469776889
    60.829956251        68.742097114        19.556367878
    60.838327295        70.350160682        21.939095961
    62.628870277        68.211759971        21.909120804
    64.179938794        70.360876934        21.383821015
    66.554107879        68.755629316        21.351907943
    68.684186691        70.382309438        21.876019978
    70.480440759        68.245316702        21.750618172
    72.019382996        70.411564023        21.309148803
    74.381034632        68.815077137        21.255356054
    72.570776667        68.764781151        23.443292499
    76.472074646        70.434952048        21.762401941
    75.999384442        68.268782947        23.389687290
     2.236015555        74.323856435        21.856359525
     0.046047317        72.776805105        21.173276009
     1.532714806        72.163788558        23.433040307
     5.464508423        74.322996006        21.105261470
     3.970128307        72.219716442        21.834573618
     6.208428297        72.783923199        23.322704222
     7.862679719        72.592047534        20.804728478
    10.026008007        74.295931603        20.823419974
     9.421258706        72.557239270        23.252970565
    11.778059829        71.950558609        21.415859114
    13.351581522        74.320962265        21.477747343
    13.925897773        71.996239566        23.297667620
    15.730366417        72.547070564        20.931318038
    17.352549697        72.544802160        23.336926012
    17.917164924        74.328706125        20.959073971
    19.653961105        71.984897548        21.455430072
    21.231316267        74.320414719        21.540635786
    23.583345112        72.522822110        20.971920467
    21.764481400        72.012274834        23.358149298
    25.730009545        74.302658593        21.010116132
    27.485112496        71.946725789        21.550700437
    25.156240933        72.528845113        23.395876113
    31.392356264        72.502406477        21.025775729
    29.050654315        74.297339578        21.570235863
    29.606350859        71.950480388        23.398908011
    33.555841020        74.284902468        21.120671014
    35.307501673        71.893692075        21.584551423
    36.857161977        74.261123339        21.654316336
    39.195891032        72.509289909        21.094946765
    41.356246426        74.242272122        21.141144140
    43.094372585        71.857006511        21.675883447
    44.628777247        74.229443908        21.709953229
    46.999582268        72.431225533        21.170869245
    49.159546491        74.224985321        21.259388166
    50.917778805        71.818991194        21.791158088
    52.422298055        74.208793612        21.831479207
    54.820093827        72.721346545        21.426673925
    60.192192176        72.156435801        19.613004985
    57.010960505        72.752165547        19.714870510
    56.996487203        74.231321208        22.239972777
    58.720140062        72.123739499        22.149328400
    60.201814965        74.246574267        21.445521704
    62.609546464        72.694986130        21.364004279
    64.843128939        72.668312831        19.567714053
    64.804481313        74.232103416        22.007391810
    66.550430879        72.141808508        22.024926808
    68.034139868        72.141808508        19.503637856
    68.036565124        74.266520576        21.304366531
    70.427711001        72.732610343        21.267983754
    72.627261660        74.286388663        21.935251389
    74.350445113        72.195155106        21.929969010
    75.883910966        74.327298151        21.248760895
    76.584340525        72.786348045        23.457951882
     1.876342277         0.006601618        20.932412022
     0.072890050        76.056212881        20.973358274
     1.836826253        76.667352129        23.376434457
     3.987903086        76.718821427        21.499658277
     6.143188913        76.086797221        23.320578767
     7.907977241        75.990194511        21.194905633
    10.049008821        75.970326424        23.309513902
    11.857467402        76.491433510        20.917971435
    13.405875961        76.505982582        23.347522027
    15.759704191        75.844234466        21.516255574
    17.950336166        75.906811120        23.367901383
    19.693938710        76.478839959        20.952416298
    23.598913691        75.843843362        21.613370084
    25.360744771         0.007039874        21.875613641
    27.502871628        76.475867568        21.016336211
    25.761146702        75.864024333        23.405721968
    29.946512561        78.211656735        21.306491985
    31.416530590        75.835082630        21.651128155
    33.173980563        78.201027699        21.962069622
    35.340907617        76.449820035        21.047749176
    40.865797090        76.429795506        19.522673175
    40.969535456        78.157145820        22.023238947
    39.248151386        75.796206884        21.700826278
    45.295644393        75.794173143        19.571996219
    45.523618451        78.130628963        21.442521063
    43.147415280        76.417201954        21.130579382
    48.620748505        76.353764871        19.610629477
    48.753902879        78.126639702        22.062122259
    47.029937084        75.753576538        21.805598675
    53.040973019        75.722835757        19.627570598
    50.953140601        76.416967292        21.278954849
    56.567529840        78.142127423        21.182090393
    53.344130010        78.093630517        21.445896785
    54.844346386        75.688966143        21.694918766
    56.914889076        75.857453784        19.665516210
    58.745722600        76.610250932        21.783969051
    60.518741151        76.537192689        19.603878034
    61.146334798        78.154173429        21.740616034
    62.654687517        75.961800355        21.170462908
    64.974170993        76.022499709        19.542427398
    64.425359047        78.148463310        21.196937317
    66.561540115        76.599769343        21.741772531
    68.928433433        78.171538451        21.690792884
    70.464481010        75.998251256        21.080287382
    72.249704075        78.183584457        21.082725403
    74.406695404        76.656948760        21.653503663
    76.803082963        78.210335976        21.567016425
     0.100870306         1.784232493        25.035039001
     2.477758807         0.029765837        25.549742774
     4.063453720         2.391750117        25.551774459
     5.821631270         0.051079367        24.965211575
     6.433820630         1.784521910        27.374570350
     7.963132255         1.774580044        24.886913588
    10.356781621         0.016993629        25.168973881
    13.539421506         1.486289399        23.434728168
    11.857076232         2.127285532        25.903412125
    15.772065173         1.522904563        25.203512514
    18.181752522         2.095222819        23.450544049
    19.729691677         2.126745809        25.932387069
    18.183708374         0.002169447        25.261618685
    21.397094244         1.572645181        23.484551318
    23.640064807         1.534215294        25.235613126
    26.008522806         2.102966680        23.507306182
    27.542301596         2.110194284        25.989336742
    29.243892448         1.543945963        23.561817835
    31.455256450         1.482777284        25.331258571
    33.860406224         2.080947520        23.586104276
    35.349982769         2.086868836        26.084857161
    37.040464385         1.528137536        23.619955262
    39.268101072         1.493071144        25.393803191
    41.634212049         2.041007971        23.622237000
    44.855264857         1.432864580        23.673748011
    43.161184474         2.055650908        26.109268629
    49.459965290         1.992925634        23.700534987
    47.074530499         1.438144486        25.427716690
    52.634860002         1.364108482        23.786240808
    50.950871813         2.016157217        26.218323191
    54.842547003         1.405033613        25.496512646
    57.252781991         1.649763085        23.653649965
    58.774903905         2.324816563        25.798233392
    60.548000691         2.246235930        23.577602459
    62.678470672         1.713114126        25.201762140
    65.008124576         1.739380676        23.576227165
    66.589156739         2.300888815        25.723873747
    68.372893357         2.276914134        23.517464604
    70.495383465         1.740647853        25.145031263
    72.805870023         1.793884942        23.477893645
    74.409590064         2.350934494        25.618663757
    72.854766312        78.208536898        25.638730547
    76.181826275         0.003128833        25.047291620
     1.905132412         3.923869092        25.015691115
     0.132453397         6.265221536        25.552024512
     2.474911087         5.759398797        27.385197622
     6.435330548         3.965474745        25.537833979
     4.050247810         5.737199729        24.977057857
     5.847925738         6.363607681        27.345064043
     9.710411800         3.942923684        25.793857457
     7.946311931         6.389350152        25.520080184
    11.869593682         5.496279611        25.249209782
    14.201829310         3.885861597        25.286530260
    15.763302958         6.041799415        25.784480452
    17.546804873         3.888904387        25.814768176
    19.678370132         5.438341452        25.301189644
    22.053243324         3.900692264        25.332852662
    23.584596857         6.031779328        25.849463093
    25.401270016         5.494480532        23.464765839
    25.376782754         3.890985061        25.898442313
    27.512885588         5.437746973        25.349324933
    29.827909723         6.025967522        23.518089737
    29.907317296         3.870092280        25.369766803
    31.429282742         6.019529948        25.923135091
    33.231482598         5.476341125        23.540031928
    33.175936414         3.867949030        25.926854636
    35.330346019         5.414906495        25.433874256
    37.601793781         5.979066319        23.606421119
    37.686755972         3.845390146        25.477571097
    39.228436402         6.011058634        25.961612066
    41.029384514         5.444982399        23.614266546
    41.015145914         3.826930033        25.983022893
    45.444210877         5.953574155        23.627331839
    45.491855421         3.791824530        25.466381205
    43.132941978         5.357664500        25.454409896
    48.858736522         5.413115238        23.664621060
    48.813439000         3.792802290        26.035565374
    47.054033175         5.986067083        25.979397118
    50.968865647         5.337123714        25.546929673
    53.235932302         6.006263698        23.717788675
    53.305012979         3.770368560        25.457160484
    56.605003956         6.132152281        23.621893176
    56.608993893         3.798011797        25.220984999
    54.862966093         5.998519837        26.108174645
    58.761604115         5.622082152        25.237175960
    61.080852888         5.572310246        23.564880990
    61.151889417         3.844850422        25.726905645
    62.685668206         6.208738284        25.706963882
    64.464397844         6.176675571        23.537593907
    64.460486141         3.847400421        25.187946687
    66.613878703         5.642247479        25.147406771
    68.928198731         5.640526621        23.512119711
    68.944002011         3.861370659        25.647357391
    70.501642190         6.228841034        25.662516881
    72.320818838         6.214299784        23.462952951
    72.287412893         3.910156983        25.089331857
    74.434155560         5.697166315        25.080329933
    76.794555450         3.907630451        25.585437905
     2.497356440         7.861426828        25.501294918
     0.124233344         9.637743374        25.051917609
     5.839359109         7.885831723        24.855625650
     4.057648753        10.230422509        25.482603423
     6.398615302         9.603951981        27.314307469
    10.304051864         7.856577137        25.170255405
     7.954917678         9.626792459        24.887851288
     9.685611602         9.484274130        27.357222892
    13.611866247         7.864868544        25.786012030
    11.848392251        10.024467096        25.754161471
    15.756027190         9.390487370        25.250928900
    18.128162190         7.833814879        25.245208927
    19.667808534         9.991692573        25.825489218
    21.433238381         7.832406905        25.819300395
    23.579511643         9.353801806        25.294750767
    25.900872737         9.958448726        23.450762846
    25.986773737         7.793718888        25.302096087
    27.467196896         9.959074492        25.860121621
    29.291224056         9.398465893        23.489364847
    29.282305373         7.811271640        25.885189480
    31.418877612         9.359981251        25.321381460
    33.733119405         9.941396588        23.493396959
    33.779746906         7.790472724        25.353919665
    35.326043146         9.917382797        25.911413835
    37.121749575         9.354896898        23.546033211
    37.089830078         7.760240378        25.994462838
    39.236494510         9.316021151        25.430060941
    41.550032198         9.841195720        23.578821469
    41.588758058         7.740247137        25.445908079
    44.914331574         9.283481291        23.610484488
    44.888592568         7.749719678        26.022093744
    43.138809533         9.869120552        25.998276153
    49.355992221         9.799738687        23.654900232
    49.419048875         7.717915094        25.520924114
    47.053094366         9.275268105        25.479946605
    52.711059978         9.194622442        23.672435230
    52.728349706         7.691507746        26.157247635
    50.945473663         9.854180376        26.089295610
    54.855925028         9.214725193        25.451284228
    57.232988773         7.728287174        25.828521116
    57.201616914         9.469255733        23.604733258
    58.796809443        10.117315206        25.751348370
    60.551521223        10.054112786        23.575820828
    60.529146282         7.734052049        25.174099977
    62.701002082         9.483100818        25.175787838
    65.032533604         9.562886052        23.509337867
    65.040669946         7.741623824        25.675550917
    66.612783426        10.096821352        25.684334045
    68.396520044        10.123025326        23.497272788
    68.386662552         7.789792203        25.102397150
    70.524877706         9.588542480        25.069265067
    72.834738392         9.572976537        23.427101538
    72.847177608         7.815143570        25.605004587
    74.437754327        10.147821325        25.606817475
    76.243631184         7.834127762        25.050167235
     1.910890439        11.779429359        24.972900718
     0.117769646        14.116589167        25.541709807
     4.063039080        13.587190674        24.914169414
     6.407080228        11.819400197        25.541272214
     9.662219617        11.796168614        25.760506577
    10.262353108        13.983379115        27.321371479
    11.826486714        13.312713825        25.198792755
    14.213955590        11.769886419        25.231205934
    17.500803245        11.763706975        25.767601844
    15.738580994        13.917673628        25.762694545
    19.668903810        13.291046658        25.246365424
    22.033137170        11.737346559        25.272464753
    23.568637109        13.906566272        25.814986973
    25.318889548        11.708717740        25.841336356
    27.478540835        13.284006785        25.310035285
    29.844338876        11.717243809        25.318724642
    31.389774540        13.844850047        25.865404000
    33.203787740        13.281425498        23.470204501
    33.171477073        11.717791355        25.874781005
    35.315012143        13.238795152        25.340229239
    37.633635044        13.789782591        23.533718078
    37.672595607        11.656544454        25.392771720
    39.229062274        13.821149139        25.936044100
    40.989250440        13.238873373        23.564849733
    40.994257420        11.660220833        25.932949689
    45.473548651        13.764751930        23.587385800
    45.492872464        11.626976985        25.447439656
    43.124414465        13.202266030        25.387739395
    48.838630368        13.231051291        23.633176838
    48.784648865        11.647157956        26.016530055
    47.035648171        13.789469708        25.986492384
    50.945395429        13.149779862        25.488229625
    53.297502509        13.788061733        23.680436941
    53.299771296        11.582469340        25.422496824
    56.654447883        13.928624542        23.603858071
    54.876657054        13.717662997        26.073167162
    56.633950559        11.611019939        25.193166553
    58.786560780        13.382252132        25.223704330
    61.095091488        13.437554250        23.532874148
    61.180288381        11.641760720        25.721904576
    62.692318101        14.005515606        25.687772280
    64.446638712        13.988463468        23.517902197
    64.491466830        11.642464707        25.153064230
    66.597997188        13.481905453        25.089331857
    68.908405513        13.494264342        23.441042018
    68.945879629        11.712707002        25.639574477
    70.501172785        14.068952689        25.587094509
    72.307753750        11.722797487        25.055418357
    74.439084306        13.523988253        25.040696461
    76.788140257        11.748845019        25.554274993
     2.451237460        15.699387410        25.446720752
     0.132539454        17.465613471        24.949051871
     5.814105153        14.193714893        27.304899208
     5.841972126        15.729033100        24.837496774
     6.345290965        17.441990784        27.289645947
     7.939662036        14.211862123        25.498575587
    10.306007715        15.710494766        25.125402067
     7.941226717        17.464049055        24.880630995
     9.690696816        17.317697905        27.317776960
    13.598253520        15.699309190        25.720154202
    15.729975247        17.232280772        25.177038105
    18.114001824        15.684056130        25.206606926
    21.406795268        17.249724015        23.372339832
    21.415401015        15.667629758        25.760225267
    23.554946148        17.219296117        25.245521494
    25.925907637        15.647605229        25.285279993
    27.460547001        17.797426179        25.824082668
    29.242875406        15.650108295        25.873968331
    31.373736558        17.187773127        25.292937880
    33.715673209        17.720378674        23.453857257
    33.762926583        15.601767830        25.309472664
    35.310161631        17.723898611        25.890128035
    37.089673610        17.171503197        23.516839470
    37.067611604        15.581665080        25.928386213
    41.512871018        17.673680846        23.549721499
    39.214432505        17.099696486        25.375205465
    41.575067098        15.572669686        25.412182119
    44.901657656        17.117765495        23.555191418
    44.868408180        15.553505586        25.962112173
    47.027277126        17.083895881        25.414370087
    49.387051144        15.542320009        25.507858821
    49.332130832        17.627374122        23.618017348
    52.725767982        16.970006371        23.663995926
    52.721699811        15.491320036        26.135805552
    50.946803642        17.661009073        26.030751845
    54.843485812        16.997696540        25.448377357
    57.166724523        17.227196419        23.563661979
    57.206232724        15.523390571        25.792482163
    60.555276458        15.537704980        25.155877332
    62.688719335        17.332481640        25.159878187
    65.013522727        17.393259215        23.486739286
    65.073919423        15.599342985        25.661297871
    68.380090891        15.601454947        25.063044988
    70.518775449        17.379805234        25.073578489
    72.884886426        15.622887451        25.557025581
    76.245117632        15.678580673        24.957272378
     1.914137153        19.607690560        24.936424171
     1.915952183        18.042648442        27.341907118
     4.052594832        18.061421438        25.450596581
     6.402417478        19.652589309        25.511015746
     9.683421048        19.642107720        25.714496742
    11.836891844        17.868920006        25.690835435
    11.850973975        21.145511833        25.123276613
    14.237504043        19.618328591        25.141905595
    13.619454951        21.217631427        27.324715944
    17.488051093        19.591811734        25.741033665
    19.645746528        17.813852551        25.761788101
    19.655447552        21.099674434        25.202762354
    22.038535320        19.591498851        25.226611202
    25.323192422        19.567876164        25.805578712
    27.449750700        21.089896832        25.259680771
    29.825093296        19.544722802        25.257211493
    33.168034774        21.121732705        23.428476832
    33.147068045        19.521491219        25.823332507
    35.288725498        21.065726599        25.311973199
    37.665789244        19.489342463        25.333946646
    40.991753930        21.076129968        23.551284333
    40.956861538        19.477374678        25.919384289
    43.101178949        17.698320403        25.931324342
    45.495610656        19.452578679        25.418589739
    43.100709544        21.005027245        25.419121103
    48.796696911        19.439202919        25.956954820
    48.804129146        21.050395319        23.579071523
    50.966283923        20.986801795        25.460661232
    53.333177241        19.386247426        25.409744098
    56.615096150        19.412216737        25.156752519
    58.782805545        17.880731350        25.708120379
    58.785465504        21.173671328        25.164754229
    60.543697817        17.877446076        23.510619391
    61.114493535        21.238438165        23.514307679
    61.153297630        19.435370099        25.677645115
    66.620450364        17.940022730        25.654921508
    64.461268482        19.481911485        25.094176642
    66.602847700        21.267849192        25.089269343
    68.401135854        17.925160774        23.447387124
    68.974435062        19.534241212        25.604441967
    74.467796207        17.988832520        25.552087026
    72.293202214        19.535883850        25.038508493
    76.793538408        19.591733513        25.490042513
     2.441223500        23.524989104        25.429279524
     0.100352396        21.962058948        25.463943184
     2.438227136        21.396835320        27.307118432
     4.054801033        21.426324568        24.887569978
     5.800046492        23.551818844        24.753447558
     5.797793351        22.052716876        27.248480898
     7.932542736        22.066170856        25.435780914
    10.300374863        23.561831109        25.066201913
    10.266421280        21.801393389        27.285270012
    13.580494388        23.537817318        25.689053804
    15.741788590        21.753913352        25.722123373
    18.107586631        23.503713041        25.170036608
    21.393495477        23.499332676        25.774384544
    23.543993379        21.715272269        25.792200852
    25.927941722        23.482436979        25.256180022
    31.377570027        21.652539173        25.810892348
    29.194292053        23.433079643        25.826239379
    33.769420010        23.427369523        25.265588283
    37.603984335        21.615931830        23.476424581
    37.050791281        23.418608792        25.894722768
    39.191901095        21.646046845        25.902193114
    41.556212689        23.398271379        25.368547792
    45.450782539        21.568530015        23.567725348
    44.893130143        23.371910964        25.976959096
    47.014994378        21.597393496        25.991931047
    49.393622805        23.333973867        25.430092198
    47.023130721        24.882198509        25.390208672
    52.752602265        23.301825111        26.112863147
    53.313462257        21.591214052        23.630144940
    52.730774962        24.827365716        23.608765370
    56.647797988        21.761187888        23.555316445
    54.883463417        21.565166520        26.061320880
    54.850605111        24.813598852        25.393490624
    57.224774197        23.301590449        25.750379413
    60.536891454        23.358065879        25.165723186
    62.697638018        21.815942461        25.675707201
    65.028074262        23.397958496        25.651170706
    70.514003172        21.897604994        25.580155526
    68.356698906        23.430029031        25.021661142
    74.422185748        21.349824609        25.005970287
    72.886059937        23.460065825        25.522924542
    76.199820110        23.501757521        24.915325911
    76.244257057        21.886575859        27.336343429
     1.862064561        27.432040720        24.937674438
     0.087838076        25.282845537        24.902198105
     1.906736211        25.835944938        27.283863461
     4.020917861        25.894063005        25.406399633
     6.367141739        27.496729336        25.438969095
     6.368064901        25.260083279        27.216849136
     7.907899007        25.301853196        24.796300468
     9.658777319        27.466301438        25.682646184
     9.655022084        25.114983662        27.297116294
    11.822653245        25.702030898        25.669768431
    14.127663419        25.666283985        27.298929181
    14.196665862        27.450266171        25.120619795
    15.728019396        25.058742895        25.137592173
    17.506670800        27.422106677        25.692523295
    17.529436912        25.111150842        27.336249659
    19.653256998        25.649075405        25.715840780
    23.566133619        25.033321129        25.198761499
    21.991986053        27.408026929        25.201168263
    21.989873734        25.614501803        27.367568854
    27.468918045        25.618882169        25.753755134
    25.314195504        27.373531549        25.747785108
    31.378821772        24.953457674        25.261243605
    29.836984874        27.345372055        25.239363928
    33.730381213        25.529084671        23.438041376
    33.145738066        27.330979424        25.805985049
    35.295453627        25.558573919        25.861028065
    37.690120037        27.320576055        25.290687399
    39.205044417        24.954943870        25.331602395
    40.965623753        27.304853671        25.882001298
    44.948128689        24.921934685        23.534280698
    43.131220829        25.548639875        25.902693221
    45.468698139        27.279040801        25.383082149
    49.328219129        25.451489620        23.558067033
    48.789108207        27.246109837        25.905443809
    50.959086390        25.454462011        25.971082840
    53.339983604        27.207781636        25.349825040
    56.615096150        27.225224879        25.130871986
    57.171027396        25.066721418        23.529873506
    58.769271053        25.667926622        25.684052735
    60.532745049        25.644695039        23.492740569
    62.681208865        25.135008192        25.112430544
    61.127480389        27.271375161        25.652045893
    65.003352299        25.171928418        23.456826642
    64.460094971        27.294528523        25.095426910
    66.601595955        25.784632082        25.601097502
    68.977799126        27.336298440        25.564308388
    70.500625147        25.213463672        25.007689405
    72.274191337        27.377207927        24.972838205
    74.428131537        25.841342174        25.508515212
    76.776796318        27.393947182        25.479415241
     2.446809412        31.345819327        25.365297097
     0.098764245        29.753869248        25.487010615
     2.400432260        29.237846515        27.297522631
     4.005349282        29.240584243        24.871316504
     5.795422859        31.383365320        24.709344381
     5.778712064        29.862752626        27.221037531
     7.911967178        29.865177472        25.423715835
    10.275027026        31.365530973        25.035570365
    10.226052504        29.642326362        27.280206429
    11.816629222        28.989964744        25.097302311
    13.562735256        31.360759503        25.646919797
    15.743118570        29.631375448        25.655609155
    18.112750079        31.338075466        25.148500755
    19.635967270        28.993328239        25.164472919
    18.039131827        29.556127021        27.320371265
    21.405778225        31.327046331        25.680958323
    21.429952550        28.994188668        27.333936665
    23.560500766        29.524056486        25.737532917
    25.907679100        31.274247279        25.205169118
    27.464458704        28.894066021        25.195448290
    29.243579512        31.269632251        25.757724733
    31.404169608        29.480722153        25.779573153
    33.760579561        31.248825513        25.256086252
    35.295923032        28.873885051        25.297688895
    37.066672795        31.248825513        25.843180500
    40.975637713        28.878265416        23.478362495
    39.196282202        29.475324917        25.872186700
    41.576944715        31.205725843        25.310160311
    45.472922778        29.377314232        23.508994043
    43.116982229        28.855659600        25.341166939
    44.880847396        31.176705920        25.898879906
    48.825408811        28.861056836        23.538406580
    47.026103615        29.418614824        25.936888031
    49.419831216        31.147998880        25.410244205
    50.942344300        28.768678051        25.430154711
    52.717162235        31.115615461        26.039191149
    53.262297181        29.418145499        23.599044542
    56.626909493        29.534850959        23.521402946
    54.877987033        29.383963002        25.981428802
    57.217107259        31.153317895        25.734719815
    58.768254010        29.005374245        25.101428193
    61.098064382        29.027119632        23.441792178
    60.540333753        31.185388430        25.086831322
    62.669551989        29.647567157        25.612693731
    65.015713280        31.212843937        25.571559938
    66.573744629        29.079684022        25.073547233
    68.335653944        31.245696681        25.029256515
    70.485682441        29.713820190        25.537021305
    72.823942092        31.311793272        25.483041016
    74.417961109        29.167291337        24.973182029
    76.198411897        31.301546345        24.898947410
     1.837577300        35.251619411        24.879224444
     1.869621972        33.643086518        27.261014827
     0.083296588        33.088657363        24.880005861
     4.015910881        33.716692308        25.359795921
     6.291919688        33.061280077        27.184842294
     6.359991146        35.304653125        25.429748374
     7.910167794        33.108838334        24.750071836
     9.616452691        35.285097921        25.646075867
     9.656743233        32.964129822        27.227226354
    11.805519985        33.527945475        25.611287180
    14.162790513        35.273364798        25.108867283
    14.144874913        33.494154082        27.288176883
    15.725907076        32.900692739        25.112993165
    17.481322963        35.235505922        25.667299153
    17.494075116        32.940820018        27.312557094
    19.634950227        33.458641831        25.689303857
    22.028208424        35.223772800        25.161628561
    23.546027465        32.841557801        25.186071286
    21.958110704        33.442371900        27.314026158
    25.311144376        35.206642441        25.724780191
    27.435981505        33.403887258        25.740283505
    29.804439504        35.166124057        25.214921203
    31.378587069        32.783596175        25.217921844
    33.683284308        33.381359663        23.406378358
    33.145659832        35.174493685        25.809673337
    35.286456710        33.403809037        25.797764542
    37.677524353        35.155720688        25.252272937
    41.515296274        33.343187904        23.463328032
    39.195030457        32.783439733        25.312035712
    40.996369739        35.116453838        25.844399510
    44.903222337        32.746050183        23.504618108
    43.119720421        33.339355084        25.862840952
    45.492715996        35.107380223        25.336759747
    49.350828773        33.266140399        23.535124629
    47.026651253        32.729780252        25.363390440
    48.817741873        35.067956931        25.879188197
    52.737033687        32.628484294        23.556535456
    50.956426432        33.281784562        25.921072150
    53.289600868        35.037841916        25.311535605
    54.829403680        32.609633077        25.352013008
    56.577934971        35.068973802        25.083986964
    57.184874825        32.913129849        23.484301265
    58.764264073        33.568072754        25.662704421
    61.129123305        35.116923163        25.622758382
    62.661024477        32.957793936        25.072078169
    64.434121262        35.106989119        25.018691757
    66.571241139        33.589427038        25.590001380
    68.917558898        35.178874050        25.523330879
    70.454388816        33.060263207        24.974557323
    72.250251714        35.177857180        24.914481981
    74.414518810        33.632683150        25.450877891
    76.782663873        35.234567273        25.405774500
     2.417995807        37.071896056        27.249668651
     0.078414001        37.617642701        25.385332630
     2.438078491        39.159453236        25.368266482
     4.010105913        37.040842392        24.833308379
     5.775809580        37.695941739        27.215473842
     7.878874170        37.695237752        25.372204824
    10.211892138        37.460497078        27.217943120
    11.779702745        36.803520431        25.096520894
    13.582841410        36.880020391        27.258358009
    15.711590242        37.428348322        25.635292312
    19.622823948        36.764879347        25.117056533
    18.024032653        37.366944980        27.263640388
    21.424476166        36.822215207        27.301335946
    23.538204058        37.384701106        25.693242199
    27.471890940        36.741100219        25.184070858
    25.856905194        37.333779354        27.347252011
    31.376474750        37.311486421        25.764476176
    29.230514424        39.118543748        25.710589657
    35.299912969        36.673439212        25.225798528
    33.725061297        39.060895005        25.199480402
    37.035692107        39.052603599        25.804734782
    39.225072337        37.288724163        25.835397586
    41.575223566        39.050413416        25.266057134
    45.467915798        37.232561616        23.483176024
    43.126213849        36.653649345        25.312285766
    44.894616590        39.023974780        25.867123118
    48.810622574        36.691508221        23.520652785
    47.028215935        37.238897502        25.878531807
    49.393466337        39.004967121        25.362890333
    53.296876636        37.264553930        23.566818904
    50.945082493        36.635111011        25.385051320
    52.706131233        39.004810679        26.026625963
    56.594364124        37.404960298        23.480863030
    54.823536126        37.244920505        25.957236130
    58.756910071        36.860856291        25.069796431
    57.221566600        38.991904244        25.641293594
    61.072873014        36.888233577        23.410535497
    60.527581600        39.014744723        25.053449187
    62.664232073        37.474263942        25.610568277
    66.558176051        36.921320983        25.003719806
    64.978317399        39.057922614        25.541553524
    70.484587164        37.537231700        25.497044010
    68.331351070        39.090618916        24.942081631
    74.398324359        36.959179858        24.922046098
    76.216014561        37.549434148        27.270579371
     0.069603280        40.909252925        24.865158938
     1.858763084        41.480108451        27.241135577
     5.763761534        39.196373461        24.707969087
     4.016255110        41.509050154        25.331477368
     6.347285934        40.925209971        27.163462724
    10.266968918        39.182293714        25.006751704
     7.911106603        40.924349542        24.735443710
     9.642582868        40.785820474        27.187530369
    13.561561745        39.175488503        25.603723063
    11.794176046        41.354485818        25.533114220
    14.103645562        41.296289530        27.207690928
    15.708773816        40.697274509        25.083361831
    17.467553768        40.723713145        27.274236403
    18.089905733        39.148111217        25.090269557
    19.613592328        41.274153038        25.684209018
    21.377066324        39.122063685        25.697680648
    23.573409386        40.625937123        25.129215382
    21.937378678        41.278689846        27.287332953
    25.933026936        39.103056026        25.155564765
    27.448264253        41.262811020        25.721154416
    25.327182359        40.675216238        27.335030648
    31.365678449        40.674746913        25.177819522
    29.761958408        41.230271160        27.338968990
    35.260874172        41.190300322        25.735532489
    39.189319371        40.588391131        25.251366493
    43.110567036        41.176220575        25.844055687
    49.353175795        41.124047290        23.512838615
    47.016871996        40.575015371        25.305596836
    52.746578243        40.484122781        23.520121422
    50.943596045        41.173482846        25.884064239
    54.836601214        40.495386579        25.313254723
    57.165003373        40.738496880        23.430070922
    58.737742726        41.381941325        25.616725843
    60.523826365        41.358709742        23.413942475
    62.663058562        40.818047451        24.991873524
    66.566468861        41.410726586        25.541522267
    70.469409756        40.833456952        24.951739945
    72.842170628        39.086942538        25.440844496
    74.382677547        41.481281763        25.449033747
    76.170951741        39.135752328        24.847717709
    76.740104543        40.947502904        27.275455414
     1.841199537        43.056336146        24.849155517
     2.386600478        44.908214002        27.178809755
     0.086070768        45.396233683        25.336978544
     6.367173033        43.113202680        25.354701082
     3.987871793        44.835233979        24.768700819
     5.764371760        45.498624733        27.117077809
     9.609255157        43.102486428        25.620476645
     7.875275403        45.506368594        25.318349562
    10.208684542        45.261146331        27.186717695
    11.807475837        44.593375211        25.003125929
    13.553034232        44.679574552        27.212285660
    14.168579834        43.056023263        25.037351996
    17.471621940        43.047418973        25.609130469
    15.690545280        45.198413235        25.576904831
    19.627048587        44.586022454        25.078110708
    18.018556268        45.176276744        27.237322262
    21.392321967        44.615589923        27.288239396
    21.954903108        43.026768677        25.136810756
    23.524121927        45.180969993        25.651764583
    25.306919737        43.017303958        25.696774204
    27.444274316        44.545191187        25.142968322
    25.838520189        45.139043634        27.301679769
    29.803500695        43.020198128        25.187040243
    31.368260173        45.158285956        25.733813372
    29.215884654        44.611991766        27.351784230
    33.111002143        43.003458873        25.736907783
    35.288099625        44.525244879        25.209013690
    37.662972817        42.964661348        25.235425586
    40.982131140        44.547928916        23.403127663
    39.170152026        45.102749175        25.772446630
    40.973603627        42.968963493        25.788356281
    45.488647825        42.945184364        25.282091811
    43.091947329        44.512416665        25.265838337
    48.801938593        44.569752524        23.457795599
    48.764855647        42.941116882        25.860871782
    46.980571391        45.096022185        25.835460100
    50.950324175        44.467987241        25.339572848
    53.294920785        45.102827396        23.525935164
    56.574649140        45.229388679        23.420350095
    53.336150135        42.896061691        25.299314243
    54.847006344        45.045882641        25.988305272
    56.560723477        42.898877640        25.055605898
    58.755032453        44.671596029        25.060982047
    61.122160473        42.932043267        25.586625659
    62.660007434        45.318560411        25.533989407
    64.440067051        42.956839266        25.014784672
    66.570615267        44.766556101        24.968681066
    68.928198731        42.992429738        25.480165402
    70.505475659        45.370811917        25.468881740
    72.256510439        42.996106116        24.925234279
    74.397933189        44.762645060        24.857876131
    72.856643930        44.830540730        27.287332953
    76.726804753        43.049530935        25.409525302
    76.204357685        45.382936144        27.238572529
     2.432054468        46.982317200        25.270464326
     1.852480888        49.274891142        27.179059808
     0.073338253        48.715690518        24.778921753
     5.727429636        47.012197553        24.632046607
     3.971215761        49.356788338        25.251835344
     6.292709852        48.702314758        27.102918532
    10.263917790        46.984194500        24.953052726
     7.879734744        48.724451249        24.717533631
     9.654239743        48.592570951        27.141051683
    13.555459488        46.964639296        25.579592905
    11.779937447        49.138317595        25.512578580
    14.089328729        49.106090618        27.208878682
    15.677401957        48.508640014        25.035289055
    17.454175744        48.547593981        27.229445579
    18.063462620        46.956269668        25.068546164
    19.621728671        49.083015477        25.627353115
    21.386297944        46.946022741        25.667267897
    23.512465052        48.465071018        25.110523887
    21.947940276        49.095765470        27.260983570
    25.887416478        46.928344836        25.132028484
    27.414467138        49.044061510        25.654702711
    25.295419329        48.530228959        27.297397604
    29.201880757        46.904878591        25.714371716
    31.350657509        48.434330237        25.179132303
    33.748609750        46.896430743        25.162597518
    35.258761852        49.036004766        25.719560325
    33.119373187        48.491274992        27.355316235
    37.022939955        46.875311122        25.773415587
    37.605236080        48.999866748        27.392761739
    39.164284471        48.411489758        25.197698771
    41.524840830        46.873590264        25.266057134
    44.826631190        46.871869406        25.856870926
    43.082011604        48.989932704        25.794795157
    49.371873736        46.852079539        25.333133972
    47.005215120        48.436363978        25.300720793
    52.747908222        48.334285811        23.499085675
    52.734608431        46.817271275        25.990587010
    50.944143684        48.976948048        25.855370606
    54.870085393        48.340699918        25.295375901
    57.200599872        46.820321887        25.618663757
    58.774434501        49.210671851        25.558088308
    60.518584683        46.850749785        25.022911409
    62.682773546        48.662343920        24.989998123
    65.008593981        46.889547311        25.498169250
    66.590956123        49.240473983        25.472226205
    68.351144288        46.900811108        24.917201312
    70.496869912        48.682212008        24.932798396
    68.928668135        48.700515679        27.309212630
    72.870804295        46.921226742        25.418495969
    74.405600127        49.283573653        25.355920093
    72.296253342        49.235858954        27.263890441
    76.199350705        46.934680722        24.822899904
    76.717338431        48.749638352        27.207628415
     1.843092801        50.897034457        24.787392314
     2.488453403        52.694001299        27.135206684
     0.088760455        53.220427401        25.390146159
     6.342779652        50.933328916        25.323694454
     3.968125515        52.655203773        24.593975969
     5.688203077        53.281126756        27.052313965
     9.620207926        50.898442432        25.552368336
    10.223392545        53.048498044        27.136863288
     7.876057743        53.301385947        25.263462829
    11.798948324        52.408573536        24.975932617
    13.558745319        52.464032095        27.192906518
    14.150977170        50.876149499        25.027693681
    17.454723382        50.843218535        25.599753465
    15.707600305        53.010873831        25.589626300
    19.591295621        52.392303606        25.047760471
    18.019808013        52.973875384        27.214973735
    21.400927713        52.429927819        27.262233837
    21.972505772        50.859332023        25.088394156
    23.509335690        53.017053276        25.594033492
    25.273357324        50.828356579        25.640262124
    27.423776991        52.356478471        25.124464367
    25.817318758        52.932965897        27.292146481
    29.775962305        50.802465489        25.145906450
    31.334228356        52.954633063        25.691304285
    29.218388144        52.416004513        27.312588351
    33.103100502        50.802230826        25.695336397
    35.234196357        52.374860363        25.183945832
    33.653477130        52.933748105        27.331654927
    37.601872015        50.786117338        25.198855269
    39.140031912        52.935234300        25.755880589
    40.919230954        50.784005376        25.775853608
    41.444181511        52.903163765        27.417048181
    45.399930398        52.881183715        23.414098758
    45.425043532        50.776730840        25.268901492
    43.061905450        52.340286762        25.253523204
    48.819150086        50.778373477        25.848775446
    46.991211223        52.879932182        25.844493280
    50.965658051        52.323860390        25.318380818
    53.320268621        50.728077491        25.249022242
    53.334820156        52.876959791        23.447918488
    56.627926536        50.762259988        25.009658576
    54.884011056        52.894246592        25.943483191
    58.765046413        52.551013644        24.912762863
    61.134052051        50.809661804        25.495918769
    62.712502489        53.172869144        25.551711945
    64.465180185        50.817171002        24.952115025
    66.614739278        52.579877126        24.811584986
    65.065704846        52.596616381        27.310556667
    68.941420287        50.832345841        25.401554848
    68.320241833        53.157224981        27.260327180
    70.538255731        53.218628322        25.500982351
    72.271531379        50.844391847        24.829151241
    74.409981235        52.625479863        24.713345236
    72.902332622        52.618048885        27.217880606
    76.746128566        50.869422508        25.302002317
    76.113840875        53.211666670        27.151835238
     2.493538618        54.775848359        25.315286407
     0.069405348        56.518764616        25.611193410
     5.679221807        54.783044674        24.543777739
     5.779095410        56.439292265        27.118078023
     7.839835373        56.262904321        25.070390308
    10.277139346        54.778429646        24.934267460
     9.638592931        56.244053104        27.145115052
    13.573609791        54.775066150        25.505983420
    15.695865196        56.325793859        24.965524142
    17.419596288        56.362635864        27.192125101
    18.074963027        54.773188851        25.051198705
    21.324336567        54.759343766        25.640262124
    23.476242681        56.279878239        25.023974136
    21.928303527        56.920506735        27.227007557
    25.874116688        54.741274757        25.093676536
    25.224069865        56.364278501        27.271485815
    29.152515064        54.724848385        25.661829234
    31.302700029        56.259619047        25.084362044
    29.722528441        56.873730686        27.285926402
    33.688838926        54.729385193        25.157658962
    33.032063974        56.302875159        27.320058698
    35.191637027        56.901420855        25.741471258
    36.969506090        54.697314658        25.740533558
    37.525202634        56.858634068        27.361661341
    39.124306865        56.244600650        25.180820163
    41.504108803        54.675491050        25.211264171
    44.827804701        54.661254861        25.797233178
    43.060497236        56.836341135        25.794420077
    49.386816442        54.671423567        25.284436062
    46.979554348        56.179912034        25.231518501
    52.721621577        56.295053077        23.456514075
    52.728036770        54.626211935        25.908506964
    50.860746173        56.841034384        25.778729223
    56.578247907        56.383599043        23.455232551
    54.839417640        56.422865893        25.685803109
    57.211709108        54.675960374        25.659016133
    60.540177284        54.703102998        24.923358878
    62.691692229        56.441638889        25.779166816
    65.117339327        54.705684285        25.512015960
    68.351535458        54.728133660        24.831683032
    70.498669295        56.458769248        25.742627756
    68.168389519        56.475195620        27.328841826
    72.906166091        54.741822303        25.375736829
    76.143022180        54.765679652        24.748602772
    75.991873972        56.483721689        27.250825149
     2.236555370        57.086256647        27.195844646
     1.598321891        58.681726663        25.074422420
     1.655190230        60.453428181        27.275080333
     3.988051731        57.134597112        25.033507424
     6.134677047        58.681335559        25.595346273
     3.981159310        60.421670529        25.630853863
     9.386835718        58.651298765        25.333008945
    14.090815176        56.926842621        27.166244569
    11.759283654        56.986290442        25.528206921
    13.962589548        58.675547218        24.712532562
    11.735344031        60.222129223        25.326007449
    13.975654636        60.245595468        27.116171365
    17.169560226        58.702768063        25.346105495
    19.583785151        56.950152424        25.681208377
    19.570485360        60.220877690        25.422465568
    21.717697431        58.659355509        24.750884510
    21.765654911        60.245439027        27.177559487
    27.365570849        56.922618697        25.676238564
    24.936637920        58.652550298        25.421934204
    27.371751340        60.169330171        25.476133290
    29.533984351        58.630179144        24.810584772
    29.583037108        60.182627710        27.247949534
    32.775456250        58.644258891        25.474257889
    35.195470496        60.159083244        25.522299408
    37.361458742        58.613127006        24.867315649
    37.394473516        60.180906852        27.301836053
    40.601991832        58.583794199        25.517017029
    45.243775210        58.568854023        24.919983157
    43.040860487        60.136242765        25.595252503
    45.301199012        60.123414551        27.388979681
    48.464984487        58.581134691        25.607005015
    50.884138158        60.091500458        25.675894741
    53.150266004        58.577614755        25.147563054
    56.395023733        58.622748166        25.234519142
    58.751277218        57.062790402        25.265432000
    58.727181127        60.377553988        25.871311513
    60.914214336        58.622904608        25.812111359
    66.583367419        57.098146211        25.168536288
    64.192847414        58.606243574        25.248053285
    66.561461881        60.404227286        25.758193583
    64.850091771        57.025557293        27.376320725
    68.747947452        58.629318715        25.732594361
    74.396055572        57.149146184        25.061700950
    72.007804355        58.655288027        25.140967895
    72.644707855        57.061225985        27.293459262
    74.381582270        60.399064713        25.700962599
    72.094487696        60.411892927        27.352784443
    76.549604602        58.653176064        25.670581105
     2.201561274        62.576497611        25.691491825
     0.060146973        61.038832779        25.125870917
     5.540199878        62.561792097        24.990873310
     6.158233323        60.971562876        27.197657533
     7.882316468        60.768736296        24.565844956
     9.979067569        62.547790571        24.675899731
     9.374005332        60.839526136        27.080726288
    13.320444366        62.572430129        25.311973199
    15.665432146        60.823021544        24.654645188
    17.157668648        60.807220939        27.180372589
    17.810062493        62.575715403        24.807302820
    21.133367221        62.577749144        25.341542019
    23.479684980        60.786961747        24.725691625
    24.984908337        60.791889658        27.240635470
    25.639179799        62.562496085        24.897509603
    31.277039257        60.756299186        24.799207340
    28.940891926        62.534414811        25.437906368
    33.408056877        62.518927089        24.923452648
    32.776160357        60.753013912        27.281362926
    36.781587873        62.504299796        25.481321899
    39.108112414        60.728921900        24.851812335
    41.248283420        62.467614233        24.993780182
    44.608592859        62.459088164        25.536208631
    46.973452091        60.712651970        24.896103052
    49.084754728        62.444382650        25.020410874
    46.979006710        64.024834269        25.576217184
    52.368942424        60.707880500        23.448356081
    52.433329058        62.482945513        25.668143084
    54.807889313        61.008170219        25.266838551
    56.928110633        60.954276076        23.485457762
    56.913872034        62.520569727        25.995556822
    60.264089279        62.523307455        25.332571352
    62.637397790        60.992995380        25.289312105
    64.747683383        60.945280682        23.399814455
    64.769510687        62.514859607        25.862215819
    70.478250205        60.992134951        25.177569469
    68.132167148        62.535822786        25.258180450
    72.591352225        62.564764488        25.755192942
    75.896506651        62.571726141        25.166973454
    76.518389211        60.977820542        27.322215409
     1.599784868        66.500679587        25.145281317
     0.075155630        64.368614762        25.726968158
     2.214908005        64.917881343        27.304899208
     3.975792453        64.950812307        25.109523673
     6.161925970        66.482063032        25.738095537
     5.585818160        64.311591786        27.262515147
     7.885758767        64.035785184        25.387145518
     9.996200829        64.080996816        27.185248631
     9.410305937        66.459535437        25.437781342
    11.756388994        64.691901401        24.818867792
    13.931687093        66.491605972        24.859782788
    13.386160978        64.710361514        27.199532934
    15.681313660        64.131683906        25.333258999
    17.253114204        66.475336042        25.388864635
    17.794180978        64.141852612        27.240760497
    19.588244492        64.718418259        24.875317359
    21.207533112        64.691197414        27.251950389
    23.499947602        64.118777471        25.388708352
    21.734752457        66.482141253        24.875473642
    25.061343015        66.472128988        25.480728022
    27.413215393        64.696594650        24.901166635
    25.627522923        64.150769785        27.276424371
    31.317251565        64.080292829        25.468194093
    29.585697066        66.476900458        24.935892808
    29.008173219        64.686660607        27.324028297
    32.881854575        66.450931147        25.539615610
    35.217767204        64.674849263        25.001781892
    33.422530178        64.094920122        27.350909043
    37.389623004        66.431845267        25.004344940
    39.140579550        64.030622610        25.531082536
    40.707294880        66.393986392        25.592439401
    43.060340768        64.612507272        25.090957204
    45.208726350        66.386477193        25.082361617
    48.551354892        66.373492537        25.659391213
    53.069997856        64.055887934        23.483738645
    50.900176141        64.615166779        25.130090569
    53.089556371        66.419642820        25.118744394
    56.395571372        64.201926200        23.561380241
    54.803586440        64.254959914        25.980584871
    56.310765648        66.445768573        25.359827178
    58.703241504        64.874468790        25.416433028
    60.840752551        64.844353775        23.509275353
    62.648194090        64.308775837        25.863028493
    60.863205727        66.422067665        25.916789985
    64.217569378        64.293600998        23.465891079
    64.203565481        66.431610605        25.355138676
    66.556141965        64.877910506        25.319443546
    70.478328439        64.339281956        25.798139622
    68.704840483        66.453355992        25.852432478
    72.017974783        66.472754755        25.242864676
    74.390970358        64.912093003        25.188790617
    76.525430276        66.479638187        25.728937329
     2.205457330        70.442617688        25.804828552
     0.085930729        68.896426787        25.240145345
     3.974791057        68.250870380        25.711058507
     5.490669893        70.436047139        25.136216879
     6.144401541        68.834241237        27.295490946
     7.886697576        68.629459137        24.835777657
    10.008718279        70.380666800        24.809084451
     9.492451702        68.699701431        27.242823438
    11.783536214        68.005961000        25.345949211
    13.336325880        70.377929072        25.426935273
    13.915101472        68.082460960        27.246761780
    15.723168884        68.625000550        24.885038187
    17.259764099        68.611859453        27.293396749
    17.857863505        70.396467406        24.940206230
    19.620163990        68.021135839        25.469006766
    21.178664743        70.396936731        25.492292994
    23.537812888        68.613345648        24.920858344
    21.743123501        68.057664960        27.318120784
    25.679157405        70.387315570        25.012596704
    27.458356447        68.025203321        25.517610906
    25.120018562        68.593868665        27.355097438
    29.040092716        70.385985816        25.573060259
    31.364426704        68.579945359        25.009064699
    33.518445139        70.355166814        25.069421351
    35.256571298        67.971309178        25.577811274
    36.860838978        70.341243508        25.604160657
    39.171090834        68.532621765        25.041540391
    41.320180523        70.295875434        25.118369314
    44.659523234        68.515100302        23.492365489
    43.076144049        67.940646617        25.660485197
    44.642937612        70.275694463        25.710714684
    49.135215698        67.983589846        23.525341288
    46.995748799        68.502428529        25.119744608
    49.153991873        70.301272671        25.219578448
    52.490439923        68.562580338        23.553628584
    50.904479014        67.938769318        25.706588802
    52.473697834        70.335689830        25.806985263
    54.807654611        68.851606259        25.422184258
    56.912776757        68.813199837        23.619111332
    56.916062587        70.375269564        26.134680311
    58.702693866        68.198697094        25.941514020
    60.259160533        70.341869275        25.509577939
    60.339037511        68.212307517        23.568194198
    62.615883423        68.792393100        25.387926935
    64.725543144        68.740376256        23.532936661
    64.732505975        70.354541047        25.984335673
    66.550665581        68.230532967        25.846649992
    68.203594847        68.213871933        23.487739500
    68.088747243        70.370967419        25.357983034
    70.488342399        68.841281111        25.381488058
    72.605043186        70.405775683        25.840304885
    74.390657421        68.262134178        25.739970938
    75.930773170        70.420324755        25.275871732
     1.567192557        74.332304283        25.227830212
     0.061499875        72.215727181        25.926979663
     3.958706134        72.809736069        25.121401212
     6.356118560        74.317676990        25.592751968
     7.888966364        71.915202799        25.472038664
     9.509350260        74.299920865        25.529394675
    10.003476597        71.922086231        27.288395680
    11.796131898        72.544880381        24.907824308
    13.971117061        74.315956132        24.932642113
    13.378102869        72.498651878        27.307931106
    15.720900096        71.963621486        25.480009118
    17.306861005        74.313374845        25.511953447
    19.658107510        72.513983158        24.990873310
    17.842138458        71.956425170        27.344501423
    21.827146884        74.302423931        25.017504003
    23.558936085        71.915906787        25.561526543
    25.109926368        74.288891729        25.558525902
    27.480340218        72.504361997        25.026349644
    29.648753720        74.275046645        25.074234880
    31.380308219        71.911448200        25.588876140
    32.991773432        72.491220900        23.430633543
    32.969946129        74.277549711        25.604285684
    35.298426522        72.474090541        25.098490065
    37.404174540        71.952748792        23.471204715
    37.477714558        74.256351869        25.132466077
    40.796794647        72.453674908        23.513901342
    39.205279120        71.866314788        25.677457575
    40.774732641        74.244931630        25.675550917
    45.249486297        71.888764163        23.547189708
    43.111036441        72.425046088        25.161097197
    45.257544405        74.198390243        25.198698985
    48.557378914        72.432633508        23.580478074
    47.011317377        71.835104682        25.740127221
    48.570444003        74.209028275        25.759943957
    53.101213247        71.883601589        23.627738176
    50.913084761        72.479018452        25.205075348
    53.113730697        74.215755265        25.210295214
    56.329307121        72.030109180        23.710474612
    54.809688697        72.159955738        26.262520138
    56.307479818        74.274655541        25.437625058
    58.693384012        72.720720779        25.445220432
    60.958651283        72.628576656        23.664027183
    60.885893605        74.250328866        26.059226682
    62.620577466        72.136567713        26.120302238
    64.132372484        72.140791637        23.590073875
    64.146063445        74.238048198        25.420527653
    66.498092291        72.730889485        25.326851379
    68.744583387        72.724006053        23.554191204
    68.690914820        74.281304310        26.008559601
    70.432952683        72.161833037        26.004590003
    71.949285277        72.159251750        23.523590913
    71.986055286        74.291942341        25.322350417
    74.366561330        72.751696223        25.228424089
    76.522613850        74.319788952        25.911070012
     0.097565699        76.708261617        25.633510681
     4.000295362        76.063409197        25.050792369
     7.958203509        76.550333786        25.238895078
    13.601774053        78.213788393        25.901255414
    11.862239680        75.852291210        25.521142911
    15.770813428        76.468593032        24.956866041
    21.254473549        76.449428931        23.412160844
    19.666556789        75.842357166        25.605035844
    21.441061787        78.201166697        25.901755521
    23.608614714        76.473912047        25.002000689
    26.043728134        78.197038437        25.293406730
    27.504749246        75.812398593        25.624446243
    29.079992088        76.424711153        23.456201508
    29.276907223        78.174197959        25.983429229
    31.420676995        76.428387531        25.078204478
    33.833571941        78.168800722        25.342948570
    33.608023140        75.872628623        23.464922122
    35.337152382        75.799805041        25.717778694
    36.883448622        76.397412088        23.514901556
    37.077077926        78.168487839        26.035440347
    41.629596239        78.152843675        25.403711559
    41.414374334        75.826087236        23.552534600
    39.231096360        76.416576188        25.126683591
    44.887106121        78.128438780        26.101673255
    44.686122815        76.374336946        23.602232724
    43.117060463        75.753732980        25.790419222
    49.421004727        78.107553822        25.487041872
    49.200932310        75.816231413        23.626050315
    47.027277126        76.359240329        25.216327754
    52.663728371        78.129690313        26.285681339
    52.682504546        76.454513284        23.687344667
    50.945708365        75.759912424        25.820706946
    56.670251164        76.697623585        23.632020341
    54.810783974        76.672671145        25.705182251
    57.256146056        78.181316053        25.875687449
    58.721470041        75.982372430        25.282373121
    60.537752029        78.151201038        25.287530474
    61.031956599        76.022890813        23.604389435
    62.652184027        76.583499413        25.802421787
    65.022284942        78.155972508        25.716403400
    64.395160699        76.564882858        23.559973691
    66.552308496        75.991837149        25.140936638
    68.919436516        76.000754322        23.514120139
    68.309445533        78.163168823        25.179038533
    70.467140968        76.644433430        25.733438291
    72.213168768        76.636376685        23.483082254
    74.400045509        76.058011960        25.034038787
    76.764278868        76.089300287        23.437791323
     1.899961141         2.348861642        27.387260563
     0.113440173         2.395277876        29.625895345
     1.872954743         0.039028120        29.046271444
     4.036689848         1.797060707        29.012357945
     6.402769531         0.057551279        29.595763904
     9.612540988         1.578558675        27.402044973
     7.950145400         2.443868647        29.567632890
     9.508880855        78.217562266        29.616049490
    11.848705188         1.554849945        29.193271617
    14.253542025         2.111711768        27.466683791
    17.480853559         1.572504384        27.454837508
    15.779888579         2.111563148        29.917801493
    14.248613279         0.004349429        29.282040592
    17.549856002         0.001341808        29.862352140
    19.702935628         1.564025247        29.234874260
    22.126313938         2.104296434        27.505629616
    23.618785143         2.122897345        29.953059029
    25.315525483         1.560935525        27.519663866
    27.541675723         1.525845666        29.285541340
    25.396419504        78.212062544        29.941744111
    29.926484641         2.067822067        27.549170173
    31.457603472         2.095739077        30.019416964
    33.157786112         1.506180953        27.594304821
    35.369384816         1.468009194        29.381561866
    37.756618990         2.044402754        27.649941714
    39.260668836         2.070059182        30.131253370
    40.978375905         1.500228348        27.675040829
    45.577599953         2.004079923        27.686668315
    43.182151203         1.455079293        29.429915952
    48.743263046         1.501738010        27.704797190
    47.066237689         2.033389263        30.176763098
    50.957678177         1.421757224        29.485271535
    53.366896122         2.087870062        27.745524646
    56.613375001         2.261942670        27.674134385
    54.837852959         2.009563202        30.209520101
    58.765594052         1.663279643        29.285009977
    61.110347130         1.765905355        27.620654203
    62.696855677         2.343323608        29.749077926
    64.456261502         2.276968889        27.569018166
    66.586262079         1.730666877        29.179518677
    68.932188668         1.770856733        27.520414026
    70.499999274         2.369449362        29.687377237
    72.285769978         2.327851531        27.509661728
    74.406538936         1.784662707        29.161296032
    76.751448482         1.818188150        27.471966170
    76.784697959         0.040503600        29.619894062
     2.509975594         3.971396061        29.545440647
     0.151605877         5.699731958        29.079778607
     5.794789163         3.971552503        28.952220090
     4.057312346         6.373299240        29.530531210
    10.250226829         6.122515477        27.392980536
     7.940053206         5.681835035        28.996385780
    10.307102992         3.946107271        29.192052606
    13.663422494         5.553114857        27.432082644
    13.628373634         3.929414948        29.825000405
    11.839473568         6.103938033        29.807746717
    15.763302958         5.499916879        29.286885378
    18.063149684         6.052335759        27.448554915
    18.121512294         3.925660349        29.329113154
    19.681655963         6.082607216        29.820249390
    21.467348432         3.922101302        29.863633664
    21.456395663         5.506792489        27.479842854
    23.605563586         5.499588352        29.330832272
    25.918631869         6.019803721        27.508161407
    25.958061836         3.914646858        29.368871653
    27.504983948         6.060916583        29.856132060
    29.300533909         5.470568429        27.532041512
    29.301785654         3.886002395        29.896546949
    31.405343119         5.480596337        29.413568708
    33.699635227         6.007405722        27.563016883
    33.774426990         3.871687985        29.437198759
    35.306875800         6.025748503        29.944525955
    37.086309545         5.458279938        27.616528321
    37.099844038         3.870280010        29.990379507
    39.211537845         5.422071522        29.475863274
    41.524684361         5.972081200        27.621685674
    41.567947798         3.851757321        29.495586240
    44.946798710         5.427906795        27.621810701
    44.939444708         3.826100893        30.053267950
    43.137948958         5.986638094        29.973344616
    49.320708659         5.925946562        27.685042967
    49.378132461         3.814164396        29.597139198
    47.029858850         5.402547606        29.540377064
    52.761129778         5.306672349        27.722425958
    52.724594471         3.757180530        30.174418847
    50.939214938         5.956272773        30.036670652
    54.866799562         5.258425749        29.507713832
    57.187769485         5.547334339        27.640033346
    57.250669671         3.803307346        29.871447834
    58.779128544         6.194157923        29.801964231
    60.548235393         3.850638763        29.272757358
    60.611996154         6.183371273        27.608307814
    62.707651978         5.653034130        29.259535782
    64.989583104         5.670242710        27.552420868
    65.073606486         3.860119126        29.711757449
    66.599640104         6.240167408        29.705599882
    68.409428664         6.211241350        27.527009186
    68.352161331         3.889756994        29.182988169
    70.526207685         5.671642862        29.155169722
    72.838650096         5.688194387        27.493189457
    72.894196280         3.907035972        29.639335718
    74.460442205         6.294523055        29.608454116
    76.271169574         6.224992570        27.442272322
    76.217266306         3.926559889        29.083404382
     1.952597018        10.158615798        27.374570350
     1.903020093         7.866667623        29.067838554
     0.134224616        10.233707783        29.537376423
     6.462923701         7.909063306        29.571696259
     4.066309263         9.663712685        29.002512090
     9.667852470         7.889586322        29.777802817
     7.941539653        10.300039036        29.535313482
    14.171239792         9.981758530        27.391636499
    11.830085481         9.434212807        29.226278672
    14.210043887         7.880043382        29.280696555
    17.527089890         9.428424466        27.414766443
    15.743353272        10.023450225        29.808403108
    17.493605711         7.860409957        29.817311262
    19.634950227         9.405192883        29.294355725
    21.985962030         9.960247805        27.434426895
    22.016003910         7.859940632        29.329425721
    23.560187830         9.999045330        29.859882862
    25.339543341         9.410824782        27.455743952
    25.356128962         7.848989718        29.844629601
    27.473377387         9.408008833        29.302826285
    29.813201719         9.965410379        27.490876462
    29.860689795         7.818569642        29.338115079
    31.376709452         9.965723262        29.895452965
    33.164983646         9.401907609        27.537573944
    33.155908494         7.819594335        29.931523176
    35.303198799         9.339565617        29.391907827
    37.652880623         9.872953372        27.590991613
    37.672673841         7.789674872        29.447857287
    39.207626141         9.904554583        29.948026704
    40.989876312         9.326893845        27.599305890
    40.967814307         7.776447732        29.964467718
    45.443428537         9.850191114        27.637970405
    45.477695056         7.753536854        29.512996211
    43.126996189         9.275972093        29.461922794
    48.805146189         9.334324823        27.661287889
    48.796618677         7.733457570        30.028700198
    47.015229080         9.890396615        30.021823729
    50.947351280         9.287939878        29.544971796
    53.321911536         7.657739819        29.497399127
    53.276926950         9.885468703        27.699608581
    54.864296072         9.833530080        30.108748560
    56.634341729         7.711016018        29.224246988
    56.638096964        10.024075992        27.644534308
    58.784761397         9.459556352        29.286385271
    61.099550829         9.527060917        27.569955866
    61.175516104         7.769134085        29.755923139
    62.707026105        10.126388821        29.714164213
    64.498194959        10.079925656        27.550607980
    64.489589212         7.779122884        29.185082366
    66.631403133         9.559366115        29.155138465
    68.944471416         9.568596171        27.495439938
    68.990629512         7.790214596        29.694753814
    70.534656964        10.171835116        29.649119059
    72.284596467        10.131473174        27.461088845
    72.336856821         7.814611669        29.109597481
    74.458799290         9.599728057        29.072652083
    76.758567782         9.632267917        27.442459863
    76.842825867         7.845235119        29.586730723
     2.438023727        13.595638522        27.355128695
     2.486309790        11.803834254        29.518122307
     0.130463904        13.526256657        29.018796821
     5.819393776        11.803130267        28.907054185
     4.055489493        14.179087600        29.481270680
    10.292082052        11.816427806        29.193928007
     7.936532673        13.563411545        28.906491565
    13.628530102        13.371535880        27.375164227
    13.568837513        11.825188537        29.765831508
    11.806302326        13.971333109        29.740919932
    15.750159635        13.327732222        29.252002921
    18.057360363        13.887167509        27.379227596
    18.108916610        11.768243782        29.256160060
    19.633542014        13.925417489        29.782053725
    21.390209647        11.765897157        29.807871744
    21.442235298        13.344471477        27.417266977
    23.542585166        13.317798178        29.310171605
    25.872004368        13.852437466        27.459057160
    25.898760417        11.732418648        29.287635538
    27.468683343        13.884977326        29.825750566
    29.270022625        13.308568121        27.481124377
    29.270961434        11.736173247        29.889170372
    31.386254008        13.273368754        29.367808926
    33.692672395        13.803471234        27.503066568
    33.738126385        11.722953929        29.372622455
    35.304919949        13.850481946        29.893296254
    37.101095783        13.267580413        27.526133999
    37.049383068        11.679541375        29.941400287
    39.202775630        13.217988415        29.400315875
    41.556682093        13.821696685        27.575175732
    41.597207337        11.662567457        29.419257424
    44.894460122        13.222759885        27.599243377
    44.861132412        11.664992303        29.985878545
    43.078178134        13.829362325        29.975438813
    49.335260195        13.756851627        27.649504120
    49.359043350        11.649973906        29.521779339
    47.021018401        13.218301298        29.475925787
    52.775837782        13.113876507        27.680385722
    52.745717668        11.597565958        30.141036712
    50.933347383        13.742380776        30.038764850
    54.858584986        13.121620368        29.484208808
    57.201303978        13.337118720        27.621966984
    57.252781991        11.596236204        29.838753345
    58.775920948        13.991905184        29.780397121
    60.548235393        11.641838941        29.214713700
    60.573426761        13.978372982        27.584240170
    62.699750337        13.434190754        29.194021777
    65.034645924        13.495515875        27.529384694
    65.085419830        11.689631860        29.706693866
    66.627413196        14.051040122        29.693128466
    68.391669532        14.010052413        27.475123095
    68.410993346        11.704572036        29.129007880
    70.537395156        13.482218336        29.107253230
    72.847725247        13.547376278        27.440365665
    72.933469779        11.730776010        29.607485159
    74.458877524        14.129495602        29.588074760
    76.211789921        14.102900524        27.389917381
    76.214997518        11.754398697        29.039801311
     1.876991620        15.696023915        29.025829574
     6.433734573        15.737480949        29.530249899
     4.049707995        17.464127275        28.954283031
     9.597207112        15.739045365        29.731699211
    11.818272137        17.274832897        29.170079159
    14.186651902        15.720898135        29.214682444
    14.151524808        17.828166960        27.333530328
    17.500490309        17.263412658        27.382572061
    17.489224604        15.689844471        29.771989074
    19.639331335        17.219217896        29.246689285
    22.003408226        15.680849077        29.275101609
    23.536482909        17.804700715        29.812247679
    25.336257510        17.251601314        27.433332912
    25.339386872        15.653706453        29.836534121
    27.476193813        17.184722515        29.290636180
    29.844417110        15.654645103        29.302076125
    29.790044437        17.778574962        27.465683577
    33.176092882        17.189650427        27.482937265
    33.158959623        15.632508611        29.899016227
    35.294280116        17.141153520        29.347273286
    37.680262545        15.604427338        29.381593123
    41.001689656        17.180342149        27.563141910
    40.964528476        15.620540826        29.962092210
    39.173359622        17.740168541        29.924740476
    45.463534691        15.564847604        29.469080574
    43.107907078        17.161412712        29.426696514
    45.414638402        17.670943117        27.587553378
    48.782849482        17.139901987        27.654598959
    48.798887464        15.545214179        30.015353595
    46.983153115        17.698633287        29.998131164
    50.932565043        17.111898934        29.473300226
    53.276457546        17.682050473        27.669695937
    53.295390189        15.501175859        29.453420976
    56.618381981        15.506964199        29.238375008
    54.830107787        17.650214600        30.059956880
    58.791020122        17.265759282        29.256347600
    61.100802574        17.335766914        27.568736856
    61.183887148        15.550298532        29.745295868
    64.473864166        15.599734089        29.173986244
    66.632654878        17.389426395        29.155388519
    68.945097288        17.417507668        27.463995716
    68.986717809        15.613813836        29.623676120
    72.302668535        15.641738668        29.097094808
    74.450428245        17.430805207        29.075340158
    76.778204531        17.428693245        27.378414922
    76.842512931        15.661606756        29.565069843
     0.143376436        18.066584012        29.509214153
     2.535393841        19.619814787        29.472268755
     5.799694439        19.649225814        28.862794724
     7.922998181        18.142223543        29.507119955
    10.293568499        19.645471215        29.147511835
    13.546384337        19.627793310        29.716289667
    15.727315289        17.854292714        29.779459421
    15.725359437        21.162407530        29.210150225
    18.080674114        19.587587810        29.257972947
    21.395294861        21.160452010        27.397919091
    21.953494895        17.756125587        27.407858716
    21.401631820        19.610350068        29.810090968
    23.524200161        21.146919808        29.242563403
    25.895631055        19.575385362        29.291855190
    31.383202879        17.800555012        29.857757408
    29.251794089        21.111876882        27.452024407
    29.193822649        19.559975861        29.859664065
    31.360436767        21.089975053        29.325706176
    33.775678735        19.527044897        29.352368125
    37.627532787        17.716702295        27.511599642
    37.043906683        21.082074750        27.502910284
    37.048522493        19.530643055        29.888795292
    39.159825129        21.041634588        29.386938015
    41.525232000        19.509054109        29.407348628
    44.882255609        19.476201366        29.988191539
    44.888905504        21.036706676        27.597836826
    49.358261009        19.476670691        29.475238140
    46.988160095        21.025442878        29.461047607
    52.727567366        19.394225949        30.118656928
    52.737268389        20.903183741        27.652160938
    56.665400652        17.824099478        27.608276558
    54.869615988        20.909754289        29.447107127
    57.236665774        19.399544965        29.779178110
    57.204589809        21.152004161        27.581614608
    62.706087296        17.942291133        29.720384293
    60.578511975        19.451796471        29.205086642
    62.724394067        21.237968840        29.214713700
    64.484582232        17.923987462        27.522226914
    65.100362536        19.512261163        29.689252638
    65.017669132        21.287795501        27.489001061
    70.540680987        18.000096317        29.594982487
    68.408333388        19.545035685        29.112223042
    70.544045051        21.309931992        29.074746281
    72.331223968        17.945576408        27.433895532
    72.909999560        19.541515748        29.578510216
    76.213276368        19.578201312        29.005825298
     0.136811034        21.352562338        28.966473136
     1.883571105        23.533984498        28.994447866
     6.288140983        21.414122121         0.020029469
     4.025212911        22.012902479        29.448544934
     6.406430885        23.575910856        29.481208166
     7.936689142        21.370787788        28.835820208
     9.623884927        23.557059639        29.701505257
    11.810761667        21.794666398        29.703411915
    14.181644922        23.537817318        29.170266699
    17.467866705        23.524363337        29.723947554
    18.041009444        21.722312142        27.372601180
    19.615626414        21.751957832        29.770269956
    21.984240881        23.521703829        29.228029047
    25.866684452        21.702991600        27.433457938
    27.458747617        21.713942515        29.819561743
    25.311222610        23.497377155        29.813154123
    29.820555721        23.465306620        29.269756716
    33.664273431        21.647298378        27.465277240
    35.259700661        21.692510011        29.871791658
    33.132047105        23.451148652        29.873635802
    37.644587813        23.426665536        29.354649863
    41.509428719        21.636895009        27.554265012
    40.936129512        23.415479959        29.924646706
    43.091086755        21.648784574        29.934492561
    45.452347220        23.389354206        29.433197904
    49.306782996        21.587381232        27.598993323
    48.804207381        23.367608819        29.976220230
    50.952436494        21.552885851        29.973563412
    53.313540491        23.299869591        29.415225312
    56.655151990        23.342656378        29.190677312
    58.781788503        21.793414865        29.743389210
    60.607458578        21.755790652        27.554139985
    61.155488184        23.370581210        29.691003012
    64.488102765        23.411177814        29.162515042
    66.634376027        21.913249158        29.663247079
    68.414435644        21.863500718        27.466715047
    69.009796858        23.448958469        29.629489863
    72.859225654        21.348181972        27.426550212
    72.322774689        23.476413976        29.038738584
    74.456686970        21.936089637        29.564163399
    76.799640664        23.487599553        29.489209877
     2.471484435        27.451674146        29.442856218
     0.092719881        25.882408104        29.482520947
     4.021050858        25.348551024        28.918587900
     5.778892002        27.469117388        28.809627109
     7.894129812        25.967434132        29.459766083
    10.261570768        27.471855117        29.094875584
    11.817333329        25.096445329        29.124194351
    13.569698088        27.458479357        29.661027855
    15.687337683        25.694365258        29.708287957
    18.060333258        27.440019244        29.183331992
    19.617816968        25.089483676        29.216589101
    21.410394035        27.430789187        29.739388355
    23.549860934        25.638593815        29.770926347
    25.339386872        25.082991348        27.404076658
    27.470169790        25.033477571        29.276476903
    25.932244596        27.413893491        29.252159205
    29.787071542        25.577112253        27.409984171
    29.248195322        27.365396584        29.782022468
    31.372093642        25.588610713        29.822218561
    35.276599218        24.971761345        29.298325323
    33.131421233        25.000781269        27.456431599
    33.721149594        27.354289228        29.292386554
    37.588415756        25.567256430        27.493220713
    37.037804426        27.356010086        29.865446551
    40.960695007        24.967224538        27.519601352
    39.163658598        25.558573919        29.881700026
    41.539079429        27.310798453        29.351336655
    43.074266431        24.981460727        29.396283763
    45.433101641        25.516804002        27.566892711
    44.848223792        27.306105204        29.947276543
    48.834249260        24.963391718        27.582771106
    47.003806907        25.540583131        29.920145744
    49.361233903        27.261284676        29.424539803
    50.958773453        24.879617222        29.471049745
    52.714893447        27.211770898        30.051736373
    53.301101276        25.487080092        27.613590193
    56.640365752        25.644069272        27.559047284
    54.851778622        25.468776420        30.029169049
    58.779285013        25.090891651        29.198335199
    57.257945439        27.226241749        29.737356671
    60.544480158        27.268246328        29.149981113
    61.133739114        25.148071068        27.523633464
    62.695369230        25.756081483        29.653651278
    64.476602358        25.742705723        27.491876676
    66.629994920        25.197506625        29.121756330
    65.067895400        27.346545367        29.637835397
    68.915681281        25.250383898        27.443397563
    68.388696638        27.361329101        29.057930186
    70.530588793        25.841029291        29.599796016
    72.308849026        25.787448031        27.368944148
    74.435329071        25.262273462        28.999980299
    72.902097920        27.406462513        29.519060008
    76.739556905        25.296221297        27.331123563
    76.217970412        27.406227851        28.966598163
     1.828830731        31.359507970        28.970942842
     0.094708591        29.185595009        28.937060599
     6.301683299        29.230180875         0.016878608
     4.034514941        29.839521043        29.423633359
     6.378955082        31.396584638        29.471674878
     9.656664999        29.086645674         0.024380212
     7.899136792        29.205854200        28.830319032
     9.629674247        31.393846909        29.655651705
    13.617968504        29.038774534        27.289114583
    11.811231072        29.627464407        29.645649567
    14.160443491        31.380080045        29.171110630
    15.712216115        28.995049097        29.159858224
    17.457383340        31.350277914        29.692503333
    19.612809988        29.570441431        29.685501836
    21.980485646        31.330331605        29.186989024
    23.543993379        28.973694814        29.218464502
    25.892658160        29.469380135        27.363224175
    25.307154439        31.314687442        29.732386858
    27.451002445        29.536650038        29.765300144
    29.264702709        28.941858941        27.397231444
    29.804674206        31.275185929        29.236280811
    31.385862837        28.913073680        29.281728025
    33.705659249        29.483303440        27.434333125
    33.140026980        31.286684389        29.821749711
    35.264238237        29.480643932        29.833158399
    37.039369108        28.926214778        27.452587027
    37.643179600        31.251250359        29.322455481
    39.183217114        28.898289946        29.326550107
    41.517721530        29.454752842        27.490970232
    40.963746136        31.247808643        29.888607752
    44.888436100        28.869739347        27.540543329
    43.081542199        29.454596400        29.917207616
    45.436465705        31.194853149        29.391157667
    49.330800853        29.368005955        27.563579503
    46.985969541        28.814515450        29.398471731
    48.766498563        31.165207460        29.897172083
    52.730149090        28.723153535        27.597367976
    50.931939170        29.403518206        29.933711144
    53.324180324        31.108810250        29.340615613
    54.857880879        28.723466418        29.421289108
    56.611184447        31.127505025        29.110410154
    57.190742380        28.967202486        27.531635175
    58.785621972        29.637945997        29.682313655
    60.577964337        29.629341707        27.499221996
    61.169257379        31.207994247        29.636022509
    62.682617078        29.050429436        29.149262209
    64.985906103        29.107452412        27.462620422
    64.457278545        31.225593931        29.078309543
    66.609341127        29.728760366        29.583636311
    68.367886377        29.698567130        27.415735400
    69.017150860        31.298261070        29.581760910
    70.511108511        29.179963110        29.028111312
    72.834347222        29.180979980        27.361942651
    72.288899341        31.315078546        29.003012197
    74.435250837        29.793527203        29.500774849
    76.222977392        29.755902989        27.315839046
    76.810671667        31.346445094        29.488709770
     2.483016136        35.271018174        29.404254217
     0.091977440        33.734604875        29.454202394
     4.016395932        33.139422674        28.888862796
     5.750579095        35.260771246        28.798062137
    10.174105086        33.541008351        31.254806041
     7.915018306        33.774810375        29.414037558
    10.275574665        35.293467548        29.073339730
    11.809431688        32.920717268        29.112848175
    13.549670168        35.295892394        29.652838604
    15.687650619        33.529431670        29.689158868
    18.049771659        35.257955297        29.123725501
    19.618677543        32.894122190        29.167453598
    21.384655028        35.253183827        29.689627718
    23.532101802        33.447769137        29.714070443
    25.332267573        32.870577724        27.362036421
    25.886477669        35.204530479        29.214151080
    27.450454807        32.847580804        29.244501318
    29.773224113        33.397942476        27.384947569
    29.211972951        35.199602567        29.756673300
    31.360749703        33.394344319        29.765456427
    33.153796175        32.853916690        27.443678873
    33.729598872        35.192406252        29.256878964
    35.284031454        32.810347695        29.309296418
    37.597177971        33.391528369        27.467965315
    37.073948563        35.175588776        29.840753773
    39.168196174        33.400132659        29.853944092
    40.977984735        32.795172856        27.487750794
    41.546589899        35.151731427        29.325924973
    45.442176792        33.300322896        27.508942824
    43.085219200        32.790166724        29.333145266
    44.872085181        35.122633283        29.892546094
    48.821810045        32.787272553        27.523664721
    46.995044692        33.340450175        29.876198850
    49.346447666        35.082584224        29.414006301
    50.928340403        32.713823206        29.430072235
    52.747204115        35.047541298        30.006570468
    53.265270075        33.337790667        27.574863165
    56.647797988        33.499316656        27.529728517
    54.843798748        33.304625041        29.969468787
    57.234396986        35.075231467        29.691940713
    58.788986036        32.934327690        29.152012797
    60.542367838        35.113794330        29.174611378
    61.106513661        32.971951904        27.471497320
    62.676514821        33.597483782        29.634866012
    64.454383884        33.587315075        27.447273391
    65.056082057        35.149071919        29.605891069
    66.600031274        33.021778564        29.072058206
    68.924208794        33.060888973        27.409702860
    68.362566461        35.187713003        29.026079628
    70.538412199        33.684308889        29.567695404
    72.297426853        33.653880991        27.322277922
    72.932296268        35.214073418        29.503025330
    74.427583899        33.092724846        28.940061240
    76.733845818        33.121979432        27.295584716
    76.185503276        35.241998250        28.956627282
     1.953246361        37.542081391         0.014830576
     0.098190007        37.006738115        28.920432045
     6.285942606        37.067985015        31.213515965
     4.021293384        37.656205564        29.399909538
     7.901249111        36.988356223        28.787809945
    11.800434771        37.449937268        29.634303392
    15.685851236        36.813767358        29.137290900
    19.596302601        37.405977168        29.667310448
    23.529128907        36.807118589        29.190364745
    27.445838997        37.355368299        29.724322635
    29.218935783        36.810090980        27.353472090
    31.353708638        36.764253581        29.235311853
    29.833699043        39.100787622        29.221496400
    33.699009354        37.293652074        27.395731124
    35.254224277        37.313050837        29.784147923
    37.066359859        36.732104825        27.426862779
    37.647560707        39.060269239        29.283603426
    39.198550990        36.732887033        29.296637462
    41.539861770        37.267291659        27.451711840
    40.945752301        39.084908796        29.850880938
    44.904317614        36.682747489        27.513193733
    43.105403588        37.295451153        29.872760615
    45.473079246        39.054559119        29.340334303
    49.350515837        37.211911320        27.523414667
    47.010535037        36.659985231        29.372653712
    48.806163232        39.022566805        29.855975777
    52.739693645        36.593028211        27.557046857
    50.935694405        37.213788619        29.908268205
    53.314714002        38.973287690        29.300700831
    54.840591151        36.561583443        29.360932456
    56.606803340        38.994250869        29.125163308
    57.194575849        36.817678399        27.491032746
    58.751511921        37.458306895        29.647681252
    60.539629646        37.423107527        27.479999137
    62.680426524        36.904425286        29.122162667
    61.132800306        39.023505455        29.626582992
    64.984576124        36.932037235        27.436239783
    66.606446467        37.553032305        29.549535272
    64.461346716        39.069108191        29.067838554
    68.388227234        37.519788458        27.370194415
    70.526285919        36.950340906        28.997511021
    72.825976177        36.987886898        27.312650865
    74.435876709        37.602389641        29.439918090
     2.328370865        41.037143961        31.253055667
     1.867587886        39.189020705        28.901740549
     0.097272321        41.540807806        29.434760738
     5.767141246        41.538461181        31.214651520
     6.408770083        39.224845839        29.417413279
     4.009026283        40.979573440        28.838320742
    10.154546571        41.341892266        31.217235510
     9.574675702        39.199111190        29.617331014
     7.877074786        41.637097632        29.373685182
    13.564847576        40.824070454        31.253310128
    14.148317212        39.189802913        29.103533684
    11.773365786        40.737167126        29.066619544
    17.451124615        39.153508453        29.657964700
    15.676306680        41.320459762        29.622082030
    19.576509383        40.700325121        29.129382960
    21.416730994        40.822271375         0.048030892
    21.981111519        39.163442497        29.167266058
    23.508005710        41.296133088        29.629989970
    25.286109476        39.131606625        29.731167848
    27.437702655        40.645023003        29.207805974
    31.338531230        41.245758882        29.765675224
    33.130404190        40.676702434        27.379977756
    33.145268662        39.096250815        29.754704129
    35.264785875        40.645805211        29.237718618
    37.622760509        41.180209837        27.408921443
    39.175550176        41.213610126        29.801839205
    40.988233397        40.639860429        27.440303152
    45.441550919        41.162531932        27.490907719
    43.103291268        40.600984682        29.325987486
    48.808119084        40.643771470        27.509786754
    47.011552079        41.182791124        29.892045987
    50.944769556        40.585809844        29.403660340
    53.242347495        41.194211363        27.544794238
    56.617834342        41.323823258        27.484968949
    54.835975342        41.150798809        29.946120046
    58.773495692        40.775808210        29.116630234
    61.086094570        40.808739174        27.427737966
    62.669082585        41.419487318        29.602796657
    64.433338921        41.390623836        27.398731765
    66.581568035        40.860677797        28.996198240
    68.990394810        39.109626575        29.552192090
    68.937039180        40.887507537        27.369725565
    70.522687152        41.532672841        29.492773138
    72.287099957        41.456485764        27.315057629
    72.274660741        39.128634233        28.967598377
    74.427896835        40.886256004        28.914493275
    76.260451508        41.423633021         0.031922136
    76.833437779        39.160704769        29.423133252
     2.447842102        43.111638264        29.345741709
     0.089097644        44.819668036        28.854730500
     6.270913842        44.865583656        31.164286692
     5.757197696        43.126813103        28.722858561
     4.001539283        45.489472897        29.318142059
     9.574049829        44.722830664        31.189448320
    10.225113695        43.108587652        29.031612060
     7.878639467        44.862924148        28.727359523
    14.076028938        45.188635633        31.240361610
    11.773522254        45.246675479        29.592419439
    13.523227055        43.091691955        29.593263369
    17.464815576        44.708281592         0.010954435
    15.689137067        44.623959551        29.080372483
    18.024189121        43.060481849        29.104096305
    19.580499320        45.211397891        29.631334007
    21.350232041        43.068851477        29.663184566
    23.525921311        44.574758656        29.153825685
    25.901655077        43.019181258        29.150574990
    27.425732843        45.172913248        29.722353464
    29.204931885        43.018946595        29.739450868
    31.340643549        44.559505597        29.204430252
    33.704798675        45.107911749        27.358566930
    33.710118591        43.006822368        29.207743460
    35.263299428        45.162118776        29.773583165
    37.050400110        44.528295491        27.410546791
    37.035222702        42.993446609        29.811497519
    39.178523070        44.520082305        29.279446288
    41.494798950        45.090312065        27.411140668
    41.543147600        42.962627606        29.278321047
    44.903065869        44.534553156        27.475873255
    44.897198315        42.967555518        29.867259439
    43.072388814        45.121600392        29.821218347
    49.323916256        45.066845820        27.492095473
    49.348325283        42.938457374        29.355650077
    47.009830930        44.523054696        29.311921980
    52.721465109        42.914600024        30.005976591
    52.701515423        44.411198927        27.544544184
    50.915197081        45.066767599        29.883137833
    54.853108601        44.414640643        29.344804008
    57.194654083        44.652979474        27.477654886
    57.239638669        42.907794813        29.669467159
    58.768332244        45.323097218        29.617112217
    60.549565372        45.244172413        27.418360961
    60.534544432        42.944323935        29.107221973
    62.677766566        44.732764708        29.076621682
    64.982307336        44.759359786        27.358129336
    65.033159476        42.967555518        29.553098534
    66.585245036        45.357670819        29.502587736
    68.396128874        45.341009785        27.343032359
    68.360219439        43.037484929        28.952563913
    70.548582627        44.797609766        28.955752095
    72.924394628        43.039987995        29.478676375
    74.428366239        45.421342565        29.427915524
    76.695119957        44.931680247         0.007823329
    76.214841050        43.084495640        28.899677608
     2.330491009        48.835055485        31.208358613
     1.821148147        47.005705225        28.858950152
     0.079329339        49.397932488        29.329894571
     5.784618735        49.342630370        31.172038349
     6.366163813        47.030657666        29.368871653
     4.003557722        48.761449696        28.792904784
    10.122627073        49.153335992        31.169850381
     9.588131960        47.016499698        29.569883372
     7.861036803        49.414358860        29.307764841
    11.756388994        48.530620063        29.015764923
    14.142919061        47.001715963        29.069901495
    15.665275678        49.129087538        29.595545107
    17.452611063        46.980831005        29.619737778
    17.943529803        49.082937256        31.231080439
    19.594503217        48.501756582        29.091999969
    21.945984425        46.959554942        29.106221759
    23.498069985        49.088178051        29.640460958
    25.267411535        46.937105568        29.676187345
    27.422603481        48.441995877        29.164202903
    29.736141168        49.035613661        27.323684473
    29.759924323        46.926702199        29.191896323
    31.306611732        49.071204133        29.703786995
    33.100753481        46.907616320        29.737481697
    35.237012783        48.489554134        29.226716266
    37.605314314        46.892206819        29.244313778
    40.923064423        48.474613958        27.405076872
    39.149419999        49.034987895        29.772989288
    40.920013295        46.883367866        29.764112390
    45.381232457        48.993765524        27.454431172
    45.446088495        46.868584132        29.299200510
    43.066364791        48.436363978        29.289198372
    48.810700808        48.469607826        27.479311490
    48.813360766        46.865377078        29.854975563
    46.997157012        48.995095278        29.834752490
    50.941092555        48.376525053        29.365964782
    53.237262281        49.023567656        27.521320470
    53.319486280        46.823841824        29.312078263
    56.643260412        49.152475563        27.447836012
    54.864609008        48.992122887        29.882043849
    56.665478886        46.837217584        29.092593846
    58.802989933        48.599610824        29.079184730
    61.070291290        48.683385320        27.390292461
    61.147743011        46.864203766        29.557411956
    62.672524884        49.265191761        29.507713832
    64.481452870        49.203084432        27.353284550
    64.440771157        46.877735967        29.015421099
    66.585245036        48.650219693        28.991322198
    68.995401790        46.914421531        29.495211160
    70.503832743        49.317756150        29.440386940
    72.301651493        46.958068747        28.925495627
    74.436737284        48.720931312        28.929246429
    76.265458488        49.267303723        31.250015767
    76.820763861        47.003906146        29.375529326
     2.462237169        50.905325864        29.316672995
     1.856095302        53.152609952        31.164724285
     0.105216208        52.643001326        28.742050164
     6.322829966        52.614841832        31.105555387
     5.748693654        50.935206216        28.692570837
     9.589540174        52.505880233        31.142250732
     7.876683616        52.677653148        28.574889431
    10.221436694        50.911348867        28.966348110
    14.056157486        53.000626904        31.214516179
    13.518298309        50.903683227        29.566507650
    11.758970718        53.067975028        29.557849549
    17.455036318        52.508774403        31.225737328
    15.682252469        52.400595012        29.053304197
    18.073085410        50.867466988        29.039988851
    19.579638745        53.029646827        29.606641229
    21.351170850        50.882876489        29.645180717
    23.504485178        52.411937031        29.123006597
    25.902437418        50.838368844        29.157045123
    27.383955854        53.013220455        29.685533093
    29.185373370        50.852839695        29.688752531
    31.323510290        52.381118029        29.175330282
    33.679137902        50.826166396        29.198772793
    35.218393076        53.003912178        29.728354746
    37.013082463        52.351628781        27.359129550
    36.992428670        50.823428668        29.749765573
    39.127279760        52.353193197        29.253753295
    41.529613107        50.796911811        29.272132224
    44.867078201        52.327145665        27.472903870
    44.861914753        50.782753843        29.851568585
    43.083263349        52.923031853        29.841753987
    49.361703308        52.895576346        27.469590662
    49.399333892        50.772115811        29.359307109
    47.005762759        52.297030650        29.290917490
    52.771534909        52.283263786        27.514350230
    52.727567366        50.733709390        29.938743469
    50.953531771        52.913019588        29.883919250
    54.873997096        52.209657997        29.321517781
    57.275000465        50.746772267        29.616268287
    57.252547289        52.549918553        27.442178552
    58.780067353        53.183741838        29.629646146
    60.471331310        53.139625297        27.351252866
    60.567559206        50.799258435        29.029986713
    62.698107422        52.570255966        28.901928089
    65.065626612        50.818422535        29.504181827
    66.615912789        53.161370684        29.546565887
    68.360923546        50.833049828        28.929871562
    70.503206871        52.585352583        28.867108146
    72.871899572        50.870517600        29.378873791
    74.426488622        53.250542416        29.413912531
    76.165710059        50.888586609        28.834819994
     1.741388520        56.536051416        31.219329708
     1.816141167        54.776630567        28.736611501
     4.002931850        53.290356812        29.342616041
     6.400884090        54.788285469        29.356212697
     3.987903086        56.477698686        29.498180544
     9.619738522        54.799549266        29.581167034
    13.533945121        56.441091344        31.189479577
    11.770236423        56.335336798        28.988446583
    14.158800576        54.781010932        29.021985003
    17.413572266        54.785625961        29.575165751
    21.325118907        56.413479395        31.238302514
    19.560471400        56.312183436        29.018296714
    21.969376409        54.787503260        29.072183233
    25.256458766        54.776083021        29.652307241
    27.394517452        56.317502452        29.097657428
    29.128731909        56.389309162         0.050493606
    29.760550195        54.750113710        29.135728066
    33.051857192        54.729776297        29.725166565
    35.197582816        56.267988674        29.201210814
    37.576993583        54.711863730        29.224434528
    39.105061286        56.885854912        29.747858916
    40.886216180        56.246086845        27.384072382
    40.902175929        54.696845333        29.817154978
    45.441159749        54.680966507        29.287416741
    43.047901552        56.209401282        29.213963540
    45.392576396        56.829379482        27.404920588
    48.762665094        56.224732562        27.463745663
    48.774556671        54.650225726        29.874510989
    46.953971810        56.863874863        29.794681424
    50.912850059        56.196807730        29.375810636
    52.926047181        56.888983745        27.503285365
    53.368147867        54.642403644        29.372028578
    56.547188984        54.671032463        29.039676284
    60.349599109        56.486459418        27.421517886
    58.738133896        56.447661892        29.839503506
    61.181148956        54.698566191        29.550629256
    64.429661921        54.691369876        28.936779289
    66.580863929        56.428028467        29.741763863
    69.006980431        54.723283969        29.512621131
    72.237734264        54.743073836        28.832694540
    74.409433596        56.450321400        29.674311944
    76.827335522        54.738693470        29.410818120
     2.178122349        58.664674525        29.579854253
     0.073574754        57.081094073        29.032362221
     6.035945660        57.122785769        31.163474018
     5.491960755        58.677659180        28.975475061
     5.606213780        60.395622997        31.219110911
    10.049869395        60.233471242        31.142813352
     9.983761613        57.041436118        31.127872658
     7.887792853        57.209219772        29.183957126
    10.063169186        58.681492000        28.595175017
     7.891704556        60.144847055        29.327706604
    13.250268412        58.687984328        29.314672568
    15.655731122        56.992626328        29.583386258
    15.666527423        60.182705931        29.402566356
    17.852230652        60.284392994        31.194199336
    17.856220589        58.666942928        28.754771633
    21.045432135        58.676485868        29.398190420
    23.478667937        56.978155477        29.662559432
    23.465368147        60.173475875        29.439292956
    25.615318410        60.261708957         0.019066576
    25.761224936        56.898683126         0.045112143
    25.668204636        58.661076367        28.837570582
    31.291903729        56.894850306        29.734231003
    28.881590506        58.650907661        29.470080788
    31.282359173        60.133661479        29.497993004
    33.458283145        58.630648469        28.884924454
    36.675033080        58.622278842        29.539251824
    39.078461705        60.110899221        29.572446419
    41.311261840        58.596622413        28.938435893
    44.550777887        58.575189909        29.594326096
    49.172924516        58.574877026        29.035987996
    46.957570577        60.091656899        29.658433550
    52.425036247        58.591381619        29.730230147
    53.106220227        60.139919144        27.486094190
    54.842859939        57.113086387        29.394564645
    54.787783159        60.364647553        29.967999723
    56.358879596        60.334688980        27.532947955
    56.932961145        56.988480625        27.467934058
    56.958778385        58.649969011        29.967405846
    60.284743071        58.597169959        29.309390188
    62.683868823        57.061382427        29.234311640
    62.662354456        60.348612285        29.832158186
    64.816998762        58.596309530        29.797369499
    64.239709618        60.378727300        27.443397563
    70.502033360        57.096894678        29.143636007
    68.097900629        58.592789593        29.193177847
    70.499608104        60.395310113        29.763924850
    72.648697793        58.626580986        29.728823597
    75.948610536        58.631430677        29.137353414
     0.066468989        60.422139854        29.666654057
     1.587760292        62.583615705        29.121224966
     3.987418035        61.028351190        29.052272727
     6.199853844        62.546069713        29.674249431
     9.395441465        62.523151014        29.412255927
    13.344149286        60.768501634        31.189417064
    11.766090018        60.811053759        28.701635274
    13.916587919        62.551310508        28.832788310
    17.161971521        62.545600388        29.355243740
    21.145806437        60.757785382        31.231019707
    19.549988036        60.808707134        28.756396980
    21.709874025        62.547555909        28.845134699
    25.006500938        62.559758356        29.403410286
    27.376601852        60.761931085        28.833350930
    28.962640995        60.730564537         0.058755997
    29.533358479        62.509305929        28.932965974
    32.841329330        62.482945513        29.498836935
    35.175364342        60.749885079        28.843384325
    37.328913372        62.475123432        28.998479978
    40.631173137        60.687230204        27.341875862
    40.639857118        62.447902587        29.564694762
    43.030142420        60.718987856        28.905428837
    45.215063309        62.448684795        29.078247029
    43.057837278        63.979466195        29.588856177
    48.483760662        60.709601358        27.416204250
    48.514897819        62.449232341        29.604609545
    50.888988670        60.717892765        29.070745426
    53.046762339        62.486152567        29.128789083
    56.342293975        62.548025234        29.326862673
    58.714272507        60.962958586        29.370215690
    60.851157682        60.900460153        27.490813949
    60.862423387        62.498120352        29.881356202
    64.194881500        62.519318193        29.304514146
    66.571241139        60.973127293        29.285103747
    68.688880735        60.934877313        27.397950348
    68.702102291        62.517753777        29.808715674
    72.038628576        62.557724615        29.216839155
    74.395664401        61.019590458        29.194084291
    76.539277705        62.571882583        29.693597317
     2.243909372        66.488477139        29.731605441
     0.083415504        64.957852181        29.179487420
     3.984484258        64.337795760        29.671311303
     5.518302164        66.497628975        29.100939380
     9.574597468        64.722016416        31.233895321
     7.890296343        64.779586938        28.840383683
    10.026242709        66.461647399        28.791123153
    13.804947913        64.215223739        31.252786047
    11.776260446        64.068950810        29.331301122
    13.278980313        66.474162730        29.415600392
    15.680609554        64.711925931        28.878391808
    17.815773579        66.463211815        28.904116057
    19.589418003        64.074348047        29.409536596
    21.144945862        66.455859058        29.470362098
    23.498069985        64.702930537        28.935529022
    27.384190556        64.062145599        29.462610441
    25.635972202        66.470173468        28.976318991
    28.961154548        66.423162757        29.521060435
    31.313965734        64.652165226        29.024548050
    35.213542564        64.039226900        29.529062146
    33.487307982        66.406501722        29.029361579
    36.866158894        64.638085479        27.380977970
    36.753658313        66.402199577        29.584605269
    39.141596593        64.594438263        29.094531760
    41.246484036        64.061441612        27.416204250
    41.298509688        66.352764021        29.057148769
    44.716947035        64.592326301        27.455493899
    44.581915044        66.356127516        29.673561784
    49.068873213        64.080136387        27.475498175
    46.984874264        64.610786414        29.187551644
    49.119803587        66.373336096        29.189895895
    50.877644731        64.003479986        29.673874351
    52.482929453        64.666636077        27.532510362
    52.394368495        66.383348360        29.773051801
    54.802960567        64.924608334        29.444137742
    56.916923162        64.918194227        27.583177442
    56.922008376        66.442013974        30.069052574
    58.730623426        64.293522777        29.929960342
    60.298355798        66.416826870        29.424258493
    60.325972422        64.285466033        27.529791030
    62.648272324        64.855461131        29.367090022
    64.778585838        64.845683529        27.510505658
    66.577030460        64.282728305        29.858663851
    64.798457290        66.415106012        29.925021786
    68.145545173        64.328956808        27.436239783
    68.124969614        66.442405078        29.334489304
    70.480362525        64.899968776        29.276289363
    72.628904575        64.889878291        27.400075803
    74.408964192        64.322855584        29.787429874
    72.596828609        66.464932673        29.814904497
    75.954243388        64.360010472        27.377914815
    75.908398228        66.482688799        29.261942546
     1.683996012        68.265028348        27.395668610
     1.630695146        70.437767997        29.244063724
     0.061477500        68.252591238        29.744764504
     3.976809496        68.863104719        29.168891405
     6.125437604        70.415162181        29.733043249
     7.889826938        67.961844459        29.458234505
     9.368450714        70.388801765        29.508839073
    13.384909233        68.565005183         0.068872222
    11.765464145        68.609434608        28.901803062
    13.919013175        70.379649930        28.934872631
    15.668874445        67.983668067        29.454452447
    17.218378280        70.364005766        29.508370222
    19.590356812        68.614518961        28.962097201
    21.750399269        70.376442876        29.024579307
    23.500886411        67.990786161        29.502837790
    25.077224530        70.351725098        29.570008398
    27.433008611        68.548891695        29.021422382
    29.585540598        68.011749340        27.371913533
    29.586948811        70.357513438        29.032268451
    31.337279485        67.975533102        29.545284363
    32.928873246        68.571888615        27.415204036
    32.940843057        70.331935231        29.596138984
    35.270731664        68.532543544        29.069620185
    37.379609044        68.002128180        27.443928927
    37.425688907        70.308156103        29.121568790
    39.173985495        67.907950316        29.638741841
    40.741326697        68.505088037        27.485469056
    40.705495496        70.287818690        29.662684459
    45.211933947        67.929226378        27.515663010
    43.075831113        68.484750624        29.125257078
    45.213185692        70.275381580        29.232780062
    48.593288349        68.487253690        27.551608194
    46.990663585        67.902787742        29.700286247
    48.524129438        70.271783422        29.777490250
    53.021336269        67.972247828        27.587459608
    50.888362797        68.537002130        29.219902309
    53.045197658        70.307373894        29.224246988
    56.403551246        68.112575974        27.618184926
    54.806715802        68.186025322        30.006289158
    56.361539555        70.349065590        29.403003949
    58.724677637        68.776827157        29.487146936
    60.850610043        68.710730566        27.605369686
    60.835041465        70.348674486        29.980783706
    62.655782794        68.208709359        29.932929726
    64.171645983        70.362988896        29.447482207
    64.263101602        68.213167946        27.555984130
    66.541512195        68.804517327        29.404941864
    68.677302093        68.746868584        27.511599642
    68.672451581        70.376286435        29.871166524
    70.478171971        68.247663326        29.814373134
    72.123277831        68.248836639        27.465433523
    72.031743978        70.403116175        29.363808071
    74.397229083        68.869988151        29.308389975
    76.499456568        68.774871637        27.413547432
    76.497735418        70.410234270        29.826125646
     2.295872436        72.838208447        27.458775850
     2.225453957        74.338483728        29.888576496
     0.037548438        72.789085773        29.257410327
     5.484896220        72.239115205        27.347658348
     3.962375312        72.197188847        29.882575213
     5.441812722        74.328862567        29.185207393
     7.867999635        72.598930966        28.915712286
    10.043063032        74.274342657        28.940592604
    11.772739913        71.909023355        29.471706135
    13.353146204        74.266520576        29.509683003
    15.716127818        72.521492356        28.975412547
    17.889000661        74.300155527        29.065619330
    19.614139967        71.903235014        29.529187172
    21.215747688        74.278175477        29.570946099
    21.237809694        72.486918755        27.380696660
    23.561283107        72.499355865        29.058117726
    25.685494364        71.947664439        27.432739035
    25.733999482        74.264252172        29.122506490
    27.465945151        71.878595457        29.619644008
    29.043535015        72.480191765        27.446429461
    29.063562935        74.263000639        29.638335504
    31.399240862        72.494271512        29.108534753
    33.538238356        71.927952793        27.455025048
    33.567028491        74.267615667        29.180737688
    35.298426522        71.853564795        29.640554728
    36.869914129        72.430912650        27.495846274
    36.887047389        74.255726103        29.673655554
    39.213415462        72.432477066        29.181206538
    41.315095309        71.885244226        27.541887366
    41.383315411        74.219822747        29.238218725
    44.688704539        72.419805294        27.581520838
    43.096328437        71.811638437        29.713382796
    44.627212566        74.198468464        29.775302282
    49.111510777        71.885087785        27.611495996
    46.993558245        72.414642720        29.220621213
    49.158842384        74.186187796        29.329863315
    52.425114481        72.462670302        27.651629575
    50.895951501        71.775187536        29.788273805
    52.420107501        74.193227669        29.848786740
    54.803899376        72.733470772        29.460078650
    56.982483306        74.249624879        30.210582828
    56.998051885        72.781654796        27.719894167
    58.729449915        72.152446539        30.130753263
    60.222546992        74.260419352        29.478332552
    60.200172050        72.156592242        27.639720779
    62.604774186        72.730498381        29.398440474
    64.818954614        72.674101172        27.629812411
    64.781871669        74.275203086        30.043734662
    66.523440127        72.162928129        30.056268591
    68.030149931        72.157687334        27.559828701
    68.030697569        74.274107995        29.388469592
    70.417931743        72.761395604        29.330675988
    72.648150154        72.706953915        27.544950521
    72.584389393        74.304457672        29.947089003
    74.366952501        72.199691913        29.986253625
    75.892594947        72.208296203        27.482812238
    75.879216923        74.328706125        29.306358290
     2.424262355        76.083277284        27.420924009
     0.077847977        76.098765006        29.076152831
     5.875628420        76.597188056        27.410359251
     3.988129965        76.749092883        29.590356498
     9.668400108        76.472660514        27.374601607
     7.895694493        75.876305001        29.394220822
    13.996856067        75.882484446        27.383384735
    11.847218740        76.438165134        29.021734949
    17.335807608        76.460145183        27.429550853
    15.745387357        75.831719135        29.596170241
    19.682125367        76.452166660        29.028955243
    22.081485820        78.211260234        29.272882384
    21.845453655        75.860504396        27.439928071
    23.601730117        75.833987539        29.648587695
    25.200443178        76.407267911        27.465308497
    27.535182296        76.442310837        29.073089677
    29.916783617        78.195786904        29.357400451
    29.675431535        75.814901659        27.477092266
    31.425136336        75.817482946        29.711007288
    33.203944209        78.181159611        29.996599587
    33.031907506        76.391936630        27.522133144
    35.357727941        76.410631406        29.164515470
    37.800195363        78.156911158        29.416850659
    37.501888883        75.840949191        27.545638168
    40.997699719        78.146038464        30.070615408
    40.796794647        76.348132973        27.560578862
    39.243144406        75.736680842        29.765956534
    45.586831573        78.134305342        29.497211587
    45.312777653        75.783300449        27.633156876
    43.141782427        76.376448909        29.172173357
    48.790203483        78.134461783        30.064739152
    48.611047481        76.320599245        27.640595966
    47.041124555        75.727372564        29.814029310
    53.033227847        75.709147114        27.690262833
    50.928340403        76.385678965        29.311109306
    53.322537409        78.092613646        29.505807175
    56.580751397        78.160900420        29.268725246
    54.838635300        75.742234520        29.774489608
    56.966054153        75.939663863        27.702577966
    58.742280301        76.622062276        29.846536259
    60.485491675        76.587488674        27.645909602
    61.133347944        78.181003170        29.789211505
    62.634346661        76.019370876        29.211400492
    64.410181639        78.184757769        29.204836589
    64.961731778        76.044010434        27.593710944
    66.565217116        76.659060722        29.774583378
    68.962387016        78.204938740        29.729386217
    68.303343276        76.597735601        27.563360706
    70.451728858        76.039238964        29.161045978
    72.248765267         0.005457443        29.133571355
    72.828714370        76.076315632        27.508380204
    74.379000546        76.712172658        29.685283039
    76.139579882        76.655697227        27.450617856
