CRYSTAL
PRIMVEC
    78.3968848580000071    0.0000000000000000    0.0000000000000000
     0.0000000000000000   78.1749229289000027    0.0000000000000000
     0.0000000000000000    0.0000000000000000   31.2711157646000011
PRIMCOORD
  400    1
   13          1.39000813          1.32952091          9.53274947   -5.3548   -4.8682    4.1877
   13          5.31620252          1.36386316          9.51814586    5.2913    5.2933   -4.4869
   13          9.23954326          1.41229252          9.49653752   -5.2904   -4.8407    4.5172
   13         13.15766277          1.44353122          9.47286529    5.2213    5.2966   -4.4331
   13         17.08824739          1.48134443          9.45876201   -5.2286   -4.9319    4.4544
   13         21.02596612          1.50900272          9.42477031    5.0402    5.4264   -4.5929
   13         24.94988700          1.57424751          9.39571944   -6.8611   -5.6342    4.6903
   13         28.87114239          1.62076159          9.34490388   -5.7960    6.2705   -3.1350
   13         32.79090824          1.59708241          9.33355246    5.1254   -5.4995    4.1049
   13         36.69718982          1.53541803          9.35741233   -5.0844    5.3213   -3.9070
   13         40.61272223          1.49408694          9.37214102    5.2486   -5.5211    4.4880
   13         44.51688710          1.43046819          9.39553182   -5.4513    5.2413   -4.1723
   13         48.43908325          1.38955926          9.41407559    5.2709   -5.5827    4.5738
   13         52.34489445          1.33456320          9.43158741   -5.4961    5.2424   -4.2930
   13         56.27132403          1.28869797          9.45572871    5.5043   -5.6145    4.7690
   13         60.18379896          1.23669601          9.47652401   -5.6043    5.2682   -4.4040
   13         64.09666588          1.20058701          9.51645722    7.1744   -5.6574    4.9935
   13         67.97566535          1.15408075          9.55623408    5.9693    5.4418   -5.9262
   13         71.92882827          1.20905336          9.56042441   -5.5705   -5.2401    3.9521
   13         75.86090243          1.26214977          9.54919808    5.1728    5.3991   -4.6234
   13          1.39261874          5.22671281          9.50013370    5.2154    5.1934   -4.5833
   13          5.31359190          5.27110835          9.48327857   -5.4040   -4.9271    4.5540
   13          9.24338471          5.30837433          9.45244525    5.4577    5.4339   -4.7802
   13         13.16064185          5.35205848          9.43618427   -5.2334   -4.9181    4.5644
   13         17.09640067          5.37275138          9.41044814    5.4570    5.5897   -4.6154
   13         21.00526934          5.42622303          9.38608794   -5.1044   -5.1813    4.2318
   13         24.94055777          5.46023694          9.34749938    6.8143    5.3602   -4.6349
   13         28.84887767          5.51846162          9.29268112    5.9952   -5.0785    5.3250
   13         32.77742397          5.50670411          9.29627729   -5.1728    5.1941   -4.0101
   13         36.70691103          5.45641418          9.31741657    5.1740   -5.3495    4.3131
   13         40.60958636          5.40479528          9.33899364   -5.2468    5.1041   -4.0238
   13         44.53429121          5.36090006          9.35675563    5.2004   -5.4411    4.5717
   13         48.43696653          5.29394324          9.38699480   -5.4508    5.1766   -4.2465
   13         52.36519924          5.25559062          9.40844679    5.2761   -5.6012    4.5862
   13         56.27932051          5.19615423          9.42792869   -5.6402    5.1779   -4.2218
   13         60.20151666          5.16090516          9.45957506    5.0974   -5.4175    4.6418
   13         64.10967977          5.11501648          9.48234043   -6.9956    5.6925   -5.0762
   13         68.00090915          5.08081495          9.53603294   -6.1612   -6.4458    3.2939
   13         71.93447285          5.12019166          9.53809683    5.5091    5.5065   -4.6101
   13         75.84835893          5.18226255          9.52490042   -5.5004   -4.9778    4.3688
   13          1.38281913          9.13114370          9.46701759   -5.3966   -4.9324    4.4886
   13          5.31811540          9.16366447          9.43984299    5.4538    5.2683   -4.6896
   13          9.23766174          9.21885596          9.41932914   -5.5860   -4.9748    4.5798
   13         13.17083345          9.24965688          9.39002810    5.2654    5.3508   -4.6929
   13         17.08291640          9.29757811          9.37489288   -5.5145   -4.9525    4.4536
   13         21.00981636          9.33267865          9.33708610    5.0783    5.3090   -4.6425
   13         24.92393763          9.38552490          9.31432073   -6.8641   -5.6800    4.8622
   13         28.83413906          9.42680126          9.25862687   -6.0346    6.3459   -3.5232
   13         32.76684039          9.41515319          9.26391169    5.3016   -5.4491    4.3089
   13         36.68746860          9.35542755          9.27901564   -5.2932    5.2221   -4.2529
   13         40.62448176          9.31665279          9.30418889    5.1583   -5.3387    4.4862
   13         44.52817625          9.25942875          9.32798621   -5.4657    5.2892   -4.3303
   13         48.45499781          9.22127938          9.35597385    5.3375   -5.4842    4.6623
   13         52.36496405          9.16053747          9.37314170   -5.3646    5.1054   -4.2150
   13         56.29452951          9.11543054          9.39925308    5.4554   -5.5325    4.4855
   13         60.19791040          9.07493593          9.42905445   -5.1578    5.3907   -4.4459
   13         64.12473197          9.04616756          9.45838676    6.8515   -5.8969    4.4958
   13         67.99941961          9.00145150          9.50607521    6.2320    5.5226   -5.6718
   13         71.92835789          9.02818732          9.51098478   -5.7662   -5.3791    4.3683
   13         75.85470907          9.07829745          9.48662458    5.3626    5.3768   -4.5320
   13          1.40089745         13.01995524          9.43643444    5.4003    5.3128   -4.5252
   13          5.32194117         13.06553122          9.40481934   -5.4487   -5.0374    4.6338
   13          9.24942127         13.11095085          9.38618175    5.2866    5.4358   -4.8982
   13         13.15734919         13.16559512          9.35734978   -5.4110   -5.0408    4.5114
   13         17.08707144         13.20210281          9.33758644    5.4304    5.4356   -4.7684
   13         20.98911959         13.25682526          9.31266336   -5.1492   -5.1912    4.3426
   13         24.91946901         13.28379560          9.26979066    6.7556    5.4940   -4.5102
   13         28.81947884         13.33163866          9.22332178    6.1360   -5.1606    5.5870
   13         32.74880911         13.31248580          9.22719940   -5.3381    5.2837   -4.2144
   13         36.68887975         13.26151575          9.24502394    5.2459   -5.3736    4.3361
   13         40.60503934         13.21296912          9.27135422   -5.5874    5.1924   -4.3336
   13         44.53617273         13.17818128          9.29302510    5.3281   -5.3302    4.4824
   13         48.44747171         13.11697032          9.31722894   -5.5273    5.1460   -4.2694
   13         52.38009465         13.08382415          9.33683593    5.2685   -5.5510    4.5463
   13         56.28857134         13.02495843          9.36501121   -5.6120    5.2954   -4.2470
   13         60.21210024         12.99650276          9.39030954    5.0885   -5.6283    4.6053
   13         64.11618671         12.94506366          9.41773431   -6.9225    5.9298   -5.0445
   13         68.02137073         12.91582624          9.47517935   -6.1917   -6.5286    3.6144
   13         71.94458604         12.93036678          9.47868171    5.6594    5.5892   -4.4341
   13         75.85847212         12.98516740          9.45091296   -5.4071   -5.0001    4.4660
   13          1.40243403         16.92064937          9.38793293   -5.2983   -5.1973    4.4668
   13          5.33144287         16.96270748          9.37564339    5.2018    5.5650   -4.8295
   13          9.24213036         17.02946886          9.34678015   -5.3202   -5.1267    4.5113
   13         13.16087705         17.07011982          9.32933086    5.2667    5.4760   -4.8528
   13         17.06935374         17.12343512          9.29859136   -5.6399   -5.1931    4.5773
   13         20.98888440         17.15853566          9.26844600    5.0635    5.5733   -4.7846
   13         24.90872864         17.21677598          9.24862011   -6.8525   -5.7529    5.0272
   13         28.81916526         17.24695150          9.18829813   -5.8700    6.3729   -3.1987
   13         32.74277255         17.20942753          9.19683515    5.5001   -5.4666    4.3810
   13         36.67084846         17.15275071          9.20799893   -5.2887    5.0716   -4.1798
   13         40.60488254         17.11804105          9.23576769    5.4722   -5.2093    4.2482
   13         44.52331564         17.06112970          9.25906467   -5.6055    4.9883   -4.2571
   13         48.45930964         17.03337761          9.28111080    5.6303   -5.4037    4.3895
   13         52.37460687         16.98217303          9.30434524   -5.3616    5.0338   -4.1830
   13         56.30840576         16.94441454          9.32798621    5.6383   -5.3702    4.3662
   13         60.21429535         16.90102746          9.35869444   -5.1404    5.2583   -4.2347
   13         64.14158730         16.86803765          9.38611921    6.9330   -5.7350    4.7196
   13         68.02160593         16.82089817          9.43990553    6.2956    5.5173   -5.6752
   13         71.95164176         16.82824661          9.43840452   -5.4632   -5.3043    4.3922
   13         75.88199119         16.87694959          9.41964185    5.1574    5.5278   -4.4153
   13          1.40700457         20.82650304          9.36329130    5.0512    5.4939   -4.7857
   13          5.32350911         20.87997469          9.34249600   -5.3381   -5.2002    4.5051
   13          9.23899448         20.92695782          9.31741657    5.0383    5.4671   -4.9037
   13         13.14637362         20.98863783          9.29840373   -5.5337   -5.1899    4.6577
   13         17.06966733         21.02530187          9.27588853    5.2180    5.6187   -4.9566
   13         20.97265624         21.08674736          9.25159087   -5.3157   -5.1010    4.3804
   13         24.90394643         21.12309870          9.20224505    6.9560    5.3994   -4.5840
   13         28.80568099         21.15960639          9.15934108    5.9884   -5.2135    5.5984
   13         32.73783354         21.11856455          9.15355592   -5.3801    5.2310   -3.9435
   13         36.67484671         21.05493017          9.17541443    5.4360   -5.3129    4.4412
   13         40.59610209         21.00098947          9.19439600   -5.2773    4.9127   -4.1229
   13         44.52856823         20.96909410          9.22141424    5.5411   -5.1818    4.3479
   13         48.44598217         20.91616968          9.23886353   -5.4475    4.9088   -4.3254
   13         52.38213297         20.89373348          9.26141000    5.4663   -5.4129    4.3500
   13         56.30401553         20.84768845          9.28326851   -5.5464    5.1961   -4.1005
   13         60.23656007         20.82017087          9.31413310    5.2692   -5.4842    4.4955
   13         64.14448798         20.76630835          9.34405956   -6.8754    5.7597   -4.9174
   13         68.04857445         20.71940340          9.39750190   -6.0898   -6.4134    3.7230
   13         71.96990824         20.74121420          9.40494442    5.3952    5.5457   -4.6145
   13         75.88136401         20.78507033          9.37911448   -5.2919   -5.1299    4.3912
   13          1.39410828         24.74760083          9.33370882   -5.3410   -5.2412    4.5201
   13          5.31905616         24.79036251          9.31153760    5.0567    5.5887   -4.8380
   13          9.22394228         24.84735203          9.29540170   -5.4067   -5.2357    4.5179
   13         13.14261057         24.88925379          9.27279269    5.1498    5.5070   -4.9161
   13         17.05626146         24.94991753          9.25265409   -5.7826   -5.2601    4.6831
   13         20.97171548         24.99150659          9.21481604    5.2405    5.5302   -4.9818
   13         24.88897262         25.05146675          9.20108802   -7.3585   -5.4464    5.1570
   13         28.79674375         25.07898433          9.13044657   -5.8099    6.1298   -2.9861
   13         32.74418369         25.02262021          9.12572463    5.2126   -5.4473    4.5468
   13         36.67790418         24.94976118          9.14014061   -5.3373    4.8999   -3.7971
   13         40.60684247         24.90871934          9.16193658    5.1507   -5.2039    4.2047
   13         44.52253167         24.85493500          9.17741578   -5.3618    4.8655   -4.0443
   13         48.44958843         24.82460313          9.20340208    5.3315   -5.0729    4.1146
   13         52.37609641         24.77660372          9.21672358   -5.1285    4.7335   -4.1165
   13         56.32392834         24.75674729          9.24493012    5.3576   -5.3543    4.1905
   13         60.23632488         24.72555550          9.27369955   -5.1558    5.3003   -4.0922
   13         64.17631712         24.68560811          9.30697202    6.9346   -5.7315    4.7901
   13         68.05625735         24.63315274          9.36604315    6.1667    5.4968   -5.6189
   13         71.97218175         24.63792141          9.36160266   -5.2868   -5.4129    4.3806
   13         75.89437790         24.69491093          9.34993853    5.1040    5.5012   -4.6634
   13          1.40578942         28.65548705          9.30850430    5.0526    5.6789   -4.7048
   13          5.29708936         28.71122577          9.28792791   -5.1754   -5.2905    4.3643
   13          9.22464785         28.75312753          9.27632632    4.8955    5.4373   -4.8675
   13         13.12512807         28.80323765          9.24755690   -5.4088   -5.1528    4.6005
   13         17.05978932         28.85092436          9.24124013    5.0679    5.6221   -5.2700
   13         20.96254304         28.91792027          9.22050738   -6.2072   -5.1004    4.9734
   13         24.85761387         28.94528149          9.17260003    7.5341    4.8178   -5.2207
   13         28.75244951         28.98804317          9.13679460    4.4224   -4.4648    5.2799
   13         32.76472368         28.91784209          9.10442900   -4.8599    4.8559   -3.0644
   13         36.69711142         28.86390139          9.13201012    4.4387   -5.2649    3.8732
   13         40.61037033         28.81128967          9.13254173   -4.8295    5.1009   -3.5885
   13         44.51555435         28.77345301          9.16109226    4.5526   -5.2504    3.6088
   13         48.44355187         28.72029406          9.15511948   -4.7009    4.7752   -3.5027
   13         52.35986825         28.69363641          9.18751635    4.5429   -4.8419    3.2443
   13         56.29954691         28.65376720          9.18929881   -4.3010    4.7228   -3.9729
   13         60.26635088         28.63930484          9.23010761    5.2514   -5.1874    4.4654
   13         64.18791986         28.57707760          9.25900212   -6.5967    5.2175   -4.6194
   13         68.08534259         28.53071987          9.30537719   -5.4676   -6.0285    3.3427
   13         72.00299172         28.55667395          9.33893110    4.7306    5.3096   -4.4303
   13         75.87172120         28.61553966          9.31106853   -5.0464   -5.2681    4.2622
   13          1.37369374         32.58205708          9.24921427   -4.1664   -5.5146    4.1926
   13          5.30496824         32.62458424          9.28173623    3.6818    5.9359   -3.8937
   13          9.19571940         32.66812767          9.22823135   -4.3984   -5.6713    4.4322
   13         13.12787196         32.70971673          9.26331754    4.0348    6.1462   -4.4634
   13         17.02341317         32.75998320          9.20712334   -4.4616   -6.1271    4.5798
   13         20.93392818         32.81509652          9.21869366    5.9123    6.5665   -6.0233
   13         24.83182129         32.87075707          9.20396496   -8.5545   -4.2875    6.2009
   13         28.70219710         32.85082246          9.14042205   -1.1395    4.0758   -2.7317
   13         32.73281614         32.80587188          9.15527583    1.5340   -4.5759    2.9911
   13         36.68292158         32.77233484          9.11653092   -0.9468    4.6546   -2.9887
   13         40.59892438         32.74473909          9.15343084    1.8133   -4.6695    3.5192
   13         44.50269726         32.68954760          9.13329224   -0.9097    4.5920   -2.8908
   13         48.41658334         32.66249907          9.16168641    1.7566   -4.4445    3.1329
   13         52.34238575         32.59698849          9.14326773   -1.0587    4.1510   -2.2537
   13         56.25674221         32.55649388          9.16597056    2.1896   -3.9711    2.5928
   13         60.23373778         32.52553661          9.17241240   -3.7701    4.3708   -3.6841
   13         64.21708350         32.48160230          9.22075755    6.6944   -4.6058    3.9777
   13         68.14351308         32.41101035          9.27488785    3.4900    4.1137   -4.6477
   13         71.98723395         32.48988884          9.26087839   -3.6246   -5.4703    4.0052
   13         75.88355913         32.53655927          9.29496391    3.6577    5.6531   -3.9094
   13          1.41584774         36.50424931          9.25634408   -1.9274   -5.2011   -4.1146
   13          5.32782878         36.56319320          9.23145227    0.4723    5.0020    3.6073
   13          9.24518784         36.59782469          9.24527410   -1.9646   -5.6127   -4.2721
   13         13.15272377         36.61877557          9.22413483   -0.3386    5.9181    4.1622
   13         17.02835217         36.68178456          9.23464193   -2.1650   -5.6070   -5.6881
   13         20.93714245         36.71555613          9.23507972   -7.5825    4.4703    6.0694
   13         24.73539313         36.73642883          9.23076431    6.7590   -4.3234   -4.9816
   13         28.72038518         36.73869591          9.21522256   -4.0508    5.0800    4.2443
   13         32.66484604         36.69999932          9.17206842    3.9004   -5.2462   -4.0551
   13         36.63611864         36.68733498          9.18410780   -3.7540    5.6523    3.0363
   13         40.54294900         36.65082729          9.15930981    3.8441   -5.3349   -3.7741
   13         44.47753186         36.62104265          9.18320094   -3.4342    5.5488    3.3532
   13         48.37856085         36.56061343          9.16087336    3.8275   -5.2780   -3.3623
   13         52.29636678         36.53403396          9.15765244   -2.8570    5.3301    2.5599
   13         56.23886772         36.46164398          9.14039078    3.6943   -4.7011   -2.2968
   13         60.16561089         36.38886312          9.12663149    4.0001    4.4723    2.4686
   13         64.23919142         36.39324092          9.17603985   -5.7644   -4.6637   -4.4176
   13         68.15558620         36.41505172          9.20831165    1.6957    5.3231    3.3964
   13         72.02125820         36.43334466          9.24786961   -2.1629   -5.8329   -4.5427
   13         75.91037086         36.48017143          9.22579220    0.7935    5.2032    3.8003
   13          1.41587910         40.45067577          9.25600010    4.8541    5.2409    4.0788
   13          5.33650731         40.48444734          9.26469347   -4.5536   -5.7388   -4.2367
   13          9.24534463         40.52384750          9.26707007    4.7443    5.2354    3.9116
   13         13.15248858         40.55847899          9.27069752   -4.3659   -5.5112   -4.3855
   13         17.03054728         40.55511747          9.27025973    5.0556    5.0591    4.9153
   13         20.90829240         40.67605407          9.30265660    7.4285   -5.4937   -3.5899
   13         24.80383361         40.65533772          9.28508224   -6.6179    5.4812    5.6408
   13         28.72383464         40.60561847          9.27094769    4.9900   -4.9217   -4.7374
   13         32.69377450         40.60335139          9.25052765   -5.2931    5.1143    4.2422
   13         36.60679821         40.57747550          9.22544822    5.1318   -4.7476   -4.4688
   13         40.56019632         40.56066789          9.22013213   -4.9856    5.1911    4.3144
   13         44.46200928         40.50711806          9.20537216    4.9258   -4.6919   -4.1626
   13         48.39910084         40.48077312          9.20562233   -4.7498    5.0553    4.2112
   13         52.29965945         40.41393356          9.19095618    4.7063   -4.4822   -3.4135
   13         56.26591464         40.37789492          9.16049811   -5.3876    5.0565    3.9526
   13         60.22887717         40.27790919          9.14014061   -4.3783   -3.8325   -4.6288
   13         64.19646512         40.27595482          9.18670330    6.3095    5.2891    3.7177
   13         68.12007241         40.30910099          9.21838095   -3.9041   -5.6595   -5.0315
   13         72.00111020         40.36687225          9.23776904    5.1118    5.4536    4.1921
   13         75.90096323         40.40205097          9.25281044   -4.5716   -5.6790   -4.3796
   13          1.40451939         44.35543500          9.28971036   -5.0950   -5.6391   -4.7272
   13          5.30888809         44.41234634          9.30415762    5.2142    5.0435    3.9365
   13          9.22676457         44.46198742          9.30265660   -5.1955   -5.6706   -4.4539
   13         13.12646081         44.52218211          9.31797945    4.9765    5.2398    4.1597
   13         17.04262040         44.54391474          9.32698553   -6.3636   -5.7502   -3.9185
   13         20.94435496         44.58925619          9.35050141   -7.0410    5.3442    6.4461
   13         24.84334564         44.56924341          9.34487261    5.8539   -5.3354   -4.5945
   13         28.75284149         44.52968690          9.31923029   -5.4152    5.4075    4.7649
   13         32.67613520         44.48942681          9.29305637    5.5569   -5.1076   -4.7830
   13         36.61158042         44.47324460          9.26610067   -5.4933    5.4034    4.4785
   13         40.53769641         44.43603334          9.25493688    5.4396   -5.0287   -4.8079
   13         44.47282805         44.40445067          9.23948895   -5.2339    5.4346    4.5972
   13         48.38318627         44.35684214          9.22820008    5.2965   -4.8182   -4.2450
   13         52.32121859         44.31970906          9.20818656   -4.7955    5.2084    4.3604
   13         56.27006968         44.24059603          9.19958700    6.3069   -5.1954   -3.8349
   13         60.24000953         44.16414096          9.16149879    5.1570    6.0478    2.9423
   13         64.17255407         44.18470096          9.19683515   -5.6193   -5.4243   -5.0918
   13         68.06958482         44.23356029          9.22841897    5.2297    5.2906    4.1487
   13         71.98104059         44.28218509          9.25700077   -4.9363   -5.5310   -4.7943
   13         75.88363752         44.32877735          9.27341811    5.5261    5.3493    4.4006
   13          1.37842107         48.28927529          9.32657901    5.4780    5.2041    4.3356
   13          5.30310240         48.33203698          9.34371558   -5.2908   -5.6015   -4.4835
   13          9.21437786         48.39574954          9.34781209    5.3936    4.9924    4.0885
   13         13.14417851         48.42975563          9.36072706   -5.0984   -5.3447   -4.1615
   13         17.05782940         48.47595701          9.37038984    6.3897    5.3068    4.7884
   13         20.97022594         48.51316827          9.40872823    6.0398   -6.3394   -3.4800
   13         24.86788386         48.48729237          9.39118513   -5.8619    5.7720    5.3565
   13         28.77048079         48.43718225          9.37154687    5.4850   -5.2341   -4.6100
   13         32.69667518         48.40974285          9.34233965   -5.4837    5.4416    4.8206
   13         36.61369714         48.37346968          9.31776055    5.4061   -4.9770   -4.6886
   13         40.53808840         48.33446040          9.29809102   -5.5217    5.2474    4.8515
   13         44.46295004         48.28794632          9.28011013    5.2744   -4.8195   -4.5877
   13         48.39376985         48.25104776          9.26985320   -5.4896    5.3268    4.5480
   13         52.31596600         48.19413641          9.25718840    4.8644   -4.7157   -4.0172
   13         56.28159402         48.15684697          9.23329727   -6.6724    5.4487    4.2542
   13         60.22189985         48.07757760          9.20390242   -5.6445   -4.9068   -5.6847
   13         64.13429639         48.08938201          9.22479152    5.6333    5.4583    4.0512
   13         68.05500300         48.14965488          9.25637535   -5.0607   -5.6737   -4.7635
   13         71.95148497         48.20078128          9.28154860    5.5199    5.4528    4.3221
   13         75.87078043         48.24025962          9.30787888   -5.3243   -5.5120   -4.7481
   13          1.37015804         52.19473809          9.36992077   -5.6127   -5.3193   -4.4617
   13          5.28834810         52.24899149          9.38017770    5.2797    4.9005    4.0727
   13          9.22206076         52.29206587          9.39374936   -5.5038   -5.3925   -4.1489
   13         13.14425691         52.33811090          9.40697704    4.9156    4.9288    4.2207
   13         17.08127007         52.36523760          9.41513881   -6.7190   -5.7483   -4.2775
   13         20.98363180         52.42386879          9.45188237   -6.1590    5.3639    6.0527
   13         24.88677751         52.41433145          9.43646571    5.8416   -5.5004   -4.5837
   13         28.80489702         52.37571304          9.40997907   -5.1602    5.5831    5.0252
   13         32.70968906         52.32106877          9.37983372    5.5007   -5.2784   -4.6286
   13         36.63266918         52.29011150          9.35516081   -5.4010    5.6271    4.9373
   13         40.54553610         52.23765612          9.33933762    5.6305   -5.1127   -4.6129
   13         44.46898660         52.19661429          9.32226359   -5.3060    5.5495    4.7400
   13         48.38867405         52.13446523          9.30709710    5.6849   -4.8819   -4.4320
   13         52.32905828         52.10233533          9.29299383   -5.0024    5.3338    4.4371
   13         56.26795296         52.04534581          9.28777155    6.4724   -5.3858   -4.5654
   13         60.20426055         51.99218687          9.24405453    5.5914    6.2371    3.0246
   13         64.11336442         52.01149607          9.26378661   -5.5447   -5.4885   -4.7614
   13         68.01933242         52.06754749          9.28583274    5.2992    5.2661    4.1182
   13         71.94090139         52.11023100          9.31891758   -5.4375   -5.4797   -4.6439
   13         75.84812373         52.16104470          9.34631108    5.3374    5.1663    4.2661
   13          1.35509799         56.10152987          9.41198042    5.3740    4.8015    4.3639
   13          5.28791692         56.13592683          9.42733454   -5.1855   -5.2682   -4.3170
   13          9.20779252         56.18838220          9.43815435    5.3600    4.7695    3.9394
   13         13.15139102         56.22918951          9.45188237   -4.9151   -5.2362   -4.3563
   13         17.07711503         56.27632899          9.46708013    6.4020    5.3638    4.5263
   13         21.01404980         56.34567015          9.49194067    5.7129   -6.2822   -3.2516
   13         24.92566237         56.33183319          9.47755595   -5.7438    5.5994    5.1127
   13         28.82339869         56.28594451          9.44034332    5.5796   -5.4046   -4.4446
   13         32.74042064         56.24920230          9.41091720   -5.1763    5.7377    4.9039
   13         36.64333116         56.20057749          9.39334284    5.7087   -5.2816   -4.6161
   13         40.57211265         56.16539878          9.37004586   -5.3216    5.6338    5.0265
   13         44.47737507         56.09887192          9.35950749    5.4947   -4.9775   -4.4051
   13         48.40059038         56.05431221          9.34918802   -5.4688    5.5442    4.6237
   13         52.30773432         55.98958338          9.34221456    5.0511   -4.7795   -4.3239
   13         56.25439030         55.97043052          9.32451511   -6.7098    5.5851    4.1082
   13         60.18136866         55.91109575          9.29380688   -6.0793   -4.9715   -5.8856
   13         64.08906139         55.93095218          9.30747235    5.2765    5.2455    4.1223
   13         68.00733769         55.98411113          9.33227035   -5.5775   -5.5779   -4.8228
   13         71.91526561         56.02804544          9.35806902    5.2846    5.1495    4.3593
   13         75.83471787         56.05743921          9.38962158   -5.4128   -5.2071   -4.4737
   13          1.36551694         59.99432833          9.45500948   -5.3505   -5.4327   -4.3986
   13          5.28518871         60.03763724          9.46592310    5.2581    4.7518    4.2240
   13          9.21649458         60.07007983          9.47624257   -5.3027   -5.4377   -4.2335
   13         13.13665241         60.13097809          9.48753144    4.9839    4.8284    3.8129
   13         17.09091288         60.16467148          9.50132200   -6.2493   -5.5321   -4.2484
   13         21.02557414         60.25879409          9.52080391   -5.4142    4.7262    5.4020
   13         24.94259609         60.25449447          9.49331659    6.0643   -5.5607   -4.1825
   13         28.86024522         60.21353081          9.46895640   -5.0077    5.7471    5.0276
   13         32.75053384         60.15701034          9.43887358    5.4440   -5.3803   -4.4125
   13         36.66959411         60.12847650          9.42777234   -5.3001    5.8727    4.9833
   13         40.57838440         60.06976713          9.40888458    5.3877   -5.2436   -4.5573
   13         44.49666070         60.04185868          9.40087918   -5.1798    5.6422    4.9190
   13         48.40427503         59.97572270          9.38865217    5.3665   -4.9976   -4.2448
   13         52.31886668         59.92850504          9.38586904   -4.9271    5.6665    4.5649
   13         56.23283116         59.87878579          9.37758220    6.5286   -5.3883   -4.7377
   13         60.15275380         59.82437605          9.33752390    6.0495    6.1965    3.0600
   13         64.06350400         59.85416069          9.36113359   -5.8310   -5.5039   -5.1801
   13         67.97409741         59.90958671          9.37801999    5.3434    5.0887    4.3272
   13         71.90013501         59.93647888          9.40991653   -5.5759   -5.3556   -4.3028
   13         75.83166039         59.96665441          9.43324478    5.4028    5.0140    4.5012
   13          1.36081313         63.88822124          9.48993931    5.2752    4.6931    4.0950
   13          5.29857106         63.91753683          9.49697532   -4.7749   -5.1692   -4.0541
   13          9.20512703         63.96874141          9.50741987    5.1450    4.6383    3.7410
   13         13.13931790         64.00532727          9.51354901   -4.4481   -5.0410   -4.1485
   13         17.05633986         64.07724820          9.52333687    5.9161    4.8833    3.2498
   13         21.02455498         64.15041993          9.55207502    4.7115   -5.4413   -2.8798
   13         24.98328408         64.14690206          9.52490042   -5.9311    5.4941    5.0677
   13         28.89262314         64.13048533          9.49206575    4.7779   -5.5213   -4.2052
   13         32.78479328         64.07967163          9.45904345   -4.7411    5.8568    4.8465
   13         36.68394074         64.02354203          9.46676742    5.0720   -5.3622   -4.4366
   13         40.59947316         63.99696256          9.44021824   -4.8106    5.9516    4.5922
   13         44.50536276         63.95021395          9.44772331    4.7149   -5.2946   -4.1849
   13         48.42991081         63.92371265          9.43243173   -4.8019    5.9463    4.5578
   13         52.31972905         63.85108815          9.44478382    4.4204   -5.1380   -4.0684
   13         56.22844093         63.83091902          9.41226186   -6.3930    5.3584    3.9153
   13         60.11457452         63.75634014          9.41182407   -7.6008   -4.7463   -6.3667
   13         64.03567311         63.78229422          9.39575071    5.7430    4.7675    4.5697
   13         67.94305225         63.80746654          9.43274444   -5.2027   -4.8590   -4.4882
   13         71.88876746         63.84123811          9.46060701    5.2684    4.6063    4.3666
   13         75.84028405         63.84827385          9.47458520   -4.9647   -4.9495   -3.9682
   13          1.38365014         67.76272677          9.50366733   -3.5323   -5.5759   -3.2177
   13          5.26753373         67.81729287          9.53572023    3.6760    5.2075    3.4281
   13          9.19846329         67.84035447          9.51952179   -3.1812   -5.5968   -3.3261
   13         13.09549404         67.91829487          9.54044217    3.2990    4.9447    3.0679
   13         17.04034689         67.93439890          9.53991056   -2.8357   -5.1088   -2.7948
   13         20.98339661         68.01812424          9.54635241   -3.5947    2.9275    3.3635
   13         24.98986941         68.05494463          9.51361155    6.9266   -4.2708   -3.7313
   13         28.92421708         68.02289291          9.46833097   -1.0370    5.7970    4.3626
   13         32.79663121         67.99357732          9.47624257    1.2830   -5.4366   -3.6055
   13         36.69154524         67.97270461          9.45504075   -1.9540    5.7535    4.3582
   13         40.59422057         67.91063372          9.46651725    0.8397   -5.3408   -3.8206
   13         44.51014497         67.88053638          9.45388372   -1.9282    5.7578    4.4333
   13         48.41258510         67.82909728          9.47633638    0.4869   -5.3367   -3.9108
   13         52.33352690         67.81150792          9.46689250   -1.7259    5.7189    4.6885
   13         56.20680339         67.74224494          9.49628735    1.0067   -5.1715   -3.7139
   13         60.13166504         67.67712523          9.47705561    7.9067    4.0887    4.4916
   13         63.96605667         67.65695610          9.46404683   -7.0885   -4.8479   -5.8231
   13         67.89107511         67.70792615          9.48765652    3.2769    4.8866    4.3180
   13         71.90648516         67.70261025          9.49725676   -3.9915   -5.6966   -3.2613
   13         75.82287994         67.74115049          9.52327432    3.6890    5.2614    3.6147
   13          1.39230516         71.69109482          9.56336389   -1.1817   -4.8119    3.1896
   13          5.30604228         71.71196753          9.54025454    1.8412    4.7810   -3.7501
   13          9.20253993         71.78654640          9.55535849   -0.9761   -4.5094    2.9107
   13         13.13422210         71.80952983          9.52777736    2.2777    4.3572   -3.3273
   13         17.05414474         71.88270156          9.52527568   -1.0867   -4.2662    2.8375
   13         20.99586172         71.91373700          9.50504326    4.6964    4.0673   -3.3186
   13         24.99692513         71.92984104          9.47736833   -6.6500   -4.6180    4.1600
   13         28.90383389         71.99910402          9.44337662   -3.7350    5.8875   -2.0714
   13         32.78228458         71.93288986          9.40985399    3.7054   -5.3203    3.2184
   13         36.66191122         71.88379601          9.44512781   -3.8558    5.3640   -3.7208
   13         40.59492614         71.84431767          9.41226186    3.5540   -5.6067    3.9732
   13         44.47745346         71.78553013          9.46367158   -4.2421    5.5934   -4.2342
   13         48.42473662         71.75738716          9.43305715    3.6317   -5.8962    4.2251
   13         52.30687196         71.70774608          9.49334787   -4.6871    5.7435   -4.3234
   13         56.25015687         71.64481527          9.46517259    3.2462   -6.0127    4.9169
   13         60.14530609         71.57766301          9.49162795   -7.1491    5.1542   -5.2764
   13         64.01928816         71.55663395          9.50057149    7.5860   -4.4851    5.3347
   13         67.86661528         71.53325965          9.52124170    1.4836    3.4870   -4.9463
   13         71.93611918         71.61354530          9.56461474   -1.3757   -4.5542    3.1174
   13         75.85862892         71.63199458          9.54669639    1.6766    4.9222   -3.6620
   13          1.40373542         75.58436233          9.54894791    4.5801    5.6846   -4.1939
   13          5.31377221         75.64346257          9.55720348   -4.9665   -5.0822    4.0265
   13          9.22833251         75.67004205          9.52230492    4.5968    5.2926   -3.8675
   13         13.15256698         75.72757879          9.53059176   -4.7951   -4.7564    3.8979
   13         17.08667945         75.74634077          9.48312221    4.4598    4.8003   -3.6667
   13         21.01412819         75.79613820          9.47352198   -4.8235   -4.5992    4.0476
   13         24.98046179         75.84734277          9.43396402    7.0345    4.9674   -4.7173
   13         28.87796292         75.88424134          9.38117837    5.5849   -4.6159    5.0313
   13         32.79247617         75.86415038          9.38324227   -4.6592    5.2275   -3.3493
   13         36.69287799         75.79746717          9.38702607    4.9050   -5.3986    4.2920
   13         40.59273103         75.74407370          9.40844679   -5.2634    5.2284   -4.2108
   13         44.51814145         75.70436084          9.42036108    4.9992   -5.6142    4.4878
   13         48.41752410         75.65268722          9.44262612   -5.2961    5.2226   -4.2994
   13         52.34677597         75.60898743          9.45269542    5.0541   -5.7422    4.7121
   13         56.25007847         75.56012811          9.47539825   -5.5027    5.5288   -4.3088
   13         60.17156905         75.50196596          9.51429951    5.8724   -5.6047    5.2807
   13         64.05331241         75.45615546          9.50895215   -8.1170    4.8312   -5.4113
   13         67.97284306         75.43270298          9.57387099   -5.0333   -5.7202    2.8055
   13         71.93196415         75.48031151          9.56705389    4.5634    5.4767   -4.1872
   13         75.86686059         75.54848004          9.57602870   -5.0451   -5.2075    3.7305
