CRYSTAL
PRIMVEC
    78.2108463768999940    0.0000000000000000    0.0000000000000000
     0.0000000000000000   78.2776662331999944    0.0000000000000000
     0.0000000000000000    0.0000000000000000   31.2622737895999983
PRIMCOORD
  400    1
   13          1.19901920          1.38318985          9.52395792   -5.6967   -5.5769    5.3897
   13          5.11703066          1.36710379          9.49203914    5.1678    5.7658   -4.3574
   13          9.01974407          1.36446583          9.46312154   -5.5174   -5.5750    5.3272
   13         12.93552651          1.35064199          9.42691983    5.3251    5.5549   -4.3995
   13         16.83902986          1.37313117          9.39540745   -5.7448   -5.2354    5.1116
   13         20.77506891          1.36987481          9.36673995    5.0749    5.3838   -4.2254
   13         24.71189008          1.40297844          9.33160115   -6.9161   -5.8344    5.0144
   13         28.61852185          1.45274738          9.29539944   -5.9027    6.6596   -3.5722
   13         32.56738749          1.45818768          9.29446157    5.2476   -5.3878    4.0335
   13         36.47652201          1.45379630          9.33891652   -5.3499    5.2986   -4.7275
   13         40.39363404          1.45238730          9.36305100    4.7330   -5.1711    4.0705
   13         44.29885802          1.43999595          9.41550910   -5.5075    5.4339   -4.8957
   13         48.20642833          1.44541276          9.43001479    4.7617   -5.4953    4.2581
   13         52.09452413          1.43608989          9.47228138   -5.3077    5.5286   -5.0215
   13         56.01054121          1.43165938          9.49103875    4.9963   -5.6128    4.5125
   13         59.91646909          1.41887663          9.53017912   -5.1169    5.8638   -4.9803
   13         63.80917934          1.40335417          9.56666219    7.5012   -6.1075    5.0663
   13         67.67443757          1.37164389          9.60386429    6.6225    5.8199   -6.2996
   13         71.58419779          1.36260282          9.59536096   -5.5314   -5.5792    4.9450
   13         75.50177908          1.37264584          9.56747501    5.4214    5.6942   -4.4907
   13          1.22600194          5.28259962          9.49869801    5.3438    5.6985   -4.4980
   13          5.13544931          5.28176987          9.46177726   -5.5062   -5.4647    5.2957
   13          9.04876029          5.27719063          9.43110897    5.2952    5.5467   -4.5263
   13         12.94952626          5.28872876          9.39146841   -5.4639   -5.4792    5.3575
   13         16.87430295          5.27359769          9.36598965    5.5067    5.7574   -4.4349
   13         20.79032003          5.29863871          9.33938546   -5.2371   -5.4037    4.6387
   13         24.72409097          5.32115137          9.30393404    6.8670    5.9400   -4.5985
   13         28.62165029          5.37469329          9.26116725    5.9094   -5.5420    5.7246
   13         32.53633778          5.38409444          9.28098753   -5.6401    5.7073   -4.6643
   13         36.46838808          5.37151522          9.30293365    5.1046   -5.6304    4.1921
   13         40.37212606          5.35837240          9.34351208   -5.3218    5.6119   -4.7323
   13         44.29017662          5.35993795          9.37246094    5.0925   -5.5896    4.2270
   13         48.18585887          5.35376967          9.41097607   -5.3274    5.5124   -4.8089
   13         52.10062458          5.35620411          9.43623598    5.0091   -5.7079    4.5156
   13         55.99755821          5.33816110          9.47193750   -5.4680    5.6586   -4.9797
   13         59.90989938          5.32252123          9.49713489    4.9864   -5.7676    4.6455
   13         63.81199493          5.30003205          9.52377035   -7.2320    5.9500   -5.7409
   13         67.68781163          5.27039613          9.56250431   -6.4955   -6.8560    4.2540
   13         71.59201887          5.27022392          9.56159770    5.5341    5.9560   -4.6019
   13         75.50662815          5.28669354          9.52886610   -5.6157   -5.4713    5.1415
   13          1.22588463          9.19214635          9.46340290   -5.5303   -5.3614    5.1845
   13          5.15565899          9.18823246          9.43267208    5.3152    5.6345   -4.6472
   13          9.06103940          9.19660817          9.39468842   -5.5778   -5.4828    5.3557
   13         12.97877711          9.18306614          9.35823661    5.2041    5.6354   -4.5330
   13         16.88110729          9.19222462          9.32910017   -5.5340   -5.3387    5.0577
   13         20.79720258          9.20169622          9.30806066    4.9826    5.6556   -4.7547
   13         24.71517493          9.25602092          9.28145647   -7.1577   -5.7851    5.1082
   13         28.61586268          9.30353546          9.23753297   -6.2182    6.7932   -3.7243
   13         32.53798021          9.29351592          9.23994017    5.4786   -5.8506    4.4778
   13         36.44703652          9.27778211          9.27267177   -5.3176    5.4843   -4.7503
   13         40.37243890          9.27613828          9.30412161    5.1340   -5.5069    4.3123
   13         44.27969636          9.26541424          9.34691967   -5.3528    5.5202   -4.8003
   13         48.19149006          9.27300717          9.37449299    5.1209   -5.6216    4.3281
   13         52.09624477          9.26197002          9.41160131   -5.3647    5.5986   -4.8457
   13         56.00678709          9.25508159          9.43170295    5.2368   -5.7888    4.6273
   13         59.90286040          9.23606012          9.45886987   -5.0222    5.6140   -4.8180
   13         63.81793895          9.22275291          9.49138263    7.2370   -6.0584    4.7572
   13         67.69070543          9.17883914          9.52627133    6.6421    5.8198   -6.1663
   13         71.60273376          9.16960238          9.51958120   -5.5766   -5.5764    5.1465
   13         75.52891824          9.18204853          9.49760383    5.4307    5.7497   -4.6360
   13          1.24855795         13.09053068          9.42341845    5.4289    5.7234   -4.5065
   13          5.15823995         13.09726256          9.38840470   -5.4721   -5.4753    5.2099
   13          9.07941895         13.08669507          9.35648592    5.2551    5.7003   -4.5798
   13         12.97924638         13.09405317          9.32197237   -5.4371   -5.4666    5.0358
   13         16.89526346         13.09796706          9.29405516    5.3306    5.8273   -4.6872
   13         20.78773907         13.13084368          9.27142128   -5.1195   -5.3441    4.7977
   13         24.71744305         13.15307453          9.24037784    7.1263    5.8668   -4.6729
   13         28.61719227         13.20019769          9.20001824    6.2996   -5.5151    5.8031
   13         32.53743273         13.20872996          9.20686468   -5.5282    5.6294   -4.5519
   13         36.45282412         13.18829948          9.23665763    5.1611   -5.5721    4.3621
   13         40.36712056         13.17671439          9.27367216   -5.3515    5.5793   -4.8495
   13         44.27742825         13.18109794          9.30665386    5.1857   -5.5887    4.2519
   13         48.18046233         13.17389639          9.34576296   -5.4929    5.5194   -4.8575
   13         52.10320554         13.17507056          9.37314871    5.1858   -5.7032    4.4087
   13         56.00835131         13.16418996          9.40034689   -5.4368    5.6202   -4.7841
   13         59.91365350         13.15299626          9.42129262    4.8186   -5.7849    4.6121
   13         63.81731326         13.12646013          9.44717778   -7.2037    5.9889   -5.4955
   13         67.70181137         13.08035458          9.48978826   -6.3898   -6.6106    4.3729
   13         71.61861056         13.06994365          9.49369604    5.5687    5.9201   -4.8172
   13         75.53118636         13.08826063          9.45355528   -5.4265   -5.5450    5.2312
   13          1.25641032         17.00003044          9.38340274   -5.5388   -5.5679    5.2237
   13          5.17463294         16.99431617          9.35511038    5.2040    5.6661   -4.4153
   13          9.07730725         16.99807350          9.31518846   -5.3457   -5.5136    4.9665
   13         12.99066516         17.00292672          9.28664600    5.2344    5.7773   -4.5646
   13         16.89268250         17.02406169          9.25704063   -5.6089   -5.4347    4.9817
   13         20.80353766         17.03909100          9.23400033    4.9812    5.7237   -4.6218
   13         24.72033685         17.07032379          9.21121014   -7.3173   -5.8654    5.5587
   13         28.61359457         17.10687946          9.16888102   -6.3863    6.8033   -3.9540
   13         32.53446072         17.10875812          9.16913112    5.3739   -5.7522    4.4097
   13         36.44852253         17.09365053          9.20486389   -5.2939    5.5062   -4.6536
   13         40.36563456         17.09051942          9.23118673    5.2173   -5.5792    4.2507
   13         44.26632231         17.08284821          9.27054593   -5.3268    5.5272   -4.7697
   13         48.18319971         17.07877777          9.30509074    5.3032   -5.6061    4.2857
   13         52.09030075         17.07940400          9.34029206   -5.3693    5.3838   -4.8759
   13         56.00819489         17.08253510          9.36436402    5.2559   -5.6560    4.3163
   13         59.90849158         17.06492263          9.39228123   -4.9010    5.4677   -4.5341
   13         63.83491070         17.03423778          9.41819765    7.3078   -6.0780    4.8591
   13         67.71502900         16.98828879          9.45899492    6.3141    5.8081   -6.1278
   13         71.62619701         16.98500113          9.44586476   -5.5712   -5.6131    5.1756
   13         75.55558814         16.99298545          9.42457515    5.2301    5.7087   -4.6973
   13          1.27526696         20.90600771          9.36176925    5.1472    5.7921   -4.5865
   13          5.18038926         20.91101748          9.32331665   -5.6073   -5.7200    5.2317
   13          9.09654712         20.90185899          9.29049126    5.0176    5.6386   -4.3402
   13         12.99895551         20.91414859          9.25238255   -5.5142   -5.4478    5.0394
   13         16.90777719         20.93035206          9.22849817    5.2597    5.7907   -4.5600
   13         20.80494546         20.94843420          9.20023708   -5.2242   -5.4434    5.0816
   13         24.72635908         20.96111519          9.17044413    7.3162    5.9426   -4.8841
   13         28.61163930         21.00495068          9.12695831    6.3744   -5.5766    5.8676
   13         32.52577932         21.01504850          9.13546165   -5.5630    5.6228   -4.5778
   13         36.44601978         20.99743602          9.16366022    5.3055   -5.5687    4.2176
   13         40.35343366         20.99062587          9.19686075   -5.3521    5.4593   -4.8186
   13         44.26694800         20.99712291          9.22956109    5.1994   -5.5659    4.1733
   13         48.17029492         20.99352214          9.26967059   -5.3173    5.5694   -4.7956
   13         52.07911660         20.99101725          9.30299617    5.3775   -5.6043    4.1053
   13         55.99826211         20.98843409          9.33500874   -5.4186    5.4581   -4.7424
   13         59.91639088         20.97598794          9.35761136    4.9797   -5.8402    4.5805
   13         63.83272080         20.94726004          9.38177710   -7.0966    5.9599   -5.4374
   13         67.72026913         20.90138933          9.41894795   -6.2619   -6.8697    4.1498
   13         71.64269950         20.88620346          9.42373107    5.4214    6.2057   -4.5977
   13         75.55832552         20.90545977          9.39365677   -5.5818   -5.7648    5.2056
   13          1.28918067         24.81668164          9.31990906   -5.1627   -5.3302    5.1169
   13          5.20913957         24.81120220          9.29558701    5.0452    5.3578   -4.3904
   13          9.10960833         24.82161313          9.25006914   -5.3345   -5.3363    5.1780
   13         13.02327908         24.82208280          9.23509451    4.8661    5.5355   -4.3234
   13         16.91747534         24.83914733          9.19348443   -5.3472   -5.4967    5.2127
   13         20.82786123         24.84955826          9.16956879    4.7742    5.6700   -4.8343
   13         24.73159921         24.87429400          9.14796656   -7.6213   -5.8103    5.8043
   13         28.60436569         24.91147589          9.10166713   -6.6988    6.7261   -4.1184
   13         32.52319836         24.91844260          9.09644633    5.4473   -5.7300    4.2853
   13         36.42920445         24.90333501          9.12711462   -5.4595    5.4333   -4.8356
   13         40.33990319         24.89949941          9.15953360    5.2599   -5.5357    4.2144
   13         44.25068014         24.89973424          9.19792367   -5.4009    5.5622   -4.9841
   13         48.15606054         24.90717062          9.23709530    5.1605   -5.4969    4.0764
   13         52.05987673         24.90513540          9.27279682   -5.4502    5.3907   -4.8888
   13         55.98567016         24.90310018          9.30093286    5.4833   -5.6058    4.1892
   13         59.90418999         24.89292408          9.33313300   -4.9378    5.2760   -4.6746
   13         63.83444144         24.87351122          9.35598573    6.8729   -5.8261    4.5197
   13         67.72754274         24.81253292          9.40069078    5.7543    5.5646   -5.4112
   13         71.64966026         24.79468561          9.37558717   -5.3910   -5.2658    4.8239
   13         75.58804564         24.80572276          9.37008501    5.1086    5.2550   -4.1805
   13          1.33970487         28.73244361          9.30249598    4.4333    6.8788   -4.5772
   13          5.23085872         28.74614220          9.25876005   -4.7650   -7.0358    5.1211
   13          9.16811004         28.73549644          9.23587607    4.6563    6.8222   -4.5740
   13         13.04603844         28.74669015          9.19554774   -4.3002   -6.7155    4.7599
   13         16.96737386         28.74003655          9.17891621    4.6643    6.5331   -4.5844
   13         20.84350340         28.75013436          9.13045968   -3.8478   -6.5475    4.6916
   13         24.75600099         28.76813823          9.11745458    7.5613    6.0279   -4.8647
   13         28.59842166         28.79569197          9.07371866    6.8401   -5.9476    5.6319
   13         32.51224884         28.82152360          9.06680969   -5.6489    5.8899   -4.6925
   13         36.41074669         28.81103439          9.09960382    5.2471   -5.7625    3.9480
   13         40.31706562         28.81549622          9.13721233   -5.6262    5.7004   -5.2274
   13         44.22322813         28.81964493          9.17028782    5.1901   -5.5796    3.9787
   13         48.12892138         28.81299133          9.20733361   -5.4514    5.7195   -5.2687
   13         52.03344146         28.82418504          9.24209726    5.4390   -5.7864    3.9075
   13         55.95954774         28.81400894          9.26785738   -5.5355    5.5957   -5.0867
   13         59.87079396         28.82011460          9.29811926    5.2212   -5.8485    3.8794
   13         63.82458687         28.79232603          9.32822483   -6.6808    6.2977   -5.0484
   13         67.70384485         28.76375468          9.35839292   -4.3356   -6.9838    2.4123
   13         71.71692159         28.73807960          9.34663831    4.8358    6.7856   -3.8508
   13         75.61487196         28.73346122          9.31603254   -4.7925   -7.0378    4.7752
   13          1.37944380         32.62159118          9.24231610   -3.5980   -0.6020    1.2784
   13          5.30532327         32.63513322          9.21074120    2.3786    0.6068   -4.2688
   13          9.18734991         32.61391997          9.15065511   -3.2836   -1.8958    0.6615
   13         13.10931102         32.64687487          9.14981103    3.0374    1.5534   -3.2785
   13         17.00874739         32.63489838          9.09256981   -3.2150   -4.7426    0.8399
   13         20.88229598         32.66511356          9.08187811    2.2294    3.5283   -3.4576
   13         24.79635779         32.65759891          9.09350768   -5.4307   -5.1835    4.1576
   13         28.59568428         32.69485908          9.08416026   -7.0949    5.8265   -5.4787
   13         32.51044999         32.71090600          9.07062369    6.1919   -6.0645    2.6237
   13         36.40871321         32.72507426          9.10101062   -5.1522    6.1662   -6.0931
   13         40.30408262         32.71842065          9.13114745    6.0944   -6.0278    2.8321
   13         44.21884832         32.72014276          9.16150312   -4.9281    6.0583   -6.1019
   13         48.11812828         32.73008403          9.19135859    6.1203   -5.9473    2.7911
   13         52.03406715         32.73885113          9.23362519   -5.0300    5.6737   -5.8721
   13         55.94773790         32.74190395          9.25382062    6.2400   -5.5754    2.3950
   13         59.88416801         32.75763777          9.27826771   -4.9467    5.3167   -5.5072
   13         63.80041972         32.76765731          9.31553234    6.8630   -5.4478    1.1763
   13         67.79519512         32.64609209          9.30740415    1.6402    3.1605   -6.4101
   13         71.76017219         32.61752074          9.29530565   -3.3267   -0.4916    0.6852
   13         75.68831195         32.64303926          9.27983083    2.5981   -0.0847   -4.4704
   13          1.34928570         36.64013173          9.24703670    3.7390   -5.4910   -2.7480
   13          5.24973100         36.60388917          9.21499287   -4.8191    5.4542    2.4361
   13          9.15137292         36.62189304          9.17888495    3.9478   -5.8944   -2.7319
   13         13.06739000         36.57453505          9.16469187   -5.3726    5.7477    1.8307
   13         16.95877066         36.60255845          9.11867381    4.2056   -6.3716   -2.7709
   13         20.86798340         36.55715741          9.08744279   -4.6042    4.9778    1.8605
   13         24.79088303         36.56882078          9.06921689    4.8489   -6.4899   -2.5981
   13         28.64315827         36.55942746          9.13264804    7.0323    6.3132    5.2723
   13         32.54760014         36.59919251          9.12858395   -5.4325   -6.8734   -4.5495
   13         36.46635460         36.62760731          9.13927564    5.7433    6.6756    4.9436
   13         40.35585820         36.63770513          9.18491856   -5.4606   -6.5852   -3.9299
   13         44.28329406         36.63887929          9.20708352    5.3275    6.5195    4.7339
   13         48.17334514         36.65844871          9.24594252   -5.6319   -6.4802   -3.8003
   13         52.10164132         36.64631567          9.28348851    5.2391    6.3366    4.5911
   13         55.99028460         36.65328238          9.32206616   -5.7854   -6.3909   -3.6663
   13         59.94767522         36.67386941          9.32916270    5.3143    6.1912    3.9905
   13         63.84202789         36.69586543          9.35404747   -6.3455   -6.0488   -5.5942
   13         67.75014567         36.69711787          9.32766211   -4.1444    5.5851    3.4461
   13         71.68446409         36.66384987          9.29164797    3.7371   -5.3899   -2.9448
   13         75.63317330         36.65750937          9.27185895   -4.7310    5.2687    2.5126
   13          1.31616341         40.51918148          9.25938530   -4.9094    4.6586    3.0546
   13          5.22374153         40.52513059          9.22008862    5.5923   -5.0116   -4.0307
   13          9.12415555         40.49522852          9.18607527   -4.9407    4.7916    3.2364
   13         13.03031806         40.49648096          9.15184308    5.6832   -5.1660   -3.9347
   13         16.93648057         40.48333031          9.11729827   -4.9445    4.8509    3.1746
   13         20.84498941         40.46078634          9.06630950    5.1439   -5.1721   -3.5160
   13         24.78728533         40.45765524          9.06899805   -5.8465    4.9498    4.6899
   13         28.65543737         40.49953379          9.12827132   -6.6148   -5.0563   -4.0793
   13         32.56684001         40.51111888          9.15662621    5.0695    4.7764    4.4276
   13         36.47026514         40.54438689          9.17941640   -5.3721   -5.0705   -4.2037
   13         40.39770100         40.55730271          9.21627462    5.1828    4.9685    4.5729
   13         44.28783029         40.57507174          9.25538373   -5.0232   -4.9614   -3.8982
   13         48.21276341         40.56693086          9.28658348    5.2613    4.9290    4.5058
   13         52.11579748         40.60262548          9.32022168   -4.9891   -4.9265   -3.7140
   13         56.04018312         40.58579578          9.36342615    5.1924    4.9405    4.4407
   13         59.92648008         40.62266456          9.39131210   -5.3483   -5.4228   -4.1853
   13         63.82732425         40.64880930          9.38233982    5.6729    5.9830    2.8634
   13         67.75038031         40.60027715          9.32875629    5.8142   -5.3905   -4.4395
   13         71.67062077         40.56567842          9.32234752   -5.2353    5.0153    3.6441
   13         75.59664884         40.53742018          9.29302351    5.3652   -4.8890   -3.6830
   13          1.28057747         44.44339745          9.28658348    4.9632   -5.0902   -4.2033
   13          5.18815560         44.43009024          9.26054200   -5.2083    5.1756    3.5205
   13          9.10945191         44.43564796          9.21339850    5.1264   -5.1153   -4.1961
   13         13.00935755         44.40261478          9.16944374   -5.2573    4.8851    3.7609
   13         16.91544185         44.39971851          9.13164765    5.0550   -4.8706   -3.9723
   13         20.83826328         44.37365205          9.10679414   -5.2911    5.1680    3.9041
   13         24.77430233         44.36167556          9.09353894    5.9209   -6.2275   -3.0029
   13         28.66583941         44.39243869          9.15396891    7.0191    5.5611    4.9264
   13         32.57489573         44.43024680          9.17707173   -4.8406   -5.2471   -4.0888
   13         36.49255523         44.43682212          9.21568064    5.3879    5.0789    4.5903
   13         40.39371225         44.46461069          9.25100701   -5.3067   -5.3194   -4.2472
   13         44.30988575         44.47909206          9.29124156    5.2761    5.2619    4.5016
   13         48.20486411         44.50461058          9.32050305   -5.1475   -5.3698   -4.0904
   13         52.12807659         44.50414092          9.35879933    5.4056    5.4624    4.5430
   13         56.02375884         44.53255571          9.39897135   -5.0770   -5.4954   -4.2271
   13         59.94196583         44.55329929          9.43401636    5.2135    5.4234    4.1461
   13         63.85680974         44.57349493          9.43551695   -6.1200   -5.4349   -5.4511
   13         67.72996728         44.50265364          9.38580994   -6.5247    5.5583    4.4994
   13         71.66295611         44.47705684          9.35076493    5.0844   -5.0421   -4.1347
   13         75.58092846         44.45099038          9.32384811   -5.3189    5.2320    3.8753
   13          1.26246384         48.36080325          9.32597394   -5.1479    5.1782    3.7957
   13          5.18266520         48.35743731          9.29836936    5.2634   -4.8900   -4.1287
   13          9.07996642         48.32878769          9.25519616   -5.1554    4.8601    3.7977
   13         12.99887730         48.32667419          9.20777129    4.9658   -4.9697   -4.2629
   13         16.90668224         48.31281904          9.17285133   -5.2345    5.0624    3.7636
   13         20.83005114         48.26647867          9.13921312    5.3176   -5.1134   -3.7981
   13         24.76460419         48.25231041          9.13030337   -5.7520    4.8439    5.2285
   13         28.67139238         48.31962920          9.17460201   -6.7264   -5.4231   -4.4053
   13         32.59546518         48.33598923          9.21946338    5.0698    5.0698    4.3322
   13         36.49271165         48.36518680          9.24953768   -5.2304   -5.1317   -4.2098
   13         40.39918701         48.37919850          9.28777144    5.3115    5.0846    4.4745
   13         44.30190824         48.39594993          9.32797473   -5.3399   -5.1716   -4.2397
   13         48.21284162         48.40573463          9.36749024    5.2064    5.1212    4.4009
   13         52.11204336         48.42710444          9.40972557   -5.3448   -5.0966   -4.1958
   13         56.03017213         48.43829814          9.43745521    5.0835    5.1021    4.2535
   13         59.94548531         48.47908081          9.46127706   -5.1865   -5.5959   -4.1067
   13         63.86377051         48.48808274          9.46965535    5.9193    6.3241    3.1090
   13         67.75069315         48.43986370          9.41851027    6.3751   -5.7090   -4.5982
   13         71.65443113         48.37708501          9.39221870   -4.9263    5.2049    4.2201
   13         75.57443696         48.36518680          9.36033118    5.2424   -5.1144   -4.3539
   13          1.26180687         52.28572372          9.36589587    5.1026   -5.0663   -4.3014
   13          5.16217396         52.25629131          9.33519631   -5.2891    5.2191    3.9192
   13          9.07973179         52.25339504          9.29468041    5.0498   -5.2061   -4.3368
   13         12.98659820         52.23648706          9.25672801   -5.1937    5.1690    3.9614
   13         16.89135291         52.22004875          9.21596200    5.0858   -5.1373   -4.1385
   13         20.82879976         52.18826802          9.18498109   -5.1747    5.1243    3.8938
   13         24.74552074         52.16713305          9.16581731    5.5416   -6.0614   -3.0683
   13         28.67303481         52.21355171          9.22746652    6.4480    5.2360    4.3712
   13         32.59687297         52.25997036          9.24691165   -5.0611   -5.2178   -4.0891
   13         36.49052175         52.27257307          9.28530173    5.4337    5.2466    4.4276
   13         40.39144414         52.29832642          9.32150344   -5.2659   -5.2815   -4.3421
   13         44.30519310         52.31265123          9.36677121    5.2234    5.2130    4.3989
   13         48.20478590         52.32681949          9.40681818   -5.3007   -5.1676   -4.1343
   13         52.12690342         52.32838504          9.45074168    5.2226    5.2127    4.5057
   13         56.03189277         52.34889379          9.48234784   -5.3468   -5.4271   -4.1025
   13         59.93860276         52.37707375          9.50851436    5.1831    5.2450    4.0762
   13         63.85587121         52.38638879          9.50970233   -6.3264   -5.2496   -5.4081
   13         67.74998925         52.33887425          9.46274639   -6.7748    5.3514    4.2019
   13         71.65982767         52.30458863          9.42641963    4.7502   -5.0883   -4.2550
   13         75.55957690         52.28400161          9.40694323   -5.2649    5.3296    3.9071
   13          1.24959033         56.18935265          9.41519647   -5.1401    5.0567    3.8699
   13          5.16565434         56.18864815          9.37743165    5.2470   -5.0451   -4.2870
   13          9.06698342         56.16853079          9.34541908   -5.1657    5.1256    4.0185
   13         12.98221839         56.15303182          9.29924470    5.1759   -5.3539   -4.2946
   13         16.87790065         56.12195558          9.24988157   -5.1515    5.0706    4.1628
   13         20.81198443         56.09174040          9.22002610    5.0161   -5.1734   -4.0681
   13         24.73996777         56.07890287          9.20711478   -5.9883    4.9456    5.2526
   13         28.66020823         56.13361895          9.25056934   -6.4519   -5.2933   -4.0977
   13         32.57833700         56.17784584          9.29883829    4.8618    5.1207    3.7924
   13         36.48395204         56.20915690          9.33116348   -5.4270   -5.3889   -4.1561
   13         40.39465078         56.21643673          9.36464538    5.2737    5.2655    4.3966
   13         44.29666812         56.23600614          9.40500497   -5.2439   -5.1361   -4.0984
   13         48.22621567         56.22786526          9.44498942    5.3645    5.0525    4.5625
   13         52.12322751         56.24586913          9.48731854   -5.3584   -5.1624   -4.1205
   13         56.03619437         56.25815872          9.52792823    5.0529    5.2279    4.3570
   13         59.93789886         56.28759112          9.55575166   -5.6433   -5.5121   -4.2390
   13         63.85329025         56.29220951          9.56428626    5.8988    6.2541    3.3758
   13         67.73567667         56.25447967          9.51445419    6.5642   -5.4238   -4.8873
   13         71.64574972         56.22950910          9.47537635   -4.9562    5.1606    3.9190
   13         75.56450418         56.21635845          9.44739661    5.2458   -4.7590   -4.2511
   13          1.25275787         60.11262928          9.44855332    5.2684   -5.2213   -4.3761
   13          5.15076299         60.10214008          9.41241413   -5.1974    5.3680    3.8741
   13          9.07261460         60.09125948          9.37680640    5.3070   -5.2334   -4.3480
   13         12.97181635         60.06112258          9.33113222   -5.1009    5.0006    4.1419
   13         16.89346461         60.04327527          9.28608328    5.0008   -5.1801   -4.2282
   13         20.78938150         60.01486048          9.25375809   -5.2016    5.1677    3.9356
   13         24.74505147         59.98550635          9.25335168    5.5865   -6.0233   -2.5340
   13         28.62845463         60.05227720          9.30756046    5.8733    5.4805    3.7578
   13         32.57215835         60.11333378          9.33516505   -5.0078   -5.3446   -4.0212
   13         36.49130386         60.13846091          9.37311745    5.3000    5.1705    4.0669
   13         40.39824848         60.15576028          9.40675566   -5.2775   -5.2509   -3.8695
   13         44.31004217         60.13125937          9.44273854    5.5159    5.1996    4.6838
   13         48.21988059         60.14918495          9.48125366   -5.2675   -5.2242   -4.0844
   13         52.13143965         60.16687571          9.51845576    5.4361    5.1914    4.2339
   13         56.04425009         60.18300091          9.56162896   -5.1923   -5.1479   -3.9245
   13         59.94415573         60.19732572          9.59842466    5.3009    5.3292    4.3589
   13         63.85297741         60.20460554          9.59698659   -6.4029   -5.4548   -5.5957
   13         67.72378862         60.15975244          9.55525146   -6.8955    5.7055    4.1651
   13         71.63010755         60.14981118          9.51010874    5.1135   -5.2897   -4.2884
   13         75.53533153         60.13329459          9.48334823   -5.2891    5.4458    3.9341
   13          1.22353830         64.01915450          9.47865889   -5.2140    4.9547    3.7180
   13          5.14520220         64.02878265          9.44326999    5.2908   -4.7409   -4.4148
   13          9.04977703         63.99817608          9.40303545   -5.1833    4.6854    3.9242
   13         12.98753673         63.99230526          9.37377396    5.0757   -4.7705   -4.4297
   13         16.87766602         63.95903725          9.33654059   -5.1586    4.7846    3.8668
   13         20.78062188         63.92075947          9.29974490    4.8367   -4.9736   -3.4910
   13         24.70164445         63.91888081          9.29083515   -5.5954    5.2149    4.1341
   13         28.63651035         63.97633661          9.32809978   -5.5569   -5.1338   -3.3733
   13         32.55808039         64.02361632          9.38493459    4.8925    5.0229    3.2683
   13         36.49372840         64.04021119          9.39543872   -5.2633   -5.0528   -3.4293
   13         40.43844885         64.04858690          9.45171081    5.4424    4.9928    4.2495
   13         44.33702491         64.05868472          9.46387183   -5.3871   -5.1499   -3.4619
   13         48.22175765         64.06854770          9.50682620    5.6561    5.4872    4.1998
   13         52.13980821         64.06095477          9.54459102   -5.4122   -5.1370   -3.5631
   13         56.06020510         64.07402714          9.59414173    5.4337    5.2575    4.1912
   13         59.96582013         64.09406622          9.62821761   -5.4806   -5.1502   -3.8551
   13         63.84249716         64.12803873          9.64125397    5.6940    6.0890    2.9316
   13         67.71714070         64.10056327          9.57713505    6.7813   -5.1573   -5.3280
   13         71.61712455         64.05985888          9.54099586   -5.1123    4.8210    4.2526
   13         75.52938751         64.02980026          9.51417283    5.3310   -4.8469   -4.3578
   13          1.22328803         67.94986751          9.52411423    5.6292   -6.4890   -4.6262
   13          5.11997921         67.92419243          9.48153502   -5.6021    6.4880    4.1869
   13          9.04500617         67.91761711          9.44936614    5.5108   -6.4921   -4.7062
   13         12.94639782         67.90055258          9.41122616   -5.4616    6.4184    3.7789
   13         16.87344263         67.91174628          9.38302759    5.5692   -6.2680   -4.5466
   13         20.78726980         67.88387943          9.35592320   -5.4894    6.0442    3.4102
   13         24.71267218         67.83918289          9.35239056    5.8943   -6.8722   -1.1715
   13         28.61226498         67.86611040          9.38802956    3.8836    5.8149    2.2745
   13         32.60344269         67.92372277          9.38806082   -4.5169   -5.0903   -1.9241
   13         36.53948174         67.90877173          9.41738483    4.3898    5.2285    2.9769
   13         40.44329793         67.93389886          9.44761545   -4.4394   -5.0232   -2.7051
   13         44.36588472         67.95393794          9.48122239    4.5483    5.5060    2.9029
   13         48.25257273         67.95581661          9.51051515   -4.5174   -5.1154   -2.4816
   13         52.18329344         67.96121777          9.56012837    4.4809    5.9098    3.2937
   13         56.05637277         67.98798873          9.58329372   -4.7896   -5.6800   -2.6050
   13         59.92741861         68.01327242          9.64253573    3.7709    6.9800    3.9166
   13         63.84499990         68.04474004          9.65222703   -5.9102   -6.3272   -4.8979
   13         67.69187859         68.00395737          9.61918281   -7.4304    6.3435    5.3226
   13         71.61360506         67.97890852          9.58229333    5.2976   -6.6809   -4.8899
   13         75.50217013         67.95777355          9.54374694   -5.6995    6.6390    4.2087
   13          1.17317834         71.83486636          9.56150391   -5.3165   -6.3480    6.2653
   13          5.07656436         71.83924991          9.52530220    6.1630    5.9245   -3.1221
   13          8.99565513         71.82883898          9.49225798   -5.1279   -6.2476    6.4651
   13         12.88820895         71.81631455          9.46055803    6.1963    6.1128   -2.8167
   13         16.81720903         71.81106995          9.43554821   -5.3957   -5.7477    5.9143
   13         20.73080157         71.80629501          9.41363336    5.9968    5.3448   -2.1952
   13         24.66339935         71.81827149          9.39662668   -6.1406   -5.7008    6.0193
   13         28.67585040         71.90085443          9.37368017   -1.9338    3.9817    1.8335
   13         32.64927424         71.90461176          9.38024525    3.0817   -0.6788    3.9176
   13         36.55465464         71.89748849          9.40916285   -4.2244    1.4947   -1.2131
   13         40.47082814         71.90719492          9.41422734    2.8438   -1.2185    4.4425
   13         44.37683423         71.89678399          9.47331304   -4.5947    2.2637   -1.7651
   13         48.26719815         71.89279183          9.47656432    2.2609   -2.5568    4.6258
   13         52.20996334         71.91173503          9.56409868   -4.2998    4.0227   -2.0810
   13         56.04065239         71.90891703          9.52248860    2.4701   -4.7231    4.4537
   13         59.92554155         71.90719492          9.56913191   -3.0727    6.3660   -3.9701
   13         63.84515633         71.88480751          9.61862009    5.7592   -6.3817    5.8328
   13         67.65660550         71.88081535          9.64447399    7.8639    5.9411   -5.1558
   13         71.57934871         71.84887806          9.62577915   -5.3528   -6.3369    6.4675
   13         75.46947800         71.84496418          9.59955010    6.4037    6.2841   -2.8139
   13          1.17657269         75.73364208          9.55434485    5.3635    5.8565   -4.1853
   13          5.08400222         75.73137203          9.51698644   -5.7439   -5.8142    5.7064
   13          8.99753219         75.72393565          9.48409852    5.2819    5.7419   -4.2481
   13         12.90807451         75.72659709          9.45267994   -5.8306   -5.7033    5.4442
   13         16.80649415         75.70867151          9.41819765    5.5099    5.7842   -3.9700
   13         20.74534879         75.73121547          9.39653290   -5.4242   -5.5672    4.8764
   13         24.67513098         75.75923888          9.34795132    6.9350    5.8005   -3.8831
   13         28.62548262         75.80761448          9.30002626    5.1873   -5.6713    5.1963
   13         32.58388997         75.81395497          9.33316427   -4.9955    6.8128   -4.1442
   13         36.52360494         75.79869082          9.34845152    5.2089   -6.5657    4.2475
   13         40.40708630         75.79595110          9.39797096   -5.1117    6.7097   -4.8644
   13         44.34398568         75.80463992          9.42554429    4.9830   -6.6328    4.4074
   13         48.21902027         75.79133272          9.46656039   -4.9245    6.7331   -4.9610
   13         52.14012106         75.80330920          9.49403993    5.2005   -6.4938    4.2522
   13         56.01773661         75.80964969          9.52961639   -4.6141    6.3657   -4.9571
   13         59.93367548         75.79289827          9.55718972    4.5932   -6.0324    5.1760
   13         63.81113461         75.77458130          9.58792054   -7.6250    5.9327   -6.5213
   13         67.66387911         75.74890623          9.63156267   -6.9201   -6.8384    4.6751
   13         71.57082373         75.73497280          9.62918674    5.4475    6.0035   -4.3795
   13         75.48402522         75.73841702          9.59517338   -5.8486   -5.8876    5.3689
