CRYSTAL
PRIMVEC
    78.2429003373000000    0.0000000000000000    0.0000000000000000
     0.0000000000000000   78.1957894562000035    0.0000000000000000
     0.0000000000000000    0.0000000000000000   31.2529964486999994
PRIMCOORD
  400    1
   83          1.97756583          1.93307811          9.67655276    0.2142    0.2138   -0.1656
   83          5.91713499          1.96031370          9.65430063    0.2193    0.1901   -0.1498
   83          9.85179831          2.00930337          9.59570126    0.2116   -0.0148   -0.0338
   83         13.77114167          1.99100555          9.61367173    0.1940   -0.2349    0.1506
   83         17.71035873          1.98456222          9.63989300    0.1936   -0.2194    0.1670
   83         21.64769797          1.97094051          9.66145756    0.2055   -0.2173    0.1608
   83         25.55264464          1.95100059          9.70724320    0.1897   -0.2167    0.1750
   83         29.47003193          1.95354977          9.72874526    0.1894   -0.2061    0.1672
   83         33.38460247          1.92819087          9.76690517    0.1940   -0.2205    0.1754
   83         37.29690398          1.92293612          9.78740714    0.1969   -0.2065    0.1682
   83         41.19183555          1.92008979          9.83166138    0.1804   -0.1998    0.1800
   83         45.09646925          1.90210476          9.84688159    0.1808   -0.2015    0.1682
   83         48.98553261          1.88304845          9.87029009    0.1735   -0.1975    0.1649
   83         52.89141820          1.85818218          9.91151279    0.1912   -0.1598    0.1727
   83         56.74073417          1.81666804          9.93357740    0.1689    0.0227    0.0149
   83         60.66359846          1.81480698          9.91651327    0.2105    0.1857   -0.1513
   83         64.55367898          1.84201129          9.86869618    0.1987    0.1907   -0.1633
   83         68.46762358          1.87203848          9.82041030    0.2054    0.2033   -0.1713
   83         72.38798411          1.88416664          9.77081180    0.2145    0.1982   -0.1755
   83         76.30404127          1.90972103          9.72812020    0.2139    0.2072   -0.1687
   83          1.99625024          5.84411090          9.68289712    0.2091    0.1986   -0.1742
   83          5.94291602          5.88242683          9.63039208    0.2290    0.1882   -0.1744
   83          9.84115728          5.93600659          9.58088734    0.2015   -0.0066   -0.0203
   83         13.76652534          5.92239270          9.58970068    0.2090   -0.2185    0.1650
   83         17.69424070          5.91383808          9.62067240    0.2117   -0.2001    0.1859
   83         21.60372546          5.90035713          9.64905012    0.1975   -0.1967    0.1875
   83         25.53574417          5.88266924          9.68014686    0.2083   -0.1988    0.1852
   83         29.43419668          5.87114318          9.71786922    0.1903   -0.2017    0.1862
   83         33.35659151          5.86098555          9.75359140    0.2026   -0.2015    0.1917
   83         37.26357250          5.84176502          9.78440685    0.1978   -0.2008    0.1968
   83         41.16969281          5.83030934          9.80625270    0.1941   -0.1945    0.1851
   83         45.08019473          5.81474056          9.82800478    0.1986   -0.1935    0.1781
   83         48.98412424          5.79464424          9.85688255    0.2002   -0.1913    0.1778
   83         52.87709975          5.74039200          9.87266531    0.1902   -0.1906    0.1524
   83         56.75481789          5.70126283          9.91026267    0.1807    0.0000    0.0020
   83         60.66344198          5.72285269          9.90126180    0.2018    0.1972   -0.1623
   83         64.56283340          5.76048050          9.84913181    0.1881    0.2076   -0.1896
   83         68.49782534          5.76451540          9.80822163    0.2101    0.1917   -0.1873
   83         72.41302183          5.79787373          9.75787306    0.2156    0.2036   -0.1888
   83         76.32970494          5.81400552          9.71239995    0.2167    0.1942   -0.1918
   83          2.02154617          9.75210969          9.66480163    0.2212    0.1884   -0.1877
   83          5.95344752          9.81904528          9.63173596    0.2274    0.2046   -0.1659
   83          9.85258074          9.86041085          9.57160520    0.2136   -0.0015   -0.0159
   83         13.74954663          9.84664840          9.58885685    0.2060   -0.2132    0.1816
   83         17.66982891          9.82921073          9.60538969    0.2022   -0.2029    0.1864
   83         21.60607274          9.81732497          9.63851786    0.2180   -0.1924    0.1967
   83         25.50186499          9.78940908          9.67320869    0.1948   -0.2028    0.2028
   83         29.41972174          9.78917449          9.69858612    0.1942   -0.1946    0.1923
   83         33.33155379          9.77158044          9.73762112    0.1933   -0.1995    0.1980
   83         37.24643730          9.76110220          9.76018578    0.1962   -0.1918    0.1931
   83         41.15764341          9.74084949          9.78615702    0.1986   -0.1917    0.1875
   83         45.06775411          9.72833817          9.81706623    0.2010   -0.1838    0.1891
   83         48.98122925          9.70409747          9.82584832    0.2038   -0.1853    0.1727
   83         52.89712993          9.67008230          9.87322787    0.2140   -0.1714    0.1792
   83         56.76811918          9.62128813          9.90588725    0.1943    0.0105    0.0180
   83         60.67009262          9.61135727          9.87422796    0.1982    0.1873   -0.1714
   83         64.59702555          9.64693635          9.82925490    0.2082    0.1951   -0.1918
   83         68.49939020          9.68095152          9.79475159    0.1975    0.2012   -0.1848
   83         72.42647961          9.70996216          9.75243504    0.2105    0.2043   -0.1800
   83         76.33737274          9.73240435          9.70502424    0.2057    0.1991   -0.1899
   83          2.00499779         13.67972780          9.66133255    0.1960    0.1990   -0.1751
   83          5.94772014         13.72124976          9.59960788    0.2202    0.1869   -0.1799
   83          9.84733846         13.79921097          9.56885493    0.2078    0.0161    0.0018
   83         13.75384999         13.79053123          9.56247932    0.2100   -0.1896    0.1763
   83         17.66787284         13.76112962          9.58679415    0.2027   -0.1910    0.1827
   83         21.58752917         13.73180619          9.62479780    0.2044   -0.1971    0.1933
   83         25.49325827         13.71530688          9.65195665    0.1970   -0.1921    0.1902
   83         29.40610748         13.69450680          9.68167825    0.1947   -0.1990    0.1887
   83         33.32271234         13.68715640          9.71902558    0.1963   -0.1934    0.1957
   83         37.22468578         13.66401045          9.74587191    0.1861   -0.1980    0.1943
   83         41.14942790         13.63679831          9.76862409    0.2009   -0.2033    0.1895
   83         45.05171431         13.61685838          9.79493911    0.1912   -0.2015    0.1888
   83         48.97614347         13.60161021          9.82153541    0.2022   -0.1911    0.1916
   83         52.88774078         13.56219953          9.83894333    0.2062   -0.1891    0.1658
   83         56.77164011         13.51152866          9.87775955    0.1942   -0.0067    0.0093
   83         60.68229851         13.52841895          9.85113200    0.2003    0.2026   -0.1741
   83         64.58755816         13.56243411          9.81356590    0.1914    0.2019   -0.1874
   83         68.51339568         13.59324326          9.76446744    0.2053    0.2011   -0.1992
   83         72.42413233         13.60856963          9.72536994    0.1970    0.1919   -0.1944
   83         76.35169119         13.64985701          9.69161670    0.2073    0.2041   -0.1897
   83          2.02581041         17.59608572          9.63242353    0.2171    0.1987   -0.1861
   83          5.94464519         17.64464530          9.59448239    0.2233    0.1912   -0.1646
   83          9.85195480         17.70759291          9.52606958    0.2187    0.0066   -0.0242
   83         13.74923366         17.69234473          9.55269714    0.2074   -0.2013    0.1832
   83         17.65433682         17.66184838          9.57076137    0.1923   -0.1995    0.1922
   83         21.57383667         17.64519267          9.60088926    0.1931   -0.1946    0.1955
   83         25.49278882         17.62658208          9.64083059    0.1996   -0.1925    0.2002
   83         29.40587275         17.60750230          9.66977086    0.2009   -0.1930    0.1980
   83         33.30792443         17.57333074          9.71077479    0.1876   -0.2125    0.2101
   83         37.24659379         17.56676230          9.73237061    0.2117   -0.2003    0.1999
   83         41.14191658         17.55018479          9.75202875    0.1969   -0.1962    0.1914
   83         45.05969509         17.54025392          9.78221914    0.2028   -0.1893    0.1929
   83         48.95799111         17.49935753          9.79197008    0.1912   -0.2009    0.1773
   83         52.89540859         17.47026869          9.82044156    0.2192   -0.1847    0.1718
   83         56.76553717         17.42061437          9.84716287    0.1886   -0.0039    0.0040
   83         60.67603908         17.42921590          9.82547329    0.1969    0.1955   -0.1823
   83         64.60054648         17.46721906          9.79268890    0.2052    0.1967   -0.1911
   83         68.50369356         17.50107783          9.74809087    0.1919    0.1993   -0.1999
   83         72.42898338         17.51640421          9.70658689    0.1994    0.1904   -0.2015
   83         76.34222380         17.56277431          9.67430254    0.1973    0.2049   -0.1924
   83          2.01092861         21.51815193          9.62948575    0.2069    0.2059   -0.1732
   83          5.94808005         21.55482576          9.57244903    0.2304    0.1851   -0.1739
   83          9.83583676         21.62097939          9.52669464    0.2104    0.0030   -0.0095
   83         13.74626043         21.61034477          9.52981994    0.2142   -0.1994    0.1734
   83         17.66349124         21.57977021          9.54275868    0.2077   -0.1924    0.1811
   83         21.56155253         21.54950844          9.57560558    0.1846   -0.1965    0.1869
   83         25.49654448         21.53582418          9.62473529    0.2045   -0.1882    0.2026
   83         29.39554469         21.51150529          9.64748747    0.1907   -0.1946    0.2017
   83         33.31003699         21.49524056          9.67514638    0.1913   -0.1948    0.2031
   83         37.22945860         21.46927956          9.71061853    0.1971   -0.2016    0.2042
   83         41.14222956         21.46364946          9.73546466    0.2006   -0.1914    0.1975
   83         45.06079049         21.44230201          9.75431022    0.2064   -0.2007    0.1868
   83         48.96996228         21.41665380          9.77875006    0.2055   -0.1934    0.1828
   83         52.88468931         21.36355885          9.80228357    0.2092   -0.1979    0.1713
   83         56.77336146         21.31828349          9.83925586    0.1981   -0.0139    0.0144
   83         60.67197045         21.34064749          9.81509729    0.1971    0.1978   -0.1787
   83         64.58873180         21.37372431          9.77318703    0.1985    0.1969   -0.1969
   83         68.51323919         21.41180566          9.72265093    0.2058    0.2053   -0.2077
   83         72.42288044         21.42814858          9.70330533    0.1970    0.1928   -0.1871
   83         76.35028282         21.45731561          9.65995742    0.2115    0.1877   -0.1880
   83          2.00768935         25.42254589          9.60060798    0.2132    0.1945   -0.1831
   83          5.92488103         25.48260026          9.55360347    0.2162    0.1978   -0.1760
   83          9.82456978         25.54820653          9.50331740    0.2030    0.0200   -0.0101
   83         13.73076834         25.52255831          9.50691150    0.2005   -0.1961    0.1743
   83         17.65058116         25.48823036          9.53660184    0.1964   -0.1954    0.1895
   83         21.58244339         25.47047991          9.57341787    0.2059   -0.1882    0.1938
   83         25.48973734         25.43841964          9.61060894    0.1993   -0.1951    0.2042
   83         29.40313425         25.43458804          9.63126717    0.2006   -0.1796    0.2035
   83         33.31301022         25.39744504          9.64301830    0.1976   -0.2007    0.1877
   83         37.22515524         25.39376984          9.68771008    0.1987   -0.1845    0.2046
   83         41.12634625         25.37797429          9.71093106    0.1907   -0.1879    0.1961
   83         45.04803690         25.34958922          9.74477805    0.1985   -0.2021    0.1987
   83         48.96612837         25.32206430          9.76381113    0.2039   -0.1966    0.1862
   83         52.88077716         25.28781455          9.78837598    0.2051   -0.1799    0.1714
   83         56.77594347         25.22932410          9.82497324    0.1979   -0.0024    0.0159
   83         60.68128136         25.24472867          9.79906451    0.2036    0.1972   -0.1781
   83         64.60586699         25.27694533          9.75956072    0.2171    0.1920   -0.1934
   83         68.50744922         25.31432292          9.71736917    0.2010    0.2028   -0.1958
   83         72.43383444         25.33402826          9.68317840    0.2102    0.1883   -0.1914
   83         76.33572964         25.38774877          9.62751681    0.2035    0.2023   -0.2015
   83          1.98726013         29.33780907          9.57954346    0.1998    0.1978   -0.1817
   83          5.91931796         29.37354455          9.54138355    0.2168    0.1806   -0.1683
   83          9.82723004         29.44126210          9.48856599    0.2069    0.0078   -0.0084
   83         13.73014239         29.44048014          9.48306546    0.2004   -0.1865    0.1711
   83         17.66341299         29.40693415          9.52100660    0.2097   -0.1885    0.1958
   83         21.57868773         29.36721069          9.55054068    0.2017   -0.2033    0.1988
   83         25.49231936         29.34625422          9.58044980    0.2023   -0.1987    0.2030
   83         29.38912877         29.32897295          9.62795435    0.1897   -0.1950    0.2186
   83         33.31551399         29.32044961          9.63576760    0.2046   -0.1880    0.1944
   83         37.21725270         29.29800741          9.66873951    0.1944   -0.1940    0.1998
   83         41.12556382         29.28330661          9.68886644    0.1928   -0.1944    0.1906
   83         45.05406160         29.25625086          9.72524493    0.2054   -0.2035    0.1960
   83         48.96738026         29.23060264          9.75077863    0.2053   -0.1985    0.1922
   83         52.88813200         29.18470172          9.76387363    0.2122   -0.1926    0.1709
   83         56.77539577         29.12449096          9.80375246    0.1958   -0.0151    0.0133
   83         60.66844952         29.15193768          9.78028146    0.1909    0.1957   -0.1800
   83         64.58716694         29.19252129          9.72877652    0.1955    0.1992   -0.2080
   83         68.51621242         29.20354690          9.70399289    0.2113    0.1813   -0.1972
   83         72.41059630         29.25327942          9.66642679    0.1973    0.1924   -0.1920
   83         76.33580788         29.29347206          9.60851499    0.2110    0.1926   -0.2010
   83          1.99138353         33.23805866          9.54860299    0.2098    0.1916   -0.1898
   83          5.92279977         33.29717467          9.52216296    0.2214    0.1966   -0.1684
   83          9.81940575         33.34620343          9.46300104    0.2041    0.0036   -0.0199
   83         13.72349175         33.33564700          9.46415740    0.2005   -0.2019    0.1660
   83         17.65472803         33.30647997          9.49897323    0.2043   -0.1985    0.1907
   83         21.57571450         33.28998066          9.52660088    0.2034   -0.1917    0.1977
   83         25.47980049         33.25956250          9.55413477    0.1941   -0.2003    0.1984
   83         29.39617063         33.24626922          9.57794956    0.2005   -0.1909    0.1878
   83         33.29978717         33.22656388          9.61782838    0.1926   -0.1947    0.1983
   83         37.22914562         33.21858791          9.64333083    0.2046   -0.1897    0.1899
   83         41.12642449         33.19426902          9.67955305    0.1871   -0.1955    0.1952
   83         45.04694150         33.17534563          9.69733600    0.1953   -0.1916    0.1881
   83         48.96370284         33.14031392          9.72033821    0.2023   -0.1974    0.1838
   83         52.87561313         33.11701158          9.75137243    0.2015   -0.1726    0.1783
   83         56.77195308         33.03881579          9.78975111    0.1999   -0.0163    0.0157
   83         60.66258130         33.06321287          9.75502903    0.1937    0.1956   -0.1881
   83         64.58481965         33.09754082          9.71286874    0.2015    0.1966   -0.2034
   83         68.49070524         33.13781166          9.67908425    0.1982    0.2018   -0.1990
   83         72.40152013         33.16987193          9.63461124    0.1990    0.1947   -0.1994
   83         76.31343041         33.20412169          9.58019977    0.1973    0.1958   -0.2051
   83          1.98855896         37.15003761          9.54516516    0.2108    0.1919   -0.1748
   83          5.92370739         37.20086488          9.49794189    0.2234    0.1914   -0.1729
   83          9.82347438         37.25528915          9.44312413    0.2076    0.0058   -0.0196
   83         13.72630849         37.25051920          9.45506277    0.2033   -0.1918    0.1746
   83         17.65934436         37.20907543          9.48406556    0.2145   -0.2007    0.1910
   83         21.56170902         37.18342721          9.50819287    0.2026   -0.2058    0.1933
   83         25.48926789         37.17803171          9.54622777    0.2159   -0.1919    0.2056
   83         29.39038065         37.15566771          9.55594745    0.2028   -0.1942    0.1821
   83         33.30268216         37.15465116          9.59932661    0.2012   -0.1786    0.1966
   83         37.21983472         37.11445853          9.62257884    0.2003   -0.2030    0.1888
   83         41.13956930         37.10257277          9.65273798    0.1977   -0.1985    0.1920
   83         45.05703483         37.08114712          9.68614743    0.1979   -0.2000    0.2027
   83         48.96315514         37.04752293          9.69924244    0.1986   -0.2051    0.1856
   83         52.87350057         37.01249122          9.72712011    0.2018   -0.1938    0.1726
   83         56.76209448         36.96291509          9.76893662    0.1972   -0.0070    0.0134
   83         60.66727588         36.97988357          9.75062236    0.2059    0.2022   -0.1730
   83         64.56627609         37.02734842          9.70593058    0.1900    0.2152   -0.1894
   83         68.49375671         37.04064170          9.65355056    0.2069    0.1913   -0.2003
   83         72.39745150         37.08771557          9.61889098    0.1972    0.2067   -0.1903
   83         76.32954845         37.10710812          9.56494831    0.2155    0.1926   -0.1994
   83          2.00076485         41.05208570          9.51097439    0.2179    0.1885   -0.1903
   83          5.92273718         41.10189642          9.49050367    0.2156    0.1883   -0.1655
   83          9.81048606         41.15632069          9.42799768    0.1907    0.0034   -0.0165
   83         13.72474363         41.15069059          9.43631098    0.2021   -0.1946    0.1774
   83         17.63634095         41.11722280          9.46234472    0.1976   -0.1995    0.1888
   83         21.55928349         41.08797757          9.48447184    0.2075   -0.2031    0.1894
   83         25.46524732         41.06201657          9.51938144    0.2009   -0.2066    0.1962
   83         29.37700112         41.05709023          9.55707256    0.1990   -0.1987    0.1986
   83         33.28499926         41.03910520          9.58445018    0.1904   -0.2045    0.1974
   83         37.21482717         41.03691572          9.61998484    0.2057   -0.1886    0.2055
   83         41.12939772         40.99429901          9.62857941    0.2006   -0.2147    0.1912
   83         45.05257499         40.99468999          9.65758219    0.1995   -0.2005    0.1975
   83         48.95572207         40.97662677          9.66536419    0.1911   -0.1983    0.1717
   83         52.87866461         40.94276799          9.70143015    0.2057   -0.1869    0.1673
   83         56.76436352         40.89170614          9.74909097    0.1972    0.0048    0.0186
   83         60.65733903         40.88466852          9.72190086    0.1956    0.1954   -0.1810
   83         64.58255061         40.91242802          9.68996030    0.2062    0.1908   -0.1866
   83         68.48162906         40.96317709          9.63354864    0.1942    0.2034   -0.1993
   83         72.40629294         40.98170949          9.58838806    0.2077    0.1944   -0.2002
   83         76.31530824         41.02628109          9.55200957    0.2019    0.2063   -0.1912
   83          1.98532753         44.95866915          9.49622297    0.2036    0.1939   -0.1826
   83          5.92096889         44.99190236          9.46040704    0.2171    0.1738   -0.1715
   83          9.81353753         45.06470264          9.41074603    0.1993    0.0062   -0.0123
   83         13.72302229         45.06298233          9.41699662    0.2027   -0.1853    0.1767
   83         17.63735811         45.03803787          9.42734137    0.1983   -0.1815    0.1751
   83         21.55505837         44.99956555          9.46818903    0.2042   -0.1953    0.1913
   83         25.45476277         44.97548124          9.50844289    0.1973   -0.2008    0.2001
   83         29.35939647         44.95475936          9.53113257    0.1938   -0.2110    0.1885
   83         33.27834861         44.96093683          9.55876022    0.2011   -0.1903    0.1890
   83         37.19831792         44.93614876          9.60010793    0.2076   -0.1991    0.2002
   83         41.11468805         44.91972764          9.61867221    0.2056   -0.2008    0.1926
   83         45.03849126         44.90182081          9.63661143    0.2066   -0.2039    0.1925
   83         48.95235762         44.89282829          9.65805099    0.1997   -0.1994    0.1823
   83         52.87498719         44.86389585          9.68667873    0.2017   -0.1864    0.1687
   83         56.76217272         44.80290314          9.71771296    0.1885    0.0015    0.0087
   83         60.66336373         44.80524901          9.70727446    0.1940    0.2030   -0.1756
   83         64.59045314         44.83504160          9.66989587    0.2086    0.1988   -0.1901
   83         68.49469563         44.87984779          9.61967231    0.2036    0.2090   -0.1944
   83         72.40457160         44.90948400          9.57679320    0.2035    0.2099   -0.1951
   83         76.33299114         44.91573966          9.53253895    0.2204    0.1869   -0.1919
   83          1.99099231         48.87330676          9.48303421    0.2004    0.2091   -0.1726
   83          5.92215036         48.90059709          9.44428049    0.2161    0.1803   -0.1638
   83          9.80602621         48.94462132          9.39365064    0.1935   -0.0167   -0.0116
   83         13.72310053         48.94000777          9.39596336    0.2026   -0.2075    0.1700
   83         17.63868824         48.93375210          9.42427857    0.2032   -0.1903    0.1870
   83         21.53698426         48.91310842          9.44918721    0.1991   -0.1959    0.1840
   83         25.43551501         48.88652185          9.48881601    0.1951   -0.2086    0.1922
   83         29.33310685         48.87502707          9.52044404    0.1868   -0.2076    0.1927
   83         33.24830334         48.85039539          9.53657059    0.1936   -0.2144    0.1796
   83         37.17727058         48.85500894          9.58288753    0.2108   -0.1939    0.1923
   83         41.09833529         48.83092464          9.61107773    0.2131   -0.2052    0.1953
   83         45.01478366         48.82678026          9.63061086    0.2082   -0.1953    0.1930
   83         48.93639607         48.80050648          9.64770624    0.2052   -0.2101    0.1793
   83         52.89517386         48.78854252          9.67549016    0.2301   -0.1778    0.1723
   83         56.77899495         48.73560397          9.70733696    0.1990    0.0234    0.0162
   83         60.68793200         48.73998294          9.69030408    0.2089    0.2214   -0.1688
   83         64.61713397         48.77126125          9.65126909    0.2235    0.2171   -0.1837
   83         68.50784043         48.79276510          9.60388954    0.2000    0.2083   -0.1863
   83         72.42186328         48.81591105          9.56138547    0.2067    0.2054   -0.1855
   83         76.31413460         48.84327958          9.50691150    0.1895    0.2100   -0.1944
   83          2.00861262         52.78442556          9.45143743    0.1807    0.2118   -0.1740
   83          5.91941968         52.81038656          9.41977814    0.1882    0.1691   -0.1805
   83          9.78709143         52.84158668          9.38046187    0.1696   -0.0369   -0.0273
   83         13.71676286         52.84518369          9.37946178    0.2102   -0.2064    0.1521
   83         17.61177268         52.83228138          9.41552773    0.2015   -0.2057    0.1741
   83         21.51398085         52.82321067          9.43596719    0.2019   -0.2077    0.1682
   83         25.40226178         52.81007378          9.47806498    0.1893   -0.2061    0.1776
   83         29.31667584         52.78763159          9.50897419    0.1985   -0.2112    0.1753
   83         33.23531502         52.78379999          9.54278994    0.2042   -0.1969    0.1825
   83         37.15661446         52.76612775          9.57516804    0.2134   -0.2005    0.1859
   83         41.06265653         52.75729162          9.59570126    0.2044   -0.2014    0.1776
   83         44.97777477         52.72624789          9.61770337    0.2033   -0.2184    0.1727
   83         48.89797881         52.72413661          9.64748747    0.2056   -0.2138    0.1696
   83         52.87256166         52.66470781          9.65283174    0.2488   -0.2145    0.1435
   83         56.78032507         52.65751379          9.68824138    0.2105    0.0387    0.0139
   83         60.70475423         52.68879211          9.66908329    0.1985    0.2460   -0.1500
   83         64.61103103         52.68699361          9.62267259    0.1867    0.2114   -0.1719
   83         68.53060912         52.72437119          9.57782454    0.1901    0.2207   -0.1749
   83         72.44564912         52.75369462          9.54088350    0.1936    0.2259   -0.1665
   83         76.35521212         52.75392920          9.49462907    0.1935    0.2087   -0.1685
   83          2.04271870         56.66559537          9.42602874   -0.0161    0.1951   -0.0069
   83          5.97886863         56.70954141          9.37639898    0.0310    0.1128   -0.1384
   83          9.77386838         56.72009784          9.40408914   -0.0456   -0.1093   -0.1046
   83         13.71253774         56.73104525          9.38608741    0.0107   -0.2105   -0.0378
   83         17.60872121         56.74160168          9.42134079    0.0075   -0.1984   -0.0216
   83         21.50474819         56.73479865          9.45403143   -0.0008   -0.2000   -0.0135
   83         25.41462416         56.72275650          9.48515941    0.0068   -0.1994   -0.0167
   83         29.31276370         56.69656091          9.52638211    0.0004   -0.2083   -0.0085
   83         33.21794510         56.66176378          9.54144606   -0.0063   -0.2200   -0.0200
   83         37.14425208         56.67028712          9.57457423    0.0063   -0.2018   -0.0150
   83         41.04802510         56.65933971          9.59498244   -0.0098   -0.2101   -0.0234
   83         44.98403421         56.64534267          9.62351643    0.0067   -0.2132   -0.0185
   83         48.88655535         56.66192017          9.63770529   -0.0173   -0.2071   -0.0200
   83         52.83320548         56.66669012          9.67386500   -0.0206   -0.0720    0.0830
   83         56.85731609         56.57074388          9.64654988    0.0421    0.0908    0.0638
   83         60.76194979         56.56917997          9.62501657    0.0064    0.1920   -0.0035
   83         64.67863289         56.59756504          9.58866933    0.0119    0.2042   -0.0079
   83         68.58217119         56.61289141          9.54078974    0.0056    0.1983   -0.0127
   83         72.49353378         56.63783587          9.50325490    0.0044    0.2009   -0.0045
   83         76.39699383         56.65065998          9.45284381    0.0001    0.1972   -0.0128
   83          2.05635643         60.55653966          9.43865495   -0.2030    0.1998    0.1741
   83          5.96238286         60.56998934          9.41290248   -0.1857    0.0243   -0.0224
   83          9.84060958         60.58992926          9.44599941   -0.1951   -0.1961   -0.1733
   83         13.74931190         60.63293695          9.46750147   -0.1879   -0.2048   -0.1738
   83         17.66427367         60.63614298          9.48387804   -0.1740   -0.2099   -0.1880
   83         21.55224163         60.63512643          9.53006997   -0.1912   -0.2088   -0.1679
   83         25.47150675         60.61800155          9.54460261   -0.1802   -0.2164   -0.1827
   83         29.36604711         60.60400451          9.59510745   -0.1923   -0.2178   -0.1604
   83         33.28812898         60.57929464          9.60601475   -0.1794   -0.2201   -0.1826
   83         37.18321704         60.56944197          9.65036275   -0.2013   -0.2122   -0.1697
   83         41.11953911         60.54629601          9.66627052   -0.1894   -0.2275   -0.1774
   83         45.02597240         60.55739982          9.70189894   -0.2072   -0.2125   -0.1705
   83         48.95298357         60.54449751          9.72983912   -0.2077   -0.2454   -0.1536
   83         52.90252869         60.55755621          9.74996605   -0.1971   -0.0414    0.0435
   83         56.81780342         60.55036219          9.70705568   -0.2231    0.1967    0.1916
   83         60.74356271         60.54371555          9.65542573   -0.2211    0.2282    0.1822
   83         64.69169946         60.52799820          9.61782838   -0.1848    0.2131    0.1867
   83         68.58647455         60.52252449          9.57254279   -0.1994    0.1951    0.1877
   83         72.49713295         60.52557413          9.52785100   -0.1909    0.1828    0.1875
   83         76.39988882         60.55880734          9.48222163   -0.1943    0.2038    0.1836
   83          2.06242026         64.46226295          9.49212883   -0.1934    0.2000    0.1959
   83          5.96822760         64.47102088          9.44946849   -0.1903    0.0057   -0.0165
   83          9.84843387         64.51926768          9.49156627   -0.2200   -0.1918   -0.1740
   83         13.78436472         64.54780915          9.51359964   -0.2002   -0.2064   -0.1878
   83         17.69111098         64.55680166          9.54541519   -0.1990   -0.2081   -0.1899
   83         21.59934385         64.55031141          9.57219901   -0.1997   -0.2142   -0.1912
   83         25.50562065         64.53920761          9.60457711   -0.2042   -0.2165   -0.1868
   83         29.42825022         64.52309928          9.63457999   -0.1876   -0.2201   -0.1869
   83         33.32153870         64.51582707          9.67158353   -0.2039   -0.2072   -0.1808
   83         37.24174273         64.48892772          9.69261680   -0.1998   -0.2126   -0.1881
   83         41.14645467         64.48439236          9.71708790   -0.2104   -0.2033   -0.1919
   83         45.08700186         64.47821490          9.75874814   -0.1876   -0.2051   -0.1876
   83         48.98561086         64.48626906          9.79634550   -0.2050   -0.2157   -0.1694
   83         52.89556507         64.49838941          9.79697056   -0.1990   -0.0099    0.0161
   83         56.80794482         64.45647647          9.74965352   -0.2000    0.1848    0.1830
   83         60.72408022         64.43982076          9.70674316   -0.2069    0.1982    0.1923
   83         64.65782028         64.44826591          9.66561421   -0.1905    0.2079    0.1994
   83         68.56769625         64.45882234          9.63189223   -0.1970    0.2071    0.2137
   83         72.47146928         64.46030806          9.57094889   -0.2004    0.1970    0.1974
   83         76.37899797         64.46327950          9.52916363   -0.2033    0.1950    0.1997
   83          2.04030099         68.36509300          9.52466320   -0.2140    0.1924    0.1757
   83          5.96326700         68.37635320          9.50497381   -0.2069    0.0056   -0.0133
   83          9.87370632         68.42546015          9.54657155   -0.2203   -0.1963   -0.1703
   83         13.81002840         68.48269947          9.56304188   -0.2108   -0.1901   -0.1861
   83         17.73023243         68.47159567          9.58738796   -0.2027   -0.2083   -0.1949
   83         21.63424019         68.47237762          9.62779809   -0.2124   -0.2044   -0.1828
   83         25.56234675         68.46057006          9.64548728   -0.1940   -0.2065   -0.1969
   83         29.46299007         68.45728584          9.68864767   -0.1987   -0.1934   -0.1905
   83         33.37740413         68.43093386          9.70846207   -0.1937   -0.2016   -0.1967
   83         37.28250728         68.41005558          9.74255909   -0.1953   -0.2060   -0.1896
   83         41.18510667         68.39605853          9.77018674   -0.1983   -0.2051   -0.1968
   83         45.08966212         68.38487654          9.81040934   -0.2028   -0.2080   -0.1941
   83         49.00861427         68.40559842          9.84956935   -0.1971   -0.2046   -0.1737
   83         52.92889655         68.39402544          9.87229028   -0.1796   -0.0259    0.0330
   83         56.78846234         68.34225983          9.80778409   -0.2143    0.1597    0.1820
   83         60.70874461         68.35265987          9.76321732   -0.1986    0.2032    0.1898
   83         64.62534948         68.35023580          9.72827647   -0.1939    0.1997    0.2026
   83         68.52411496         68.36204337          9.68933524   -0.2113    0.2003    0.2108
   83         72.45386463         68.37815170          9.63123592   -0.2002    0.2028    0.2028
   83         76.38470970         68.38198329          9.58610659   -0.1898    0.1993    0.2053
   83          2.03135783         72.29998332          9.59513870   -0.1956    0.2184    0.1731
   83          5.95401869         72.29216374          9.55272839   -0.2087    0.0301   -0.0293
   83          9.88755532         72.35135796          9.58088734   -0.2234   -0.1757   -0.1814
   83         13.83968245         72.38568591          9.61292166   -0.2129   -0.2160   -0.1698
   83         17.77162293         72.39686791          9.62942324   -0.1936   -0.2021   -0.1897
   83         21.67977755         72.38717163          9.67089597   -0.1964   -0.2028   -0.1817
   83         25.59614769         72.39311451          9.69021032   -0.1930   -0.1868   -0.1892
   83         29.50453705         72.36410387          9.73049543   -0.1968   -0.1972   -0.1826
   83         33.42192434         72.34518049          9.76721770   -0.1892   -0.1988   -0.1721
   83         37.32538439         72.33227818          9.78853225   -0.1927   -0.1981   -0.1795
   83         41.22939215         72.31734279          9.82887987   -0.1896   -0.2001   -0.1767
   83         45.11642119         72.29818482          9.85947655   -0.2016   -0.2060   -0.1772
   83         49.02332394         72.30678636          9.89001073   -0.1936   -0.2052   -0.1671
   83         52.92279360         72.32375484          9.90223065   -0.1808   -0.0123    0.0296
   83         56.78509789         72.28903591          9.84563147   -0.1980    0.1812    0.1795
   83         60.69317428         72.25916512          9.81531606   -0.1819    0.1978    0.1816
   83         64.60203309         72.24821771          9.77890632   -0.1794    0.1885    0.1873
   83         68.50095506         72.27339675          9.72668257   -0.1913    0.2024    0.1778
   83         72.42405408         72.28418777          9.68667873   -0.1852    0.1972    0.1924
   83         76.33932881         72.30389311          9.63286107   -0.1955    0.2064    0.1862
   83          1.97373976         76.19601034          9.66539544   -0.0013    0.2045    0.0174
   83          5.88680804         76.18748700          9.61504686   -0.0354    0.0848   -0.0957
   83          9.90954157         76.28609189          9.65298800    0.0312   -0.0801   -0.0657
   83         13.83968245         76.32839581          9.63901791    0.0130   -0.1846   -0.0068
   83         17.78461125         76.30524985          9.67424004    0.0253   -0.1966    0.0069
   83         21.68564577         76.28859415          9.70377412    0.0108   -0.1984    0.0051
   83         25.59653890         76.26450985          9.73862121    0.0033   -0.2055    0.0163
   83         29.52589736         76.26841964          9.75390393    0.0134   -0.1893    0.0054
   83         33.42035948         76.23956539          9.78665707   -0.0030   -0.2020    0.0080
   83         37.34001581         76.23112025          9.81797257    0.0062   -0.1966    0.0092
   83         41.23627752         76.22861798          9.85863272   -0.0018   -0.1904    0.0144
   83         45.13269572         76.20367352          9.87847837   -0.0013   -0.1979    0.0066
   83         49.00861427         76.21915629          9.90148058   -0.0180   -0.1733    0.0090
   83         52.93601665         76.16176058          9.95861105    0.0334   -0.1112    0.1503
   83         56.72852827         76.16567037          9.90654356   -0.0390    0.1109    0.1087
   83         60.65992104         76.14737256          9.89076080    0.0118    0.1976    0.0257
   83         64.56658906         76.13337551          9.85316344    0.0199    0.1799    0.0344
   83         68.46019051         76.17130047          9.80600267    0.0044    0.2007    0.0263
   83         72.38188116         76.17278619          9.76387363    0.0117    0.1848    0.0299
   83         76.29120943         76.19061483          9.69892991    0.0021    0.1949    0.0141
