CRYSTAL
PRIMVEC
    78.4837920732999947    0.0000000000000000    0.0000000000000000
     0.0000000000000000   78.4310249929999941    0.0000000000000000
     0.0000000000000000    0.0000000000000000   31.3734906092000010
PRIMCOORD
  400    1
   83          2.06866794          1.86665055          9.76713235    0.0659    0.1988    0.1401
   83          5.98391824          2.04815563          9.58958977    0.1243    0.0481    0.0795
   83          9.84257388          2.04006155          9.61434345    0.0968   -0.1926    0.1499
   83         13.76354565          2.02647729          9.56276543    0.0380   -0.1458    0.0544
   83         17.86973917          1.85519178          9.56885189    0.2249   -0.2479    0.0615
   83         21.59481539          1.89509748          9.69020455    0.0273   -0.1645    0.1497
   83         25.70948516          1.94548157          9.75022204    0.1884   -0.1643    0.1187
   83         29.55982151          1.99370097          9.86238227    0.1185   -0.1438    0.1757
   83         33.56532032          1.87058779          9.81783191    0.2404   -0.2794    0.1470
   83         37.51038662          1.84643888          9.88497118    0.2600   -0.2775    0.2053
   83         41.40459541          1.89570140          9.89017918    0.2126   -0.1879    0.1790
   83         45.28412774          1.99063432          9.80280401    0.1704   -0.1239    0.1148
   83         49.11837491          1.91206996          9.84484449    0.0686   -0.1986    0.2009
   83         53.16240927          1.78323131          9.84402877    0.2004   -0.2744    0.1942
   83         56.96502748          1.82381937          9.86376270    0.0242   -0.0377    0.1007
   83         60.94768751          1.80934100          9.83844429    0.0290    0.1404    0.0442
   83         64.79402119          1.84999180          9.76415187   -0.0077    0.1908    0.0241
   83         68.66303669          1.91267388          9.70849530   -0.0609    0.2010   -0.0090
   83         72.61328291          1.87730933          9.72998614   -0.0015    0.1582    0.0314
   83         76.49948636          1.82272918          9.66818036   -0.0181    0.1712   -0.0149
   83          2.10351475          5.88844449          9.63040668    0.2709    0.2724   -0.1921
   83          5.77857325          5.93261685          9.59962928    0.0557    0.0337    0.0112
   83          9.96218318          5.95410695          9.55498481    0.3102   -0.2090    0.1221
   83         13.83512287          5.84764468          9.65079945    0.1717   -0.2523    0.2011
   83         17.79188324          5.86055442          9.57911102    0.2027   -0.1940    0.1278
   83         21.72949358          5.91693849          9.71599356    0.2529   -0.1588    0.2155
   83         25.67353958          6.01418511          9.64640716    0.2415   -0.0730    0.1092
   83         29.59592406          5.87868767          9.74059038    0.2160   -0.2055    0.1605
   83         33.53573193          5.86585636          9.80719630    0.2211   -0.2309    0.1648
   83         37.35734322          5.77275089          9.85864882    0.1143   -0.3282    0.2023
   83         41.36087994          5.83114279          9.87282964    0.1969   -0.2514    0.2520
   83         45.19991463          5.79355080          9.79235664    0.1234   -0.2538    0.1666
   83         49.29370771          5.88051512          9.77820719    0.2658   -0.1004    0.1453
   83         53.12999546          5.66450823          9.77052069    0.1954   -0.2534    0.1487
   83         57.04413914          5.67187291          9.83326767    0.2324   -0.0430    0.0402
   83         60.91150648          5.66973958          9.76794806    0.1793    0.1349   -0.1790
   83         64.74489034          5.71155116          9.91279947    0.1447    0.1295   -0.0097
   83         68.60613594          5.74257847          9.78099943    0.1178    0.1146   -0.1077
   83         72.62387822          5.85105642          9.77186975    0.2390    0.2217   -0.1041
   83         76.56274429          5.80238213          9.78467013    0.2292    0.1828   -0.0886
   83          1.96528909          9.74529015          9.61923771    0.1650    0.1552   -0.1720
   83          5.97734130          9.86693667          9.53114095    0.2552    0.0473    0.0076
   83          9.81220065          9.88811304          9.64581106    0.1465   -0.1720    0.2645
   83         13.82091730          9.74630975          9.63919125    0.1973   -0.3117    0.2127
   83         17.81982347          9.87509349          9.70698937    0.2739   -0.1539    0.2724
   83         21.59144059          9.88709344          9.63470485    0.1009   -0.1467    0.1886
   83         25.67142052          9.84364265          9.60916682    0.2211   -0.1901    0.1696
   83         29.53211673          9.84481912          9.60919820    0.2043   -0.1847    0.1216
   83         33.29823998          9.71768243          9.81328275    0.0806   -0.3142    0.2367
   83         37.29965763          9.86191708          9.81516516    0.1609   -0.1649    0.1993
   83         41.30499948          9.82693685          9.78576820    0.2230   -0.2196    0.2009
   83         45.25571660          9.79925069          9.74680233    0.2182   -0.1880    0.1753
   83         49.26380538          9.70529033          9.71257385    0.2666   -0.1683    0.1505
   83         53.09836649          9.64176120          9.66912156    0.1942   -0.1604    0.0858
   83         56.81002199          9.47721291          9.93890221    0.0542   -0.1238    0.1391
   83         60.74676900          9.58301636          9.70931101    0.0728    0.1360   -0.2665
   83         64.77039757          9.74772151          9.69920874    0.1738    0.2500   -0.2633
   83         68.78303841          9.71893732          9.81036502    0.2656    0.1948   -0.1047
   83         72.60488514          9.67956495          9.67646296    0.1466    0.1631   -0.2109
   83         76.51431980          9.68278062          9.78307008    0.1386    0.1308   -0.0913
   83          1.96118439         13.71264512          9.57302456    0.2096    0.1767   -0.1760
   83          5.93689860         13.83672300          9.46858221    0.2324    0.0766   -0.0860
   83          9.83425460         13.88197770          9.65136417    0.1565   -0.0984    0.2378
   83         13.82696055         13.78621342          9.57289907    0.2037   -0.2266    0.1305
   83         17.76629753         13.69295893          9.61283752    0.1957   -0.3031    0.1807
   83         21.60580312         13.69680205          9.65719964    0.0802   -0.2594    0.2470
   83         25.64277393         13.73554698          9.61446894    0.1896   -0.2327    0.1986
   83         29.47411721         13.77084094          9.61741805    0.1596   -0.1949    0.1578
   83         33.28921434         13.75123318          9.72678604    0.1022   -0.1782    0.2174
   83         37.26018029         13.75476258          9.77384628    0.1474   -0.1614    0.2197
   83         41.33239032         13.88409534          9.76810493    0.2399   -0.0814    0.1955
   83         45.40711184         13.65146892          9.72029173    0.3791   -0.2576    0.1649
   83         49.22754587         13.58888096          9.68568677    0.3203   -0.1777    0.1096
   83         53.17614393         13.55554777          9.77999548    0.3670   -0.1650    0.1354
   83         56.81253347         13.56001834          9.80490603    0.0329    0.0747   -0.0127
   83         60.93254014         13.39688181          9.86191166    0.1884    0.0628   -0.1256
   83         64.66169752         13.54676350          9.84760535    0.0231    0.1493   -0.1176
   83         68.74505225         13.65452773          9.70808744    0.2184    0.2220   -0.1757
   83         72.59523164         13.66456690          9.74695920    0.1507    0.2034   -0.1006
   83         76.65088159         13.63923368          9.61832788    0.2951    0.1602   -0.1888
   83          1.98826130         17.74235275          9.69186735    0.2427    0.2904   -0.0477
   83          5.91212127         17.70901956          9.71781322    0.1950    0.0785    0.1018
   83          9.89460863         17.89545011          9.69927149    0.2119    0.0304    0.2101
   83         13.72438224         17.71584306          9.56486746    0.1263   -0.2217    0.1128
   83         17.76582663         17.72290186          9.54234129    0.2386   -0.1918    0.1352
   83         21.69064410         17.74494097          9.50121064    0.2245   -0.1620    0.1158
   83         25.69543656         17.71215681          9.60797463    0.2890   -0.1984    0.2140
   83         29.45002269         17.67482364          9.52831734    0.1287   -0.2179    0.1150
   83         33.43417391         17.77152909          9.74269240    0.2210   -0.0923    0.2697
   83         37.37939717         17.62164740          9.78630155    0.2629   -0.2479    0.2596
   83         41.35138340         17.70478429          9.77117953    0.2801   -0.1912    0.2126
   83         45.06680612         17.70290194          9.80688256    0.0535   -0.1346    0.2350
   83         49.12685116         17.50353028          9.76223808    0.2508   -0.2118    0.1606
   83         53.00190991         17.48149116          9.75800266    0.2289   -0.1750    0.1154
   83         56.98990684         17.35145252          9.72377419    0.2106   -0.0372   -0.0394
   83         60.86057050         17.51137338          9.75414372    0.1356    0.2576   -0.1931
   83         64.78946913         17.50156950          9.66905882    0.2079    0.1657   -0.2708
   83         68.72401859         17.59309851          9.74005703    0.2387    0.2481   -0.1215
   83         72.65919593         17.49851069          9.62576340    0.2458    0.0768   -0.2439
   83         76.46134324         17.74933311          9.60166856    0.1386    0.3158   -0.2173
   83          1.99162040         21.54249277          9.72788411    0.2172    0.1756   -0.0479
   83          5.97694103         21.66790398          9.53424693    0.2980    0.1663   -0.1396
   83          9.91085478         21.73668799          9.55655348    0.2495   -0.0200    0.0207
   83         13.75428456         21.72798215          9.49848115    0.1717   -0.1338    0.1283
   83         17.60870207         21.70115874          9.54704731    0.1460   -0.1340    0.1933
   83         21.68083363         21.72429589          9.57484423    0.2939   -0.1536    0.1607
   83         25.56036595         21.60978659          9.59122119    0.2104   -0.2272    0.1679
   83         29.51461485         21.69888424          9.55768293    0.2084   -0.1126    0.1068
   83         33.41078574         21.55582605          9.67021964    0.1979   -0.2447    0.1489
   83         37.22760951         21.59206118          9.61142572    0.1147   -0.2021    0.0824
   83         41.21293799         21.55229665          9.79474102    0.1548   -0.2243    0.2792
   83         45.11585849         21.57213970          9.69635375    0.1248   -0.1570    0.1425
   83         49.03526058         21.57966908          9.77833269    0.1418   -0.0921    0.2219
   83         53.00740378         21.38625817          9.71809558    0.1761   -0.2131    0.1679
   83         56.94273808         21.39104246          9.79671755    0.1855    0.0233    0.0742
   83         60.80084433         21.41512079          9.70002445    0.1757    0.1984   -0.2007
   83         64.75572110         21.44453242          9.71458175    0.2158    0.1899   -0.1802
   83         68.62638476         21.43574815          9.72076233    0.1077    0.1646   -0.2003
   83         72.56038483         21.53943396          9.72013486    0.0954    0.1961   -0.2066
   83         76.53904219         21.49637533          9.58852307    0.1559    0.1493   -0.2737
   83          2.03800433         25.49871054          9.65522311    0.2238    0.1990   -0.1552
   83          5.89854357         25.55220049          9.59498601    0.1735    0.1575   -0.1229
   83          9.77860959         25.64702360          9.50143026    0.1083   -0.0205   -0.0424
   83         13.79054407         25.47102438          9.51830920    0.2100   -0.3094    0.1840
   83         17.68428197         25.57525922          9.59297810    0.1935   -0.1619    0.2641
   83         21.58359221         25.55188677          9.56282818    0.1895   -0.2444    0.1587
   83         25.49883466         25.52686727          9.56794206    0.1975   -0.1893    0.1198
   83         29.46501309         25.58074939          9.71022084    0.1791   -0.1139    0.2148
   83         33.52953171         25.54106329          9.78504661    0.2795   -0.1975    0.2505
   83         37.21819146         25.45635778          9.65644667    0.0687   -0.2284    0.1384
   83         41.23130320         25.46529892          9.73886483    0.1842   -0.1712    0.2119
   83         45.12951467         25.39792667          9.77757972    0.1909   -0.2262    0.2147
   83         48.91031438         25.37698558          9.78959577    0.0810   -0.2155    0.2221
   83         53.11202267         25.23941757          9.72098194    0.2966   -0.3107    0.1764
   83         56.98535478         25.31926035          9.79533712    0.2028   -0.0302    0.0661
   83         60.81151813         25.30341728          9.70008720    0.1614    0.1510   -0.2231
   83         64.83844302         25.29173106          9.72226826    0.2784    0.1499   -0.1735
   83         68.70055194         25.39235807          9.78435640    0.1911    0.2052   -0.1290
   83         72.59546709         25.37110326          9.61798278    0.1604    0.1157   -0.2894
   83         76.46055840         25.40020117          9.72424479    0.0867    0.1299   -0.1548
   83          1.89301337         29.38598743          9.59812336    0.0924    0.1298   -0.1801
   83          5.93234654         29.40535989          9.48495917    0.1882    0.1262   -0.2542
   83          9.63514122         29.53414363          9.51539146   -0.0024    0.0133   -0.0540
   83         13.72705068         29.43045782          9.49644187    0.1779   -0.2418    0.1288
   83         17.66285589         29.47139881          9.58714263    0.1718   -0.1785    0.2637
   83         21.63782451         29.47908505          9.64797583    0.2026   -0.2084    0.2894
   83         25.48988751         29.37124239          9.64408552    0.1565   -0.2222    0.2294
   83         29.32633223         29.35445816          9.69048691    0.0499   -0.2146    0.2390
   83         33.49900152         29.41845787          9.60916682    0.2414   -0.2529    0.1038
   83         37.43896637         29.36590908          9.71580532    0.2819   -0.2638    0.1942
   83         41.17754180         29.46763412          9.61798278    0.1580   -0.1001    0.0465
   83         45.10918736         29.36904633          9.77986999    0.2016   -0.2057    0.1793
   83         49.05849178         29.32881121          9.69999308    0.2523   -0.2115    0.1173
   83         52.97797236         29.15916490          9.62256330    0.1954   -0.3096    0.0780
   83         56.99720583         29.23398810          9.74921809    0.2361    0.0023    0.0238
   83         60.94494057         29.25877230          9.66206253    0.2418    0.2069   -0.2465
   83         64.92320551         29.28904668          9.70027544    0.3028    0.2069   -0.1750
   83         68.72291982         29.37398748          9.72684879    0.2151    0.2212   -0.1615
   83         72.63251144         29.29532116          9.60863347    0.2131    0.1032   -0.2940
   83         76.53480406         29.45288909          9.58526022    0.2093    0.2329   -0.2829
   83          1.92778954         33.32251900          9.53873334    0.1242    0.1295   -0.2118
   83          5.89295553         33.35883257          9.53292924    0.2075    0.1576   -0.1375
   83          9.78433891         33.39193046          9.50287344    0.2207   -0.0134   -0.0419
   83         13.70083710         33.44502826          9.42519268    0.1956   -0.1589    0.0381
   83         17.65037697         33.46738111          9.58538572    0.1927   -0.1271    0.2373
   83         21.63452819         33.39742063          9.51046582    0.2130   -0.1649    0.0985
   83         25.54733764         33.29208776          9.66165467    0.1923   -0.2412    0.2019
   83         29.45300507         33.32942093          9.72176628    0.2075   -0.2079    0.2731
   83         33.37334897         33.35467572          9.69214971    0.1747   -0.2202    0.1734
   83         37.24770136         33.33655816          9.83122839    0.1413   -0.2176    0.2737
   83         41.22000153         33.34902869          9.64709737    0.1909   -0.1799    0.1195
   83         45.11373942         33.35302867          9.69155361    0.1370   -0.1862    0.1395
   83         49.00049226         33.13522571          9.66733328    0.1310   -0.3479    0.0926
   83         52.90663059         33.10291213          9.74074724    0.1217   -0.2203    0.1970
   83         57.00913537         33.02008897          9.71407978    0.3174   -0.0469   -0.0166
   83         60.88026993         33.09906901          9.70924826    0.2210    0.1566   -0.1508
   83         64.83043767         33.19922543          9.69867539    0.2152    0.1440   -0.1375
   83         68.64161061         33.31114650          9.73353134    0.1276    0.1787   -0.1409
   83         72.61885526         33.28440152          9.62595164    0.1775    0.1789   -0.2249
   83         76.52185424         33.33342092          9.57145589    0.1534    0.1890   -0.2646
   83          2.09296653         37.26642309          9.54645122    0.2904    0.1789   -0.2029
   83          5.93131056         37.26618780          9.50638727    0.2236    0.1606   -0.1115
   83          9.78983277         37.32932478          9.48834751    0.1969   -0.0131    0.0452
   83         13.66104582         37.31308955          9.50415975    0.1614   -0.2253    0.1427
   83         17.62337854         37.31034447          9.57967574    0.1796   -0.1797    0.1828
   83         21.59732687         37.20093319          9.56138500    0.2048   -0.2365    0.1313
   83         25.39366638         37.33442279          9.67859636    0.0696   -0.1298    0.2352
   83         29.45143539         37.39865780          9.52944678    0.2295   -0.1165    0.0896
   83         33.33457797         37.23010953          9.62033579    0.1864   -0.2825    0.1057
   83         37.22439168         37.46642221          9.85974689    0.1577   -0.0536    0.2473
   83         41.03281769         37.12007080          9.70457361    0.0335   -0.3109    0.1096
   83         45.15808277         37.18046269          9.58745637    0.1932   -0.2163   -0.0354
   83         49.11908127         37.18971755          9.69233795    0.2386   -0.2218   -0.0294
   83         52.98754738         37.12626685          9.70576580    0.2209   -0.1205   -0.0705
   83         56.83513680         36.97379694          9.73726479    0.1876   -0.0159   -0.1229
   83         60.82486037         37.11818846          9.67505115    0.2496    0.2382   -0.2022
   83         64.76419735         37.27379561          9.59608408    0.2319    0.2925   -0.2103
   83         68.66256578         37.29348180          9.74222180    0.1711    0.2789   -0.0517
   83         72.57875004         37.18814893          9.58431902    0.1183    0.2076   -0.2068
   83         76.72497029         37.20752139          9.57961300    0.3382    0.1714   -0.2101
   83          1.96568151         41.12554325          9.50764221    0.1614    0.1715   -0.2341
   83          5.92106057         41.11071978          9.59222514    0.1884    0.1301   -0.0781
   83          9.85834912         41.37526763          9.41258053    0.2369    0.0973   -0.0271
   83         13.80922322         41.27103280          9.48925734    0.2510   -0.1959    0.1630
   83         17.68640103         41.21989577          9.53606659    0.2036   -0.1680    0.1632
   83         21.50628567         41.21934675          9.63291656    0.1041   -0.1491    0.2681
   83         25.46759811         41.22601339          9.57879729    0.1383   -0.1494    0.1791
   83         29.48816581         41.32703255          9.59661743    0.2711   -0.0954    0.1192
   83         33.33332223         41.17401362          9.63166162    0.2040   -0.2676    0.1075
   83         37.29008261         41.29534642          9.72418204    0.2314   -0.1576    0.1058
   83         41.27666683         41.24366037          9.55718095    0.3099   -0.0752   -0.1756
   83         45.09733631         41.16138623          9.73428430    0.2107   -0.1090   -0.0923
   83         49.07324673         41.16593523          9.66830585    0.2393   -0.1842   -0.2324
   83         52.97483301         41.04146519          9.72763312    0.2023   -0.1964   -0.2256
   83         56.85256020         40.88099531          9.73961780    0.1842   -0.1141   -0.2302
   83         60.77164836         41.02232802          9.70206373    0.1871    0.2159   -0.1673
   83         64.83090857         41.11997465          9.57820119    0.2783    0.2605   -0.1907
   83         68.67355352         41.04397498          9.65930166    0.1575    0.1309   -0.0871
   83         72.54916165         41.07417093          9.46127219    0.1080    0.1609   -0.3160
   83         76.61783992         41.22695456          9.55078076    0.2745    0.2724   -0.2241
   83          2.02025914         45.12458435          9.50585392    0.2077    0.2600   -0.1695
   83          5.94332643         45.17611353          9.44947576    0.2182    0.2490   -0.2152
   83          9.87396740         45.27226997          9.49910862    0.2787    0.0540    0.0073
   83         13.69667746         45.24662303          9.44116178    0.1321   -0.1699    0.1283
   83         17.76417847         45.19336836          9.41797677    0.2521   -0.1608    0.1038
   83         21.54395789         45.04042786          9.54005102    0.1232   -0.2731    0.2147
   83         25.46901082         45.13587842          9.61189632    0.1273   -0.1510    0.1997
   83         29.38284056         45.08866294          9.65202301    0.1492   -0.2503    0.1533
   83         33.24408616         45.09752565          9.70993848    0.1207   -0.2839    0.1727
   83         37.27171740         45.09172175          9.78837220    0.2558   -0.2667    0.1261
   83         41.22345482         45.11046677          9.76026156    0.2819   -0.1594   -0.0511
   83         44.92302381         44.98764378          9.72041722    0.0509   -0.2275   -0.1773
   83         49.14333276         45.05195722          9.77368941    0.3354   -0.1954   -0.1367
   83         53.03918972         45.05642779          9.70896590    0.3033   -0.1357   -0.1948
   83         56.80178119         44.85368359          9.62955959    0.1406   -0.0779   -0.2968
   83         60.85727418         44.78984074          9.61214731    0.2377    0.1048   -0.2470
   83         64.69575948         45.03031026          9.63335579    0.1040    0.2861   -0.1600
   83         68.71624870         45.08827079          9.61151984    0.1931    0.2290   -0.1397
   83         72.57341314         45.17454491          9.56207521    0.1716    0.3067   -0.1711
   83         76.60826489         44.94019301          9.47331961    0.2878    0.0804   -0.2561
   83          1.96239304         48.90644994          9.43196935    0.1593    0.0890   -0.2700
   83          5.85354882         49.06644924          9.62792817    0.1491    0.1524   -0.0614
   83          9.84932349         49.21680151          9.44260496    0.2563    0.0237   -0.0391
   83         13.85560714         49.06746884          9.41891798    0.3113   -0.2920    0.1628
   83         17.80789394         49.11123335          9.57418538    0.3016   -0.2051    0.2780
   83         21.70131789         49.04229248          9.50475585    0.2688   -0.2261    0.1813
   83         25.59434943         49.04174346          9.55689859    0.2556   -0.1853    0.1685
   83         29.32790191         49.01013576          9.71003260    0.0998   -0.2535    0.2532
   83         33.23325540         49.05790025          9.72452715    0.1173   -0.2323    0.1695
   83         37.28152788         48.98260647          9.79492926    0.3023   -0.2937    0.0282
   83         41.11797260         49.04707677          9.81215331    0.2231   -0.1649   -0.0909
   83         45.01751830         48.90135193          9.70789920    0.1828   -0.2371   -0.2149
   83         49.00732035         48.86590110          9.66221940    0.2471   -0.2591   -0.2347
   83         52.89838979         48.89617548          9.76957948    0.1971   -0.1908   -0.1370
   83         57.01196079         48.72958798          9.67746691    0.3622   -0.1106   -0.2171
   83         60.82054376         48.83272478          9.50415975    0.2055    0.2260   -0.3324
   83         64.73186203         48.74464674          9.47338236    0.1684    0.1215   -0.3101
   83         68.59302914         48.89735195          9.61911222    0.1103    0.1893   -0.1490
   83         72.77731404         48.94417527          9.52944678    0.3469    0.2062   -0.2238
   83         76.62670859         48.90637151          9.56395762    0.2513    0.1459   -0.1639
   83          2.02978707         52.94149089          9.55840452    0.2555    0.2249   -0.1536
   83          5.82801019         52.92313803          9.53041936    0.1326    0.1405   -0.1733
   83          9.79022519         53.00556903          9.47642559    0.1622   -0.0852   -0.0071
   83         13.72351891         53.01411802          9.38468950    0.1875   -0.2536    0.1033
   83         17.72218964         53.14164686          9.50375190    0.2316   -0.1009    0.1611
   83         21.58932152         53.05254922          9.48787691    0.1303   -0.1468    0.1105
   83         25.49836376         52.96454961          9.57572268    0.1760   -0.2017    0.1821
   83         29.31047850         52.89388326          9.65014060    0.1198   -0.2934    0.2234
   83         33.28120900         52.98745147          9.70306768    0.1795   -0.1711    0.1795
   83         37.20053260         52.87560883          9.71332681    0.1997   -0.2911    0.0267
   83         41.01547277         52.87082453          9.76986184    0.0944   -0.2381   -0.1121
   83         45.06594280         52.89364796          9.73952368    0.2227   -0.1633   -0.2298
   83         48.95771859         52.78015827          9.80669432    0.1861   -0.2723   -0.1302
   83         52.82642016         52.74902115          9.78520348    0.1143   -0.1903   -0.1757
   83         56.87500657         52.86800102          9.69848715    0.1993    0.1504   -0.2315
   83         60.79228960         52.64635494          9.70382065    0.1723    0.0841   -0.1339
   83         64.68618446         52.73317809          9.58538572    0.1600    0.1739   -0.2021
   83         68.71342328         52.82125613          9.62133974    0.2356    0.2401   -0.1824
   83         72.65330964         52.84878542          9.71900541    0.2024    0.2339   -0.0721
   83         76.64907647         52.80784442          9.67006277    0.2799    0.1235   -0.0655
   83          2.08747266         56.86531664          9.54670220    0.2611    0.2213   -0.1761
   83          5.98734798         56.85731667          9.50823830    0.1898    0.1574   -0.2345
   83          9.76872063         56.95010057          9.42754569    0.0418   -0.0389   -0.2127
   83         13.81801340         56.98641414          9.48684158    0.1506   -0.1889   -0.0128
   83         17.70994617         56.93566927          9.52408192    0.0157   -0.1726   -0.0031
   83         21.55212021         56.86578722          9.51328944   -0.1131   -0.2026   -0.0554
   83         25.41721151         56.90939487          9.57848355   -0.0767   -0.1989   -0.0042
   83         29.39218013         56.97990436          9.58805247    0.0222   -0.1463   -0.0201
   83         33.25782083         56.87033622          9.55592601   -0.0478   -0.2026   -0.1354
   83         37.26645899         56.78390523          9.62378687    0.0321   -0.2741   -0.1571
   83         41.09717440         56.80092477          9.78297596   -0.0824   -0.1994   -0.1460
   83         45.09765025         56.81096394          9.75163385    0.0208   -0.1489   -0.2609
   83         49.01250028         56.67386650          9.75106912    0.0439   -0.3056   -0.2759
   83         53.01093555         56.69410171          9.82627138    0.1602   -0.1989   -0.2317
   83         56.91016731         56.72759176          9.77569731    0.2029    0.0778   -0.1729
   83         60.74755384         56.74170934          9.65039159    0.1301    0.2391   -0.2103
   83         64.73617863         56.63182748          9.67963168    0.1716    0.1039   -0.1533
   83         68.83005020         56.69935659          9.59655468    0.3137    0.1638   -0.1789
   83         72.65982380         56.84468928          9.50036356    0.1784    0.3153   -0.2291
   83         76.60755854         56.69668993          9.58372292    0.2131    0.1063   -0.1407
   83          2.18166106         60.74506415          9.66137231    0.0483    0.1908    0.0662
   83          6.08164626         60.76600523          9.53129782    0.0287    0.0510   -0.1966
   83          9.86345057         60.89071056          9.50064592   -0.1029   -0.0731   -0.2991
   83         13.78269569         60.84506371          9.53506264   -0.1400   -0.2164   -0.1896
   83         17.77006475         60.74953472          9.48116298   -0.1191   -0.2630   -0.2601
   83         21.57809834         60.85157348          9.57716586   -0.2444   -0.1491   -0.1980
   83         25.69221872         60.81973049          9.57810707   -0.0361   -0.2015   -0.2366
   83         29.48016046         60.80200507          9.76791669   -0.1381   -0.2114   -0.0961
   83         33.43401694         60.76412289          9.74840238   -0.1232   -0.2464   -0.1689
   83         37.38952158         60.76984835          9.76477934   -0.1180   -0.2118   -0.2103
   83         41.16867313         60.70922117          9.86357446   -0.2546   -0.2097   -0.1613
   83         45.18115700         60.72278974          9.80214516   -0.1594   -0.1862   -0.2285
   83         49.04616983         60.75424058          9.80336873   -0.2050   -0.1795   -0.2200
   83         52.98856767         60.70545648          9.89865002   -0.1199   -0.2447   -0.1495
   83         56.98684597         60.72420150          9.58745637    0.0233    0.0180   -0.2999
   83         60.95004202         60.76608366          9.67072161    0.0605    0.3324   -0.0323
   83         64.81631059         60.67078997          9.60367646   -0.0275    0.2479   -0.0272
   83         68.83413135         60.66577038          9.55994182    0.0554    0.2307    0.0115
   83         72.75777157         60.65408416          9.61290027    0.0322    0.2174    0.0860
   83         76.73368199         60.76718170          9.51802683    0.0515    0.2865   -0.0463
   83          2.07967137         64.63594887          9.54927483   -0.2346    0.2327    0.1529
   83          6.12398042         64.77696785          9.47677069   -0.0978    0.1207   -0.1005
   83          9.83551034         64.92018290          9.54682770   -0.2671    0.0458   -0.2339
   83         13.94146840         64.83461466          9.60747266   -0.0662   -0.1455   -0.1959
   83         17.73325585         65.08661354          9.69629101   -0.1787    0.0735   -0.1035
   83         21.79848083         64.83053624          9.60082148   -0.0815   -0.1388   -0.2087
   83         25.66435698         64.75437972          9.72342908   -0.1955   -0.1804   -0.1088
   83         29.47859079         64.67406635          9.66545087   -0.2866   -0.2360   -0.2155
   83         33.43291817         64.79743835          9.74648859   -0.2274   -0.1369   -0.1612
   83         37.43512066         64.56253743          9.76534406   -0.1597   -0.3734   -0.1729
   83         41.29047998         64.60943918          9.82655374   -0.2045   -0.2740   -0.1598
   83         45.18633693         64.62096854          9.89030467   -0.2257   -0.2041   -0.1014
   83         49.16954635         64.68536041          9.92594496   -0.1850   -0.2260   -0.0180
   83         53.01485974         64.79477169          9.79756464   -0.2678   -0.1839   -0.1317
   83         57.09460422         64.57383150          9.84343268   -0.1700   -0.1220    0.0537
   83         61.06219536         64.62818420          9.69177323   -0.1554    0.2139    0.1310
   83         64.93584140         64.60073334          9.61277478   -0.1641    0.2350    0.1587
   83         68.78609927         64.57210601          9.48037865   -0.2288    0.1961    0.0888
   83         72.80062372         64.59359612          9.43510670   -0.1400    0.1788    0.0672
   83         76.64366108         64.48206720          9.47008814   -0.2053    0.0966    0.0940
   83          1.96070564         68.45804958          9.47278626   -0.3168    0.1585    0.0293
   83          6.12781828         68.60306854          9.54215305   -0.0851    0.0468   -0.0136
   83          9.86093909         68.69891126          9.67740417   -0.2294   -0.1101   -0.0684
   83         13.66889420         68.74408753          9.69698122   -0.3148   -0.1815   -0.1090
   83         17.73333434         68.70134262          9.68443183   -0.2268   -0.2294   -0.1493
   83         21.76724428         68.65342126          9.67009414   -0.1926   -0.1986   -0.1783
   83         25.70540400         68.64934285          9.77601105   -0.2157   -0.2004   -0.0969
   83         29.70030750         68.80432255          9.72358594   -0.1485   -0.0420   -0.1882
   83         33.51579705         68.73530325          9.72117019   -0.2194   -0.1275   -0.2336
   83         37.44532355         68.63820564          9.79656068   -0.1743   -0.2351   -0.1952
   83         41.48072469         68.64510757          9.90147364   -0.0311   -0.1949   -0.0970
   83         45.28663922         68.54306881          9.85576246   -0.1311   -0.2256   -0.1013
   83         49.14976843         68.68902895          9.77610517   -0.2111   -0.1314   -0.1903
   83         53.19866878         68.64079387          9.89221846   -0.1496   -0.2235   -0.0713
   83         57.08534313         68.58589215          9.77243447   -0.2157   -0.0228    0.0028
   83         60.98261280         68.57193143          9.71470725   -0.2271    0.1712    0.1377
   83         64.84079753         68.61718613          9.61785728   -0.2634    0.2488    0.1255
   83         68.76475168         68.57122555          9.66968629   -0.2255    0.2351    0.2444
   83         72.70573682         68.52730417          9.53339984   -0.1945    0.1538    0.1545
   83         76.68266753         68.64189190          9.57023232   -0.1308    0.3024    0.1501
   83          2.05514519         72.53363936          9.64377178   -0.1933    0.2476    0.1569
   83          6.06527454         72.46375732          9.63125376   -0.1512   -0.0634    0.0293
   83          9.89421622         72.55842357          9.65007786   -0.2387   -0.2421   -0.1158
   83         13.79101498         72.52156098          9.73259014   -0.2477   -0.2571   -0.0980
   83         17.87452668         72.61559978          9.76503033   -0.1340   -0.1039   -0.1111
   83         21.85624490         72.45583578          9.66350571   -0.1256   -0.2433   -0.2447
   83         25.74182048         72.58281561          9.72223688   -0.1677   -0.1426   -0.2104
   83         29.62166674         72.56995293          9.83179311   -0.1882   -0.1618   -0.0988
   83         33.52702023         72.60877628          9.76904613   -0.2003   -0.1755   -0.1947
   83         37.46957504         72.65912900          9.85777036   -0.1869   -0.1436   -0.1641
   83         41.33293971         72.44736523          9.95295753   -0.2234   -0.3204   -0.0390
   83         45.26544859         72.40807129          9.82175360   -0.1986   -0.3200   -0.1295
   83         49.24198689         72.52422764          9.76339890   -0.1511   -0.1710   -0.2242
   83         53.07811768         72.60642335          9.81519654   -0.2811   -0.0976   -0.1563
   83         57.07984927         72.45756127          9.83806781   -0.1870   -0.0633    0.0563
   83         60.91252677         72.58493325          9.79885095   -0.2413    0.2374    0.1760
   83         64.89942492         72.50587478          9.74680233   -0.1613    0.2106    0.1903
   83         68.81662947         72.53222760          9.79565085   -0.1499    0.2531    0.2893
   83         72.51313759         72.50775712          9.72512325   -0.3549    0.1940    0.2475
   83         76.50191936         72.35803230          9.63646176   -0.2646    0.0476    0.1610
   83          2.07103031         76.41613196          9.66105858   -0.1324    0.1908    0.1934
   83          5.99753518         76.54930784          9.63655588   -0.1402    0.0363    0.1430
   83          9.92003738         76.60185663          9.75502218   -0.0833   -0.1340    0.1390
   83         14.07049576         76.52193541          9.63316754    0.1463   -0.1498   -0.0749
   83         17.80208614         76.34970088          9.80412169   -0.0589   -0.2236    0.0953
   83         21.80428863         76.30358344          9.71445626   -0.0182   -0.2443   -0.0085
   83         25.74684344         76.54052357          9.87624935   -0.0126   -0.0752    0.0956
   83         29.61813497         76.50005316          9.86482940   -0.0036   -0.1296    0.0622
   83         33.47380822         76.51628838          9.77826994   -0.0314   -0.1577   -0.0114
   83         37.50183188         76.50193550          9.95273792    0.0531   -0.1576    0.1181
   83         41.52679468         76.46907290          9.89711272    0.1441   -0.1596    0.0367
   83         45.37155868         76.50789626          9.86156656    0.0593   -0.1253    0.0234
   83         49.18218224         76.48562185          9.77645028   -0.0431   -0.1414   -0.0226
   83         53.08400396         76.38679876          9.83270294   -0.0931   -0.2195    0.0638
   83         56.97059983         76.52828833          9.84064044   -0.1779    0.0968    0.1024
   83         60.86182624         76.42577898          9.82329090   -0.2348    0.1675    0.1703
   83         64.72189458         76.38358309          9.81143172   -0.2772    0.1992    0.2093
   83         68.80297329         76.37675959          9.71771910   -0.1409    0.1595    0.1522
   83         72.59334803         76.42977896          9.79530574   -0.2783    0.1863    0.2501
   83         76.44109442         76.47840619          9.65676041   -0.2757    0.2761    0.1364
