CRYSTAL
PRIMVEC
    78.0960124789999952    0.0000000000000000    0.0000000000000000
     0.0000000000000000   78.2688572285999982    0.0000000000000000
     0.0000000000000000    0.0000000000000000   31.2816626165999985
PRIMCOORD
  400    1
   83          1.84843890          1.87880478          9.64407402    0.0085    0.2205   -0.0416
   83          5.80968732          1.99229463          9.62449170    0.1219    0.1362    0.0937
   83          9.75794057          1.98600964          9.73572929    0.1860   -0.1082    0.2371
   83         13.65571255          1.84805295          9.76860632    0.1355   -0.2598    0.2206
   83         17.61408704          1.91851840          9.77883542    0.1919   -0.1579    0.2275
   83         21.47835583          1.86216482          9.72252843    0.1868   -0.2017    0.1581
   83         25.35746287          1.86149954          9.73748107    0.1801   -0.2023    0.1393
   83         29.29092473          1.88631859          9.81659239    0.2200   -0.2032    0.1569
   83         33.14660296          1.90531445          9.87702856    0.1711   -0.2125    0.1543
   83         37.08014292          1.84440562          9.86579845    0.2395   -0.2740    0.0609
   83         40.94909747          1.83977993          9.89448373    0.2439   -0.2379    0.0208
   83         44.83234360          1.89969474          9.91656858    0.2281   -0.1729    0.0173
   83         48.70067338          1.85883840          9.83764495    0.1958   -0.2298   -0.0637
   83         52.77408330          1.83490378          9.86173183    0.2576   -0.1268   -0.1440
   83         56.67388578          1.85349263          9.84621613    0.1765    0.0982   -0.1216
   83         60.35806516          1.79570674          9.82331795   -0.0507    0.1125    0.0265
   83         64.35814292          1.93652024          9.77880414    0.0511    0.1967    0.0372
   83         68.18023987          1.96508837          9.77139039   -0.0197    0.2174    0.0668
   83         72.08746147          1.96010265          9.78696866   -0.0208    0.2311    0.0519
   83         76.01569090          1.87417909          9.75465470   -0.0015    0.1741   -0.0073
   83          1.86560440          5.85563759          9.63900639    0.2492    0.2602   -0.1408
   83          5.74966273          5.86373842          9.63071675    0.2028    0.0303    0.0509
   83          9.76426634          5.85091798          9.69137190    0.2527   -0.1974    0.1935
   83         13.61807027          5.80545160          9.72903502    0.1625   -0.2409    0.2029
   83         17.52966525          5.78337978          9.69168471    0.1589   -0.2415    0.1636
   83         21.49350646          5.78535216          9.75233986    0.2036   -0.2397    0.2314
   83         25.35754096          5.78669056          9.74827324    0.1492   -0.2270    0.2117
   83         29.24844050          5.74897279          9.76353869    0.1454   -0.2567    0.1864
   83         33.20790833          5.78507039          9.81330782    0.2169   -0.2337    0.1907
   83         37.04000157          5.78422509          9.79566496    0.2045   -0.2649    0.1132
   83         40.88138823          5.84305196          9.78064976    0.1844   -0.2175    0.0939
   83         44.74284557          5.73625410          9.85122119    0.1607   -0.2914    0.1901
   83         48.67513599          5.83519377          9.90890458    0.2379   -0.1456    0.1450
   83         52.63030854          5.84313023          9.85750881    0.2304    0.0372   -0.0532
   83         56.62367004          5.93584752          9.85913545    0.2354    0.2788   -0.0972
   83         60.43100684          5.96610626          9.80276590    0.1749    0.3080   -0.1198
   83         64.31034816          5.87364726          9.78371536    0.1793    0.1974   -0.1105
   83         68.33838430          5.88815048          9.77980516    0.2940    0.2133   -0.1219
   83         72.14697063          5.85756301          9.77611392    0.2183    0.1884   -0.1547
   83         76.02771768          5.73477482          9.78365280    0.2126    0.1160   -0.1309
   83          1.93502395          9.74556849          9.63691052    0.2508    0.1655   -0.0887
   83          5.88009088          9.85256202          9.68758681    0.2461    0.0507    0.1276
   83          9.75380148          9.80974895          9.62017483    0.2089   -0.1698    0.1576
   83         13.58448899          9.75910900          9.73025500    0.1493   -0.2226    0.2460
   83         17.54731495          9.66502983          9.74392509    0.2297   -0.2807    0.2510
   83         21.38534348          9.74470753          9.70307124    0.1454   -0.2074    0.1913
   83         25.35504189          9.68130976          9.74980604    0.1565   -0.2670    0.2333
   83         29.26476256          9.70940828          9.71918129    0.1554   -0.2238    0.1804
   83         33.11411502          9.63497459          9.70982808    0.0979   -0.3090    0.1467
   83         36.98447530          9.85905833          9.78140052    0.0536   -0.0947    0.2119
   83         40.88958831          9.66166427          9.73723081    0.0383   -0.3274    0.1593
   83         44.78290882          9.75613478          9.77689596    0.0382   -0.2279    0.2287
   83         48.63600988          9.70799944          9.79879312    0.0384   -0.2567    0.1923
   83         52.51191498          9.74055928          9.77695852    0.0526   -0.0006    0.0057
   83         56.62312337          9.78517253          9.81152476    0.2638    0.2221   -0.0904
   83         60.42764871          9.83589075          9.72962937    0.1470    0.2348   -0.1948
   83         64.42265023          9.78438984          9.78205744    0.2312    0.2079   -0.1289
   83         68.31534597          9.79331249          9.74592711    0.2250    0.2119   -0.1867
   83         72.25778887          9.77781526          9.78149437    0.2661    0.1801   -0.1603
   83         76.08379062          9.79652152          9.69765951    0.2072    0.2382   -0.1615
   83          2.03503370         13.75402974          9.64260378    0.2452    0.1984   -0.1004
   83          5.88528426         13.71419089          9.61992458    0.1441   -0.0483    0.0570
   83          9.71475347         13.68984928          9.62743218    0.1161   -0.2574    0.1923
   83         13.63759428         13.69407580          9.68840014    0.1590   -0.2149    0.2569
   83         17.49748969         13.73673233          9.60087405    0.0919   -0.1361    0.1716
   83         21.38292250         13.64766237          9.66027792    0.0461   -0.2335    0.1854
   83         25.32200728         13.65001043          9.66337481    0.0749   -0.2407    0.1704
   83         29.12879741         13.70065038          9.65464722   -0.0574   -0.1891    0.1442
   83         33.09240433         13.62543401          9.72437405   -0.0487   -0.2139    0.1836
   83         36.96604464         13.59467435          9.73106833   -0.1209   -0.2060    0.2117
   83         40.88482445         13.67482166          9.71201779   -0.1322   -0.1878    0.1864
   83         44.79837183         13.70018077          9.70732554   -0.1130   -0.2061    0.1886
   83         48.69528476         13.75254263          9.69931744   -0.1295   -0.1901    0.1862
   83         52.63507239         13.71763472          9.68627298   -0.0548   -0.0637    0.0248
   83         56.52300428         13.69376272          9.74267382    0.0500    0.1789   -0.0865
   83         60.58594933         13.59569184          9.76544687    0.2391    0.1415   -0.1382
   83         64.45021812         13.72178297          9.72127716    0.1957    0.2755   -0.1888
   83         68.32737276         13.69634560          9.69500057    0.2144    0.2129   -0.2370
   83         72.20569883         13.74862919          9.73369598    0.1723    0.2311   -0.2129
   83         76.20421467         13.72327008          9.71308137    0.2618    0.2020   -0.1379
   83          2.06403075         17.64446156          9.69340520    0.1823    0.1536   -0.1133
   83          5.94976033         17.77423133          9.61610821    0.1214    0.0816    0.0013
   83          9.75427005         17.66277647          9.62242711    0.0345   -0.2223    0.2062
   83         13.57699177         17.69126634          9.67275931   -0.0340   -0.1533    0.2573
   83         17.50670502         17.61229306          9.59001931   -0.0461   -0.2237    0.1081
   83         21.38589015         17.64837500          9.74780401   -0.1070   -0.1705    0.2546
   83         25.24976847         17.61221479          9.66215482   -0.1633   -0.2012    0.1820
   83         29.21681161         17.51085662          9.75158910   -0.1608   -0.2876    0.2508
   83         33.19064911         17.46405184          9.66353122   -0.1392   -0.2526    0.1517
   83         36.99978212         17.43063104          9.69312367   -0.2220   -0.2791    0.1917
   83         40.91450094         17.50177743          9.71711670   -0.1906   -0.2757    0.1928
   83         44.81008623         17.52979768          9.68377045   -0.2040   -0.2556    0.1754
   83         48.73042796         17.57558497          9.67257162   -0.2019   -0.2236    0.1984
   83         52.71012266         17.59742198          9.71692901   -0.1403   -0.1931    0.1469
   83         56.64038259         17.64156561          9.73109961   -0.0082    0.0885    0.0203
   83         60.42491535         17.54529492          9.67285315    0.0083    0.2026   -0.1272
   83         64.46732115         17.58168994          9.78262051    0.1922    0.2481   -0.0747
   83         68.32417082         17.61440632          9.75881516    0.1639    0.2367   -0.1601
   83         72.32299904         17.60908404          9.70695016    0.2387    0.1972   -0.2100
   83         76.26270859         17.66199378          9.71874335    0.2451    0.2055   -0.1389
   83          2.06704526         21.57895874          9.61028983    0.1877    0.1538   -0.2198
   83          5.96569192         21.64251306          9.61432516    0.1546    0.0590   -0.0769
   83          9.81729354         21.66693294          9.56727754    0.0091   -0.1029    0.0792
   83         13.64399815         21.50225526          9.60562886   -0.1371   -0.2557    0.1768
   83         17.55036069         21.44965859          9.62086303   -0.1441   -0.2960    0.1505
   83         21.45719181         21.46985196          9.66803577   -0.1504   -0.2868    0.1943
   83         25.33832934         21.46961715          9.63049778   -0.2330   -0.2595    0.1743
   83         29.34184333         21.47642654          9.60212531   -0.1852   -0.2251    0.1383
   83         33.22063798         21.47556558          9.66187329   -0.2166   -0.1979    0.2212
   83         37.05999415         21.48714937          9.61842306   -0.2685   -0.1844    0.1571
   83         41.03375355         21.42915215          9.70785733   -0.1719   -0.2603    0.1947
   83         44.89934997         21.43549193          9.67964127   -0.2247   -0.2378    0.1880
   83         48.84968057         21.49254993          9.64554426   -0.1809   -0.1907    0.1751
   83         52.68427288         21.48214017          9.68402070   -0.2276   -0.2542    0.1412
   83         56.68005536         21.48918437          9.76769915   -0.0720   -0.1434    0.1771
   83         60.40664088         21.47775711          9.68133048   -0.0813    0.0963    0.0161
   83         64.53292180         21.49716779          9.73084935    0.2453    0.2277   -0.0791
   83         68.39172387         21.43040445          9.69593902    0.1859    0.1697   -0.1608
   83         72.34556879         21.51524789          9.70354046    0.2137    0.2473   -0.1467
   83         76.29972610         21.56815764          9.67232136    0.2384    0.2052   -0.1722
   83          1.97647731         25.58522847          9.62549271    0.1076    0.2545   -0.1746
   83          6.03148781         25.58335002          9.54879008    0.2036    0.1274   -0.1523
   83          9.81393541         25.52997066          9.57550462    0.0025   -0.1166    0.0576
   83         13.83470861         25.51588226          9.58807985    0.0407   -0.1654    0.1812
   83         17.64454448         25.49842831          9.58463886   -0.0745   -0.1555    0.1599
   83         21.54348791         25.51666495          9.60813139   -0.1095   -0.1554    0.1695
   83         25.41767489         25.40051397          9.61760973   -0.2049   -0.2406    0.1970
   83         29.39830675         25.40168800          9.59808998   -0.1695   -0.2218    0.1838
   83         33.27210325         25.46500751          9.60612936   -0.2011   -0.1597    0.1825
   83         37.21126612         25.37335467          9.61923638   -0.1484   -0.2371    0.1669
   83         41.05437090         25.44434453          9.71245574   -0.1936   -0.1544    0.2507
   83         45.01844639         25.39041728          9.65424056   -0.1346   -0.2029    0.2118
   83         48.82383079         25.38086848          9.58323119   -0.2461   -0.2245    0.1571
   83         52.78033098         25.35096978          9.69271701   -0.1662   -0.2959    0.2077
   83         56.71644810         25.37985099          9.65796308   -0.0876   -0.2550    0.1762
   83         60.55799096         25.35691821          9.57059340   -0.0584   -0.1269    0.0654
   83         64.38430509         25.32788047          9.62968446   -0.0019    0.0353   -0.0359
   83         68.44303295         25.34416039          9.67992281    0.2071    0.1734   -0.0698
   83         72.33627537         25.37272852          9.66734758    0.1850    0.1982   -0.1242
   83         76.21218047         25.43651764          9.60071764    0.1640    0.1716   -0.2174
   83          2.05505752         29.36037026          9.58319991    0.1888    0.1476   -0.1722
   83          5.99883586         29.48192180          9.53011492    0.1754    0.1494   -0.1177
   83          9.84509572         29.47542548          9.52210682    0.0798   -0.0491    0.0772
   83         13.89937211         29.43582144          9.58141685    0.2145   -0.1754    0.2151
   83         17.69999265         29.32812349          9.61072777    0.1124   -0.2626    0.1768
   83         21.64040506         29.31004339          9.61995586    0.0700   -0.2427    0.2016
   83         25.58565942         29.29924228          9.62793268   -0.0109   -0.2154    0.2389
   83         29.39479243         29.36741446          9.57681845   -0.1652   -0.1491    0.1751
   83         33.31786752         29.35223030          9.60056123   -0.1508   -0.1859    0.1505
   83         37.17745055         29.34729936          9.65167547   -0.1838   -0.2038    0.1669
   83         41.10888191         29.30362534          9.59224031   -0.1427   -0.2312    0.1548
   83         44.93550843         29.31450471          9.61313646   -0.2036   -0.2113    0.2294
   83         48.87123507         29.32240987          9.60791242   -0.1856   -0.1945    0.2269
   83         52.82422094         29.31528740          9.58804856   -0.1393   -0.1845    0.1947
   83         56.73487876         29.24617600          9.62665014   -0.1010   -0.2762    0.2456
   83         60.60469237         29.30612994          9.56274170   -0.1271   -0.1928    0.1646
   83         64.53503039         29.26167323          9.61466926   -0.0290   -0.1302    0.1053
   83         68.34408530         29.31990526          9.64860986    0.0021    0.1287   -0.0233
   83         72.26794136         29.33461981          9.67569978    0.1075    0.2367   -0.0776
   83         76.18570592         29.37931132          9.60109302    0.1610    0.2145   -0.1682
   83          2.09925205         33.27459581          9.50743572    0.0672    0.1453   -0.1176
   83          5.99223675         33.27193467          9.54591216    0.1297    0.0052   -0.0252
   83          9.85884062         33.26379471          9.48363037    0.1350   -0.1197    0.0573
   83         13.76207932         33.32108751          9.58851779    0.1377   -0.1619    0.2200
   83         17.68007817         33.34073300          9.65189444    0.1866   -0.1504    0.2537
   83         21.60307516         33.25401110          9.57250158    0.1798   -0.1674    0.2066
   83         25.57589741         33.24673210          9.59909099    0.1491   -0.1473    0.2418
   83         29.38346850         33.30245952          9.61313646   -0.0445   -0.0803    0.2206
   83         33.36902040         33.27389139          9.56102121   -0.0693   -0.1171    0.1252
   83         37.24773696         33.22286010          9.62080046   -0.1652   -0.2299    0.1515
   83         41.10029135         33.28469249          9.54256503   -0.2231   -0.1828    0.1047
   83         44.95323622         33.22888680          9.54040659   -0.2582   -0.2263    0.1173
   83         48.96947986         33.18967410          9.53906148   -0.1403   -0.2566    0.1077
   83         52.78462626         33.20462345          9.52251348   -0.2383   -0.2088    0.1401
   83         56.66591998         33.20368423          9.49895839   -0.2221   -0.2163    0.1404
   83         60.60344284         33.23178275          9.54103222   -0.1476   -0.2263    0.1206
   83         64.52331599         33.28500557          9.58470143   -0.1506   -0.1513    0.1131
   83         68.42444610         33.22286010          9.52176272   -0.1118   -0.0062   -0.0167
   83         72.28410723         33.22747796          9.56655806   -0.0747    0.1946   -0.0312
   83         76.27981161         33.21879012          9.54606857    0.0363    0.1894   -0.0619
   83          2.06608468         37.13888583          9.50812392   -0.0250    0.0050    0.0971
   83          6.07033276         37.13888583          9.55898790    0.2060   -0.1356    0.1065
   83          9.86696260         37.08261052          9.53984352    0.1794   -0.2001    0.1107
   83         13.77582422         37.15007828          9.59308491    0.1897   -0.1772    0.2190
   83         17.67632956         37.18201197          9.52870725    0.2041   -0.1759    0.1604
   83         21.51209331         37.16933242          9.56490013    0.1650   -0.1392    0.1961
   83         25.44524279         37.18576888          9.56784061    0.1446   -0.0675    0.2302
   83         29.51045262         37.12377994          9.59740178    0.2006   -0.0585    0.2282
   83         33.40267979         37.05748622          9.60803755    0.0593   -0.0957    0.2087
   83         37.31786718         37.12025784          9.61491951   -0.0182   -0.1791    0.1181
   83         41.12817163         37.20815377          9.55779920   -0.1082   -0.2051    0.0034
   83         45.05335531         37.13567681          9.60932009   -0.0462   -0.2501    0.0060
   83         48.99454868         37.16510590          9.63834948    0.0385   -0.1888    0.0161
   83         52.90661223         37.17575046          9.52842571    0.0650   -0.1890   -0.0072
   83         56.73815879         37.25425413          9.53449436   -0.0170   -0.1131    0.0152
   83         60.58509027         37.21997237          9.48904210   -0.0793   -0.1536   -0.0449
   83         64.53620183         37.20392725          9.60074892   -0.0864   -0.0693    0.1269
   83         68.48215905         37.16917588          9.55942584   -0.1185    0.0661    0.1345
   83         72.27684430         37.12636281          9.65661797   -0.2667    0.1474    0.2370
   83         76.19023549         37.01921275          9.55648537   -0.2166    0.0707    0.1808
   83          1.99633713         41.02462152          9.51669509    0.1430   -0.1616    0.1892
   83          5.96656659         41.04684987          9.49817635    0.2528   -0.1938    0.1368
   83          9.82908603         41.06312979          9.58438861    0.2118   -0.1404    0.1917
   83         13.77230990         41.00661968          9.51800892    0.2279   -0.2061    0.1646
   83         17.64665308         41.01820347          9.53070928    0.2239   -0.2101    0.1724
   83         21.54793938         41.05506810          9.57988405    0.2426   -0.1713    0.2000
   83         25.40166521         41.03370070          9.54319066    0.1270   -0.0755    0.2097
   83         29.57199228         41.05389407          9.61454413    0.3075    0.0858    0.2321
   83         33.38557676         41.06266018          9.72221561    0.1614    0.1164    0.2688
   83         37.25343797         41.13263254          9.70222663    0.1150   -0.0051    0.0817
   83         41.10661713         41.14100731          9.64626374    0.0992   -0.2011   -0.1059
   83         45.07326979         41.07549627          9.62370966    0.2000   -0.2596   -0.1420
   83         48.88497997         41.08778448          9.60469041    0.1463   -0.1765   -0.1802
   83         52.85647459         41.07862703          9.52260733    0.2088   -0.1727   -0.1808
   83         56.73831499         41.06766939          9.53465077    0.1450   -0.1891   -0.1444
   83         60.68520936         41.00333239          9.52939545    0.1187   -0.1802   -0.1258
   83         64.49715383         40.98728727          9.57281439   -0.0157   -0.0740    0.0532
   83         68.31753266         41.09874212          9.57810099   -0.1076    0.1403    0.1357
   83         72.29324446         40.93359484          9.59655718   -0.0162    0.0663    0.1819
   83         76.21303952         41.08770622          9.51963557    0.0901    0.1365    0.1683
   83          1.89790491         44.94080379          9.46229628    0.1588   -0.1859    0.0890
   83          5.89131327         44.98017302          9.53308668    0.2556   -0.1625    0.1677
   83          9.72701455         44.91560122          9.49564253    0.1746   -0.1829    0.1310
   83         13.71506552         44.89720803          9.54581832    0.2313   -0.2241    0.2082
   83         17.55606170         44.94910029          9.58448245    0.1865   -0.1777    0.2247
   83         21.49553695         44.95450084          9.56536936    0.2124   -0.1755    0.2020
   83         25.45086570         44.91607083          9.59518078    0.1999   -0.0617    0.2306
   83         29.44250909         44.91466199          9.55729869    0.2014    0.1135    0.1612
   83         33.36574037         44.99034797          9.62549271    0.1805    0.1699    0.1290
   83         37.24359787         45.02885625          9.69706516    0.1908   -0.0088    0.0031
   83         41.17213968         45.05257172          9.66365634    0.2385   -0.1972   -0.1775
   83         44.99790714         44.99747044          9.67241521    0.1549   -0.2644   -0.1491
   83         48.96807413         44.96350176          9.59439874    0.2276   -0.2454   -0.1921
   83         52.81071033         44.94440416          9.53599588    0.1457   -0.2007   -0.2310
   83         56.77166198         44.95951004          9.58585885    0.2269   -0.1619   -0.1480
   83         60.53057926         44.85110768          9.56646422    0.0716   -0.1509   -0.0929
   83         64.51363208         44.92710674          9.52326424    0.1403   -0.0284   -0.0483
   83         68.36345312         44.87615371          9.56164684    0.1259   -0.0559    0.0375
   83         72.27278331         44.96639770          9.48187860    0.1986    0.1803    0.0164
   83         76.15532657         44.90002571          9.49542356    0.2448    0.0020    0.0665
   83          1.91553899         48.87577058          9.50834289    0.2107   -0.0853    0.0752
   83          5.82247164         48.82004316          9.46698853    0.2145   -0.2149    0.0471
   83          9.69265230         48.82419141          9.47850018    0.1685   -0.1868    0.1237
   83         13.66531836         48.87490963          9.59083263    0.2248   -0.1531    0.2620
   83         17.57246186         48.79969326          9.50965672    0.2354   -0.2374    0.1346
   83         21.47281102         48.87412694          9.53333694    0.1977   -0.1277    0.1903
   83         25.47944884         48.82317391          9.60547245    0.2230   -0.0320    0.2352
   83         29.46734362         48.82880927          9.60731807    0.2416    0.1254    0.1769
   83         33.33176861         48.93220243          9.64000741    0.1803    0.1915    0.1573
   83         37.23047774         48.98432949          9.66265533    0.1747    0.0043   -0.0066
   83         41.12637542         48.89940778          9.64416787    0.1803   -0.2485   -0.1791
   83         45.03843897         48.91506155          9.64282275    0.2030   -0.2217   -0.1989
   83         48.92691753         48.90363430          9.58786087    0.1958   -0.2240   -0.2210
   83         52.82039423         48.93963797          9.60052995    0.1860   -0.1215   -0.1787
   83         56.71184044         48.80540688          9.57697486    0.1949   -0.2085   -0.1621
   83         60.54416796         48.74983599          9.54775778    0.1736   -0.1620   -0.0573
   83         64.49012518         48.77848240          9.48547599    0.2552   -0.1271   -0.0579
   83         68.31971935         48.77879547          9.50878083    0.2016   -0.1461   -0.0424
   83         72.24943260         48.74232218          9.53058415    0.2545   -0.0081    0.0507
   83         76.13057013         48.82833966          9.55761151    0.2482    0.0610    0.1157
   83          1.92790940         52.74616557          9.45716609    0.2120   -0.0397    0.0038
   83          5.75551993         52.71830186          9.52526627    0.1091   -0.1811    0.1711
   83          9.77637123         52.74898325          9.50261834    0.2544   -0.1908    0.1692
   83         13.61307213         52.76119320          9.55022903    0.2109   -0.1894    0.1890
   83         17.52622902         52.75845379          9.58182351    0.2235   -0.2044    0.1774
   83         21.36660044         52.75023556          9.56408681    0.1520   -0.1447    0.1697
   83         25.43782366         52.77903849          9.64520016    0.2540    0.0612    0.2432
   83         29.40486681         52.79226593          9.64889140    0.2476    0.1836    0.1798
   83         33.31771132         52.87812687          9.66259277    0.2312    0.2248    0.1695
   83         37.22337100         52.85809004          9.69412468    0.2048   -0.0333    0.0343
   83         41.08357880         52.92673183          9.68736784    0.1478   -0.1326   -0.1510
   83         44.99298709         52.88665817          9.69572005    0.1519   -0.1553   -0.1308
   83         48.94706630         52.81034604          9.58391938    0.2163   -0.2110   -0.2091
   83         52.84015252         52.71352746          9.62796397    0.2302   -0.2603   -0.1525
   83         56.71808812         52.74162598          9.54359732    0.2152   -0.1964   -0.2063
   83         60.57189205         52.71978897          9.56402425    0.2052   -0.1855   -0.0511
   83         64.43209985         52.69489947          9.57053083    0.2117   -0.1932   -0.0035
   83         68.32573274         52.65153853          9.54447321    0.2149   -0.2254   -0.0722
   83         72.12853997         52.64950354          9.47871915    0.1467   -0.0285   -0.0372
   83         76.15290559         52.71423188          9.58560859    0.2899    0.1129    0.1056
   83          1.91569519         56.61593441          9.58441989    0.1677    0.0414    0.0482
   83          5.74003349         56.69420327          9.52917647    0.0197   -0.0732    0.0621
   83          9.63728223         56.72605870          9.56296067   -0.0518   -0.1430    0.0617
   83         13.55137628         56.63910200          9.56258529   -0.0547   -0.2489    0.0006
   83         17.44110437         56.68410659          9.58085378   -0.0542   -0.2216   -0.0140
   83         21.38300060         56.63808450          9.62865216    0.0235   -0.1985    0.0284
   83         25.27749255         56.59065357          9.63168648    0.0724   -0.0388    0.0916
   83         29.28561420         56.68457620          9.65843230    0.1837    0.1770    0.1781
   83         33.26304412         56.65616461          9.63049778    0.2243    0.1215    0.1225
   83         37.16495519         56.74852186          9.69881693    0.2100   -0.0112   -0.0141
   83         41.08521882         56.76198410          9.66709733    0.1799   -0.2034   -0.2370
   83         45.04265616         56.74875666          9.63600335    0.1839   -0.2148   -0.2250
   83         48.94870632         56.72840676          9.64044535    0.2111   -0.2164   -0.1561
   83         52.76931944         56.70320419          9.62389735    0.1639   -0.2045   -0.1763
   83         56.77783157         56.70007344          9.58589013    0.2772   -0.1878   -0.1909
   83         60.54487083         56.68473274          9.60810011    0.1404   -0.1960   -0.0932
   83         64.44842191         56.60231563          9.53433795    0.1638   -0.2288   -0.1461
   83         68.33916526         56.53265635          9.58504552    0.1881   -0.2778   -0.1093
   83         72.32307714         56.51809834          9.57516052    0.3350   -0.1155   -0.0023
   83         76.09011640         56.58744455          9.57566103    0.2119    0.1330    0.0391
   83          1.97987449         60.53015996          9.62758859    0.0465    0.1349    0.0750
   83          5.76401677         60.46363144          9.58814241   -0.1268   -0.1556   -0.0518
   83          9.76387586         60.50566181          9.55254388   -0.1219   -0.2529   -0.1748
   83         13.57363364         60.55771060          9.60171865   -0.2510   -0.2248   -0.1854
   83         17.56785420         60.61688186          9.62198917   -0.1663   -0.1713   -0.1935
   83         21.43204490         60.53149053          9.69180984   -0.1972   -0.2342   -0.1087
   83         25.39120035         60.55207524          9.72465558   -0.0277   -0.1079   -0.0238
   83         29.23836611         60.59363601          9.80745815    0.0732    0.1135    0.1805
   83         33.27889761         60.59418389          9.73913899    0.2630    0.1839    0.1423
   83         37.13106152         60.64732844          9.74361227    0.2009   -0.0160   -0.0415
   83         41.02149247         60.63347486          9.75553059    0.1431   -0.2328   -0.2102
   83         45.10115007         60.71119583          9.69919231    0.2621   -0.1559   -0.2480
   83         48.87818562         60.68646287          9.65908922    0.1428   -0.1749   -0.2073
   83         52.76369653         60.61077689          9.66784808    0.1487   -0.2056   -0.1717
   83         56.65615798         60.61273361          9.67388545    0.1436   -0.1852   -0.1343
   83         60.59836660         60.52108078          9.61979945    0.1975   -0.2381   -0.1550
   83         64.55564774         60.59637542          9.56233504    0.2689   -0.1430   -0.1962
   83         68.33963383         60.61938646          9.55316951    0.1891   -0.1140   -0.1743
   83         72.20577693         60.55144909          9.56871650    0.1283    0.0368   -0.0249
   83         76.23826453         60.48202462          9.64125867    0.1569    0.1770    0.1366
   83          1.96663722         64.41675661          9.64113355   -0.1465    0.1440    0.2188
   83          5.85364757         64.44587262          9.56593243   -0.1700   -0.0188   -0.0090
   83          9.71233250         64.47224923          9.61792255   -0.2031   -0.1997   -0.1547
   83         13.62447415         64.43749785          9.67701361   -0.1973   -0.2451   -0.1732
   83         17.49116391         64.41151259          9.71993205   -0.2780   -0.2305   -0.2005
   83         21.53372590         64.40556416          9.76741762   -0.1450   -0.2460   -0.1689
   83         25.38424980         64.48790300          9.80448639   -0.1546   -0.1678   -0.1554
   83         29.40064963         64.49776487          9.85025146    0.0899   -0.0113   -0.0464
   83         33.20056731         64.48445917          9.84265002    0.1386    0.1223    0.0706
   83         37.17456100         64.58933944          9.85394270    0.2481    0.0330   -0.0153
   83         41.13699648         64.60984588          9.81196270    0.2969   -0.1417   -0.1862
   83         44.99837572         64.58096467          9.80210898    0.1854   -0.1774   -0.1822
   83         48.94058433         64.51936708          9.74724094    0.1808   -0.2217   -0.1924
   83         52.82945337         64.50637445          9.72124588    0.1866   -0.2170   -0.1916
   83         56.67318291         64.47811939          9.67682592    0.1512   -0.2326   -0.1935
   83         60.59961613         64.43178423          9.70710657    0.2289   -0.2129   -0.1284
   83         64.43655132         64.42481830          9.68821245    0.2003   -0.2081   -0.1358
   83         68.39531629         64.49244259          9.65067445    0.1499   -0.0686   -0.0839
   83         72.25872603         64.36353378          9.67541825   -0.0579    0.0360    0.0991
   83         76.07387243         64.39703286          9.66146663   -0.2142    0.1800    0.2003
   83          1.88293391         68.37856962          9.59718281   -0.2096    0.2298    0.1703
   83          5.85579521         68.32910370          9.58845523   -0.1731   -0.0391    0.0215
   83          9.69819712         68.45863866          9.66343737   -0.2259   -0.1573   -0.1323
   83         13.66734886         68.44564603          9.69806617   -0.1816   -0.1528   -0.2020
   83         17.63884347         68.39422339          9.72618839   -0.1481   -0.1687   -0.2378
   83         21.43259157         68.41081639          9.73382111   -0.2387   -0.1515   -0.2487
   83         25.46148676         68.38772708          9.80917864   -0.1007   -0.1698   -0.1931
   83         29.35879016         68.34663593          9.84834328   -0.0759   -0.1712   -0.1694
   83         33.23258667         68.35446281          9.90768459    0.0228   -0.0226   -0.0153
   83         37.21126612         68.47186610          9.90402464    0.2079    0.0133   -0.0391
   83         41.07272346         68.47280533          9.84721714    0.2027   -0.1711   -0.1639
   83         44.93113505         68.40807698          9.89454629    0.1259   -0.2119   -0.1199
   83         48.99876586         68.48016260          9.76072334    0.2529   -0.1533   -0.2231
   83         52.78634437         68.43641031          9.75931567    0.1263   -0.2098   -0.1891
   83         56.79087360         68.39437993          9.70451019    0.2445   -0.2080   -0.2164
   83         60.63108882         68.47022245          9.70332149    0.2067   -0.0573   -0.1421
   83         64.51464733         68.43868010          9.67829616    0.1252   -0.0002   -0.0580
   83         68.41398124         68.31595454          9.70976551   -0.0284   -0.0169    0.1101
   83         72.19117298         68.49268562          9.68151817   -0.2313    0.2567    0.1517
   83         76.07762104         68.47241398          9.64094586   -0.2010    0.2875    0.1658
   83          1.78236186         72.28856865          9.63271878   -0.2864    0.2100    0.1727
   83          5.82055829         72.30492685          9.62424145   -0.1959    0.0549    0.0248
   83          9.75239575         72.32809443          9.68245662   -0.2175   -0.1752   -0.1392
   83         13.72654563         72.26047013          9.76166179   -0.1679   -0.2456   -0.1625
   83         17.61564896         72.29467363          9.74558302   -0.1988   -0.2149   -0.2104
   83         21.52833728         72.27635871          9.79147322   -0.1842   -0.2169   -0.2022
   83         25.40674145         72.27283661          9.83141990   -0.1813   -0.2068   -0.1664
   83         29.25625010         72.24184215          9.89611038   -0.2308   -0.2216   -0.1215
   83         33.24445726         72.15425930          9.92620334   -0.0754   -0.2012   -0.1210
   83         37.12582908         72.24818192          9.92495207    0.0150   -0.1739   -0.1479
   83         41.06967771         72.28841212          9.91832036    0.1406   -0.2371   -0.1615
   83         44.99361186         72.39282277          9.91869574    0.2064   -0.0916   -0.1451
   83         48.90262967         72.39540564          9.80192129    0.2047   -0.1474   -0.2129
   83         52.82851622         72.32183292          9.78481022    0.1973   -0.2309   -0.2072
   83         56.72589772         72.32253734          9.70635581    0.1504   -0.1214   -0.2554
   83         60.60961242         72.18298397          9.75302805    0.0644   -0.1156   -0.0663
   83         64.47536504         72.11809908          9.72956681   -0.0650   -0.0698    0.1081
   83         68.33572903         72.41473805          9.63988228   -0.1707    0.2545    0.1446
   83         72.27387665         72.38100417          9.61150981   -0.1369    0.2037    0.1130
   83         76.06254851         72.44815885          9.64060176   -0.2085    0.2749    0.1596
   83          1.90717491         76.29319473          9.63941305   -0.1638    0.2759    0.1425
   83          5.74036930         76.20216805          9.65483491   -0.1936    0.0529    0.1151
   83          9.84689193         76.22729236          9.71129831    0.0147   -0.1693    0.0629
   83         13.72349989         76.28090652          9.78471638   -0.0230   -0.1648    0.0559
   83         17.60370027         76.14581448          9.80589406   -0.0162   -0.2817    0.0257
   83         21.54419077         76.16694707          9.80733302    0.0624   -0.2284   -0.0222
   83         25.39377751         76.20381170          9.90937380    0.0323   -0.2058    0.0649
   83         29.35824349         76.22885773          9.87662190    0.0990   -0.1809   -0.0049
   83         33.23875626         76.21907413          9.89144941    0.0881   -0.1647   -0.0662
   83         37.09427830         76.16279882          9.96173931    0.0951   -0.2499   -0.0538
   83         41.07217679         76.15434578          9.97071714    0.2367   -0.2431   -0.0887
   83         44.91965494         76.19911557          9.90515078    0.2093   -0.1940   -0.1644
   83         48.84327670         76.24819014          9.82944915    0.2216   -0.2086   -0.1745
   83         52.73003715         76.21445626          9.84017876    0.1296   -0.2002   -0.1826
   83         56.71824431         76.15755480          9.78615533    0.1235   -0.0624   -0.1723
   83         60.56111480         76.27628866          9.76375766   -0.0318    0.2138    0.0188
   83         64.36025152         76.29178590          9.72693915   -0.1527    0.2389    0.1288
   83         68.26989409         76.27628866          9.74289279   -0.1520    0.2086    0.2361
   83         72.15095353         76.39361368          9.71114191   -0.2093    0.3033    0.1867
   83         75.95774366         76.33663395          9.69809745   -0.3042    0.2352    0.1651
