CRYSTAL
PRIMVEC
    78.6049429206999974    0.0000000000000000    0.0000000000000000
     0.0000000000000000   78.6424279087000002    0.0000000000000000
     0.0000000000000000    0.0000000000000000   31.3885755179999997
PRIMCOORD
  400    1
   83          1.96113830          1.95928958          9.82625634    0.0119    0.2384    0.1593
   83          5.78422333          2.05851274          9.69134825   -0.0847    0.2505    0.0644
   83          9.73341427          1.96170391          9.67276621   -0.0439    0.0285    0.1399
   83         13.58985137          2.00835460          9.76712027   -0.0604   -0.1315    0.2996
   83         17.77941622          2.01635253          9.64913061    0.2009   -0.1841    0.1408
   83         21.67507720          1.78203742          9.77185994    0.1241   -0.4170    0.2250
   83         25.71159822          1.90960330          9.70845502    0.1885   -0.2099    0.1409
   83         29.69749767          1.89989096          9.80779986    0.2981   -0.1289    0.2234
   83         33.42824547          1.80275183          9.80510044    0.1207   -0.2417    0.1722
   83         37.58487485          1.79392815          9.89716314    0.2992   -0.2611    0.1969
   83         41.35437489          1.81741078          9.80597932    0.1499   -0.2622    0.0917
   83         45.26387033          1.84416493          9.85328191    0.1615   -0.1799    0.1553
   83         49.17257972          1.84204159          9.88806045    0.1272   -0.1725    0.2034
   83         53.21098727          1.89642283          9.92729617    0.1637   -0.1491    0.2302
   83         57.15239632          1.84515583          9.99308662    0.1147   -0.0040    0.1763
   83         60.92991406          1.95426433          9.94907984   -0.0098    0.2962    0.0322
   83         64.83422158          1.87779244          9.90020783   -0.0015    0.2783   -0.0375
   83         68.74159468          1.80748611         10.00338207    0.0023    0.2082    0.1134
   83         72.46809782          1.98966129          9.74486577   -0.2028    0.2562   -0.0778
   83         76.68045810          1.96805822          9.85679743    0.0321    0.2308    0.1000
   83          1.94048878          5.95180836          9.77606601    0.1740    0.3076   -0.0844
   83          6.08570473          5.71680120          9.74646658    0.3710    0.0464   -0.0987
   83          9.96765700          6.03438291          9.51754970    0.3094    0.1892   -0.1587
   83         13.75091290          5.94980298          9.69370239    0.1588   -0.1242    0.1568
   83         17.77611482          5.89826860          9.77101245    0.2359   -0.2214    0.2729
   83         21.57556334          5.92472391          9.72675456    0.0615   -0.2357    0.2281
   83         25.68652325          5.82491094          9.64878534    0.2380   -0.2746    0.0773
   83         29.52936170          5.72587653          9.79621748    0.2044   -0.2739    0.2331
   83         33.43296177          5.59054864          9.79778691    0.1693   -0.3670    0.2304
   83         37.48048749          5.63782847         10.03106680    0.2418   -0.3019    0.3427
   83         41.08381668          5.75856033          9.91442685   -0.0745   -0.2348    0.1428
   83         45.27746899          5.82960590          9.80384490    0.2151   -0.1430    0.0484
   83         49.26981404          5.76239808          9.82418470    0.2823   -0.2069    0.0885
   83         53.07633700          5.79549081          9.93806245    0.1655   -0.2032    0.2057
   83         57.12433435          5.71043903          9.86238459    0.2767   -0.0680   -0.0213
   83         60.85877659          5.72131527         10.04318279    0.0800    0.1659   -0.0585
   83         64.89372552          5.70815839         10.06333425    0.1991    0.1836   -0.1505
   83         68.55726609          5.62581191         10.10646216    0.0300    0.0907   -0.0832
   83         72.71869038          5.77760752          9.81166066    0.3519    0.1457   -0.2072
   83         76.60900621          5.81577269          9.69652736    0.2382    0.1583   -0.1895
   83          1.88365741          9.77910727          9.69668430    0.1522    0.2487   -0.1322
   83          5.94935659          9.88267935          9.61978229    0.2162    0.3621   -0.1482
   83          9.92410986          9.71210392          9.65917496    0.2479   -0.0494   -0.0272
   83         13.91433258          9.78154518          9.56149371    0.3184   -0.2310   -0.0291
   83         17.61120165          9.82165282          9.69819095    0.0706   -0.2005    0.1742
   83         21.57249775          9.78382581          9.68356388    0.0935   -0.2526    0.2375
   83         25.56484280          9.62111463          9.65415278    0.1365   -0.4282    0.1762
   83         29.66739198          9.84068429          9.77691350    0.3417   -0.1332    0.2517
   83         33.37872436          9.60113945          9.76448363    0.1031   -0.3394    0.1547
   83         37.49235683          9.74536967          9.88071552    0.2577   -0.1864    0.1457
   83         41.22058928          9.74938043          9.90673665    0.0769   -0.1873    0.1444
   83         45.30843933          9.64148302          9.97820844    0.2570   -0.2871    0.2520
   83         49.08917988          9.72783241          9.96477413    0.1407   -0.2099    0.2049
   83         53.13128186          9.80466606          9.98690307    0.2811   -0.1142    0.2343
   83         57.03566798          9.66719909          9.85871213    0.2395   -0.0110   -0.0370
   83         61.04019680          9.73561801          9.95909279    0.2913    0.2199   -0.1883
   83         64.70247969          9.74411139         10.21214749    0.0398    0.2089   -0.0120
   83         68.87160726          9.71501369         10.04525443    0.3189    0.1631   -0.1330
   83         72.52076313          9.83368511          9.71758909    0.0996    0.2418   -0.2795
   83         76.73422388          9.75111056          9.64134624    0.3790    0.1578   -0.2556
   83          1.83825520         13.56212262          9.67502619    0.0613    0.1495   -0.1439
   83          6.05131507         13.84507808          9.65678942    0.3267    0.4073   -0.0372
   83          9.99516873         13.90634053          9.54900106    0.3299    0.1543   -0.0835
   83         13.74525334         13.83619148          9.73303227    0.1654   -0.1651    0.2051
   83         17.83121688         13.79820719          9.61419513    0.2776   -0.1424    0.1259
   83         21.67900744         13.75275187          9.65424695    0.1976   -0.1748    0.1936
   83         25.58606613         13.72609208          9.46475412    0.1895   -0.2585    0.0396
   83         29.55624459         13.83988768          9.68434859    0.2170   -0.1306    0.1841
   83         33.50637878         13.67867070          9.84917000    0.2105   -0.2188    0.2417
   83         37.36721777         13.74826925          9.88071552    0.1606   -0.1276    0.2043
   83         41.24031912         13.80725107          9.92651145    0.1425   -0.0880    0.2602
   83         45.21403480         13.54552907          9.86213348    0.2260   -0.3474    0.1800
   83         49.21683431         13.86843488          9.94845207    0.3024   -0.0261    0.2161
   83         53.07586537         13.56896451          9.86834842    0.1877   -0.2710    0.1665
   83         57.11670967         13.61268970          9.87023174    0.3211   -0.0023    0.0017
   83         60.87323990         13.73269805          9.87588168    0.1297    0.2463   -0.2036
   83         64.74359008         13.75243730          9.96263970    0.0288    0.2673   -0.1313
   83         68.77083572         13.54710192          9.86216487    0.1649    0.0803   -0.1491
   83         72.73511881         13.73883216          9.80607349    0.2002    0.2774   -0.0972
   83         76.78743943         13.56345954          9.68780134    0.2965    0.1239   -0.2148
   83          1.97267751         17.55629289          9.60725825    0.1554    0.1482   -0.1641
   83          6.01194971         17.75148340          9.58355988    0.2729    0.3555   -0.0753
   83          9.99957060         17.84294454          9.69357683    0.3209    0.1147    0.0935
   83         13.93005356         17.72340805          9.67741172    0.3363   -0.2486    0.2457
   83         17.64358688         17.62872257          9.71322608    0.0650   -0.2495    0.3626
   83         21.58531035         17.51406191          9.59602114    0.0721   -0.3347    0.2255
   83         25.69737073         17.68101978          9.61397541    0.2979   -0.2127    0.2288
   83         29.54115244         17.69863569          9.66215687    0.2308   -0.1998    0.1669
   83         33.43359061         17.60615219          9.65412139    0.2021   -0.2021    0.1169
   83         37.32744366         17.54331689          9.77433964    0.1916   -0.2431    0.2300
   83         41.19174126         17.58342453          9.71366552    0.1833   -0.2469    0.1243
   83         45.06649332         17.71546517          9.81401480    0.1537   -0.1389    0.1663
   83         49.03274153         17.66647093         10.08179074    0.1154   -0.1861    0.4017
   83         52.95434213         17.68896267          9.85937129    0.0607   -0.1218    0.1845
   83         56.88183811         17.57933512          9.96229443    0.1411   -0.0144    0.0948
   83         60.83488068         17.37746001          9.83903149    0.1384   -0.0293   -0.1858
   83         64.98113421         17.61260087          9.95218731    0.2737    0.2195   -0.0848
   83         68.75621520         17.58153711          9.82157945    0.1417    0.2031   -0.1700
   83         72.61273091         17.55550647          9.69492654    0.0626    0.1897   -0.2239
   83         76.81542279         17.64633847          9.72493402    0.2929    0.2464   -0.1727
   83          2.05675335         21.53937458          9.53939615    0.2222    0.1445   -0.2392
   83          5.96759294         21.56375373          9.60041554    0.2112    0.1824   -0.1427
   83          9.92426707         21.88107593          9.63161579    0.2353    0.1590    0.0182
   83         13.77378694         21.72968926          9.64106375    0.1529   -0.2438    0.2220
   83         17.78413252         21.63311635          9.56143093    0.2250   -0.2477    0.2074
   83         21.73253741         21.73739621          9.55217130    0.2487   -0.0810    0.2226
   83         25.66852272         21.64719335          9.47658761    0.2388   -0.1915    0.1158
   83         29.53926592         21.54873303          9.60107470    0.1895   -0.2968    0.1580
   83         33.31890600         21.49234641          9.69558570    0.1012   -0.2860    0.1942
   83         37.17974498         21.66638210          9.74178969    0.0940   -0.0670    0.1949
   83         41.15550438         21.73786807          9.67725478    0.1682   -0.0551    0.0872
   83         45.10650324         21.74258661          9.78915505    0.1798   -0.1125    0.1439
   83         49.27728151         21.57224711          9.74709436    0.3658   -0.2293    0.0506
   83         53.11658273         21.66795495          9.77816905    0.2411   -0.1033    0.0764
   83         57.05453316         21.48290932          9.84480699    0.2975   -0.0641    0.0050
   83         61.03438003         21.47111295          9.89050876    0.3213    0.2120   -0.1045
   83         64.83878066         21.36628260          9.92560118    0.1640    0.1140   -0.0810
   83         68.84095133         21.65411388          9.80754875    0.2303    0.3538   -0.1657
   83         72.65470595         21.59898554          9.82522052    0.0877    0.3088   -0.0633
   83         76.61521600         21.58270656          9.63632407    0.1076    0.2222   -0.1966
   83          2.01447962         25.54502665          9.38973542    0.1494    0.2210   -0.4179
   83          5.96995895         25.64136362          9.54517165    0.1885    0.2676   -0.2392
   83          9.85745287         25.63145467          9.51852275    0.1731   -0.1071   -0.0567
   83         13.81945641         25.75626021          9.58384237    0.1960   -0.1820    0.1828
   83         17.75182589         25.78056072          9.64147180    0.1770   -0.1099    0.1978
   83         21.73819696         25.68988600          9.54774551    0.2342   -0.1954    0.1499
   83         25.64274029         25.62099523          9.61162126    0.1822   -0.2305    0.2146
   83         29.66464080         25.61501841          9.64683925    0.2579   -0.1830    0.2517
   83         33.38689927         25.50444715          9.62461613    0.1074   -0.2716    0.1519
   83         37.42593566         25.56374354          9.67989142    0.2918   -0.1969    0.1165
   83         41.19685058         25.52670296          9.74244885    0.1599   -0.2533    0.1890
   83         45.05761096         25.52670296          9.81803254    0.1027   -0.2985    0.2141
   83         49.22445899         25.46583372          9.77606601    0.3674   -0.2957    0.0906
   83         52.99529531         25.48612347          9.73108618    0.1673   -0.2340    0.0013
   83         57.02096885         25.37563086          9.80249519    0.1384   -0.1189   -0.0299
   83         61.10245191         25.27213742          9.80080021    0.2256    0.0551   -0.1549
   83         64.91141163         25.30784108          9.78582786    0.1761    0.0924   -0.1892
   83         68.66346137         25.53488177          9.66614322    0.0226    0.3036   -0.2827
   83         72.76742544         25.50232381          9.60911018    0.1491    0.2548   -0.2769
   83         76.73100108         25.57443891          9.65964578    0.1844    0.2444   -0.1888
   83          2.03428806         29.32442445          9.50750536    0.2236    0.0536   -0.2269
   83          5.92164049         29.47620433          9.54331972    0.1802    0.1013   -0.1725
   83          9.71596397         29.72573676          9.46114443    0.0971    0.0610   -0.0817
   83         13.78416279         29.41848079          9.48625529    0.2169   -0.3680    0.1051
   83         17.74970356         29.45221839          9.50254596    0.1747   -0.3026    0.0799
   83         21.75745518         29.52126644          9.58911566    0.1965   -0.2992    0.1876
   83         25.63676632         29.62263653          9.62759805    0.1464   -0.1933    0.1931
   83         29.56269019         29.46440797          9.61416374    0.1405   -0.2847    0.1904
   83         33.37259317         29.60635755          9.72151267    0.0228   -0.1402    0.3079
   83         37.34961026         29.44215216          9.88573769    0.1704   -0.3201    0.3744
   83         41.26735922         29.60973917          9.65575360    0.2270   -0.1406    0.1222
   83         45.05022210         29.41140297          9.69385933    0.0794   -0.3253    0.2201
   83         49.00515119         29.43656855          9.78344233    0.1249   -0.2572    0.2246
   83         52.96000169         29.44687071          9.94575265    0.1154   -0.1786    0.2662
   83         56.97467054         29.24924228          9.77430825    0.0828   -0.1045   -0.0539
   83         61.00403852         29.54029791          9.86517818    0.1424    0.3680   -0.0896
   83         64.98985936         29.41903129          9.74539937    0.2569    0.1760   -0.2241
   83         68.67540932         29.31357179          9.70704253    0.0375    0.1145   -0.2289
   83         72.87338490         29.39355114          9.69593098    0.3054    0.1849   -0.1923
   83         76.59847315         29.25576961          9.65562805    0.1239   -0.0199   -0.1931
   83          2.05731931         33.20094564          9.55637737    0.2918   -0.0374   -0.1493
   83          5.68490598         33.67704690          9.48496836    0.0267    0.3556   -0.1838
   83          9.82742578         33.42256001          9.40090976    0.2283   -0.1596   -0.1063
   83         13.75987386         33.49860723          9.46870908    0.2055   -0.1853    0.1378
   83         17.74333656         33.45645489          9.48481142    0.2066   -0.1296    0.1366
   83         21.77663478         33.38520485          9.62317226    0.2411   -0.2900    0.2282
   83         25.71419219         33.67869839          9.59366700    0.2284   -0.0462    0.1640
   83         29.51882863         33.40195569          9.57888298    0.1195   -0.2822    0.1102
   83         33.45882279         33.30152931          9.65255197    0.1572   -0.3806    0.1991
   83         37.30818545         33.55892598          9.76238059    0.1438   -0.1573    0.2310
   83         41.21925299         33.41351613          9.72844954    0.1492   -0.2721    0.0963
   83         45.15696761         33.49491104          9.64633703    0.1194   -0.1172    0.1058
   83         49.20928823         33.33550284          9.81100150    0.2446   -0.2319    0.2730
   83         52.96739055         33.27549867          9.90061588    0.0419   -0.2400    0.2642
   83         57.08628956         33.18450938          9.93347972    0.2061   -0.0597    0.1156
   83         60.96395000         33.29673212          9.81153510    0.1459    0.2402   -0.1374
   83         65.04834144         33.22013440          9.82682134    0.2771    0.0625   -0.1578
   83         68.87852449         33.37718333          9.66501323    0.2138    0.2379   -0.2474
   83         72.67883767         33.51236966          9.56899558    0.1546    0.3798   -0.2418
   83         76.73390946         33.42468335          9.64319817    0.2898    0.2281   -0.1515
   83          2.01139830         37.47099355          9.67562257    0.2564    0.2383   -0.0336
   83          5.95765728         37.36632048          9.54316278    0.3054    0.0906   -0.0945
   83          9.73923103         37.49670963          9.49460465    0.1167   -0.0289   -0.0344
   83         13.82409410         37.52620054          9.40053309    0.2186   -0.1211    0.0634
   83         17.73979933         37.26282705          9.55785263    0.2273   -0.2421    0.2772
   83         21.55929211         37.39722696          9.64809479    0.1287   -0.1125    0.3150
   83         25.63920307         37.42412267          9.64379455    0.2179   -0.1806    0.2629
   83         29.43369948         37.38739665          9.57979325    0.0929   -0.2349    0.1412
   83         33.49191547         37.48577833          9.63745406    0.2789   -0.0925    0.1718
   83         37.33058786         37.40446206          9.83272239    0.2266   -0.2356    0.2795
   83         41.39210526         37.40666405          9.79731608    0.3339   -0.2048    0.1572
   83         45.24571259         37.24096445          9.79923078    0.1880   -0.2989    0.2157
   83         49.16503365         37.28531878          9.83611236    0.1414   -0.2102    0.2867
   83         53.10581386         37.12787664          9.92823782    0.1246   -0.2839    0.3402
   83         57.09658681         37.25740072          9.76680638    0.1830    0.1014    0.0074
   83         61.04923636         37.33659364          9.66174882    0.1972    0.3545   -0.2674
   83         65.10320769         37.10082364          9.89072848    0.3180    0.0210   -0.0757
   83         68.80817307         37.15689570          9.80977734    0.1434    0.0811   -0.0891
   83         72.89814546         37.08596023          9.53861144    0.3277    0.0186   -0.2985
   83         76.60515457         37.25928814          9.68237111    0.1163    0.1075   -0.1361
   83          2.06001546         41.37095020          9.61312792    0.3237    0.1950   -0.0960
   83          5.77783275         41.39021759          9.55622043    0.0801    0.1076   -0.0455
   83          9.65237257         41.41420353          9.44598375    0.0082   -0.0553   -0.0098
   83         13.79854750         41.27595014          9.34811417    0.2152   -0.3034    0.0607
   83         17.53943533         41.36544523          9.30680681    0.0400   -0.1247    0.0762
   83         21.45584801         41.18724148          9.33813261    0.0747   -0.2258    0.0677
   83         25.41109153         41.27689385          9.63277716    0.0680   -0.2026    0.3205
   83         29.46592751         41.22333836          9.49567187    0.1792   -0.3199    0.1595
   83         33.42525848         41.40861992          9.57612078    0.2553   -0.0800    0.2167
   83         37.26188714         41.54781702          9.71526634    0.1605    0.0249    0.2448
   83         41.15125972         41.27697249          9.75349763    0.0924   -0.2410    0.1783
   83         45.15547412         41.32109090          9.81115844    0.0982   -0.1367    0.2496
   83         49.30337835         41.12849559          9.70955362    0.2541   -0.2678    0.1685
   83         53.27858752         41.09027537          9.89458927    0.2930   -0.2535    0.3503
   83         56.97231239         41.06794092          9.73912166    0.0782   -0.0106    0.0482
   83         61.00340968         41.08587139          9.81539590    0.1898    0.1915   -0.1004
   83         64.77904091         41.32840464          9.86188238    0.0163    0.3252   -0.0793
   83         69.07542988         41.12165370          9.76934886    0.3687    0.1138   -0.1199
   83         72.86827558         41.15366117          9.72013157    0.2412    0.1057   -0.1517
   83         76.65184590         41.35231194          9.56817948    0.1781    0.2497   -0.2421
   83          1.99216367         45.28097307          9.58359127    0.2357    0.2327   -0.1011
   83          5.94546565         45.27955750          9.53418565    0.2061    0.1058   -0.0689
   83          9.73687288         45.35269496          9.32105722    0.0797   -0.0219   -0.0886
   83         13.71176764         45.19965680          9.32441580    0.1505   -0.2564    0.1365
   83         17.79576605         45.22773214          9.37802748    0.2898   -0.1957    0.2261
   83         21.59293503         45.37078272          9.30978872    0.1968   -0.0115    0.0981
   83         25.57506144         45.16827847          9.53519008    0.2429   -0.1987    0.2637
   83         29.51804259         45.40483489          9.63585324    0.2591   -0.0353    0.2914
   83         33.25279924         45.43912299          9.51309253    0.0986   -0.0167    0.1145
   83         37.08502602         45.19100613          9.47517513   -0.0283   -0.2079   -0.0085
   83         41.35869816         45.09891585          9.63949432    0.3068   -0.2451    0.0866
   83         45.17764071         45.18432152          9.71762048    0.1486   -0.1329    0.1553
   83         49.33647103         45.08688356          9.74238607    0.3413   -0.2088    0.1702
   83         53.11697576         44.95500020          9.78278317    0.1964   -0.2997    0.1584
   83         57.11199338         44.95665170          9.70556727    0.2618   -0.0460   -0.0740
   83         61.14206880         45.02774445          9.84141703    0.3700    0.2350   -0.0767
   83         64.93735126         45.03741747          9.75760953    0.1750    0.1788   -0.1701
   83         68.83041827         45.31872143          9.71153110    0.0970    0.3729   -0.1533
   83         72.75068259         45.22073297          9.62659361    0.1394    0.1852   -0.2003
   83         76.71433683         45.33342757          9.58013852    0.2591    0.2895   -0.1949
   83          2.07377133         49.11337587          9.57213444    0.2055    0.1274   -0.1904
   83          6.01330171         49.12949756          9.46265108    0.2385    0.0659   -0.2635
   83          9.95940348         49.26625675          9.29032780    0.3352   -0.0667   -0.1591
   83         13.81756989         49.15930304          9.38446214    0.2450   -0.2719    0.1858
   83         17.64468735         49.22339662          9.35602409    0.1683   -0.1287    0.1868
   83         21.62288351         49.02663327          9.45565143    0.2484   -0.2937    0.2094
   83         25.53167151         49.22890159          9.52819043    0.2248   -0.1049    0.1942
   83         29.27350261         49.20633122          9.59297645    0.0808   -0.2196    0.1829
   83         33.18755714         49.04078890          9.62552640    0.0747   -0.3621    0.1764
   83         37.36981173         49.18462591          9.71256692    0.2939   -0.1231    0.2428
   83         41.23072932         49.12871114          9.46754770    0.1946   -0.1532    0.0343
   83         45.32133054         49.10386013          9.68742467    0.3167   -0.1712    0.2332
   83         49.19034444         49.00579302          9.79609192    0.2497   -0.2636    0.2203
   83         53.10754317         48.93863239          9.80811375    0.2475   -0.2705    0.1331
   83         56.97765753         49.04086755          9.70534755    0.1257    0.0934   -0.0831
   83         61.06912341         48.88326812          9.72512235    0.2379    0.1378   -0.1214
   83         64.80615961         48.90033353          9.66664544    0.0793    0.1081   -0.2263
   83         68.79850466         49.05187749          9.70045093    0.1904    0.1633   -0.1843
   83         72.86088672         49.22520540          9.67527729    0.3115    0.2542   -0.1504
   83         76.70710518         49.12194789          9.56711226    0.2053    0.1195   -0.2021
   83          2.12996600         53.05304693          9.54648997    0.1974    0.1465   -0.2190
   83          5.96155608         53.16346090          9.52414130    0.1790    0.1431   -0.1981
   83          9.67713313         53.27387487          9.47275821    0.0175   -0.0411   -0.0006
   83         13.82409410         53.30037737          9.46186637    0.2363   -0.1630    0.1436
   83         17.70592060         53.18272830          9.33361265    0.1779   -0.1770    0.0398
   83         21.53516040         53.04062143          9.40492749    0.1022   -0.2608    0.1014
   83         25.52954918         53.20097334          9.48415226    0.2330   -0.1783    0.1432
   83         29.35509454         53.18996340          9.55217130    0.1973   -0.2158    0.1777
   83         33.26254625         53.03904858          9.84490116    0.1948   -0.2347    0.4376
   83         37.22855865         53.05933833          9.65914357    0.1492   -0.1430    0.2640
   83         41.26445084         53.11289382          9.66178021    0.1516   -0.1611    0.2788
   83         45.27613270         52.96929275          9.80196159    0.2534   -0.3224    0.2956
   83         48.92670346         53.08993023          9.73318922    0.0272   -0.1440    0.1283
   83         53.07570816         53.06743850          9.82167361    0.2016   -0.1383    0.2180
   83         57.11568781         52.92163544          9.81288481    0.1942   -0.0045    0.0681
   83         61.02188184         52.85903606          9.75048432    0.1245    0.1434   -0.1325
   83         64.93585777         53.03904858          9.86188238    0.2179    0.2135   -0.0630
   83         68.79598930         53.07428039          9.66366352    0.2191    0.2416   -0.1859
   83         72.87935888         53.07459496          9.49303523    0.2932    0.2201   -0.3049
   83         76.80992044         53.03204941          9.55983011    0.1964    0.1227   -0.2207
   83          1.96173570         57.04666671          9.56661005    0.0280    0.2409   -0.1017
   83          5.82828926         56.95080159          9.47297793    0.0026   -0.0422   -0.2314
   83          9.69450482         57.05303674          9.58990037   -0.0978   -0.1663   -0.0823
   83         13.73825750         57.18201033          9.52994819    0.0075   -0.1913    0.0214
   83         17.75740684         57.15778846          9.35348162    0.0448   -0.1750   -0.1064
   83         21.62649934         57.18436960          9.51246475   -0.0378   -0.1079    0.0512
   83         25.45707542         57.14017255          9.51441085   -0.0773   -0.2181    0.0216
   83         29.46639914         57.11713032          9.54080864   -0.0099   -0.1776    0.0286
   83         33.25146295         56.88537109          9.57238554   -0.1627   -0.2273    0.0120
   83         37.35236143         56.90872789          9.45627920    0.0106   -0.1597   -0.1273
   83         41.19472825         56.94537526          9.58851927   -0.1175   -0.2345    0.0038
   83         45.25593123         57.11044572          9.66764987    0.0237   -0.1033   -0.0372
   83         49.12290140         56.88694394          9.80428434   -0.0182   -0.2444    0.0586
   83         53.04458061         56.85422869          9.80707792   -0.0543   -0.2452    0.0676
   83         56.98677570         56.81923281          9.73497837   -0.0095   -0.0668   -0.1343
   83         60.93620246         56.88851679          9.87500280    0.0874    0.1872   -0.0615
   83         64.89026690         57.07977517          9.63393854    0.1210    0.2818   -0.2434
   83         68.80408561         56.99130244          9.62103784    0.0970    0.2641   -0.1455
   83         72.85357646         56.93389347          9.53217678    0.1739    0.2016   -0.2432
   83         76.92515529         56.97258554          9.58760900    0.2626    0.1797   -0.2010
   83          1.97693004         60.96431790          9.56165065   -0.0956    0.1966    0.0250
   83          5.90325479         61.09683039          9.49083803   -0.0602    0.1588   -0.1360
   83          9.72885518         61.12317560          9.49105775   -0.1752    0.0165   -0.2503
   83         13.97918165         61.18082050          9.62850832    0.0901   -0.0668   -0.0275
   83         17.76935479         61.07685521          9.45175925   -0.1116   -0.1802   -0.1799
   83         21.61533744         60.99420202          9.41217825   -0.2140   -0.2479   -0.2636
   83         25.64847846         60.99459523          9.63952571   -0.1323   -0.2247   -0.0497
   83         29.59955591         60.95377981          9.53556675   -0.1957   -0.1939   -0.1798
   83         33.58018883         60.86428473          9.62527529   -0.1834   -0.1822   -0.1092
   83         37.31974038         60.74970271          9.63240050   -0.3052   -0.2649   -0.1191
   83         41.34816510         61.00395368          9.71347719   -0.1592   -0.0746   -0.0694
   83         45.30545235         60.80750490          9.71084055   -0.1729   -0.2868   -0.0891
   83         49.23459902         60.84202892          9.83476265   -0.2098   -0.2213    0.0137
   83         53.20910075         60.98767470          9.74643520   -0.1398   -0.0761   -0.1560
   83         57.19547183         60.84139978          9.78764840    0.0142   -0.0548   -0.1223
   83         61.14812138         60.84918538          9.68535303    0.1544    0.1459   -0.1020
   83         64.96690672         60.92255877          9.65625582    0.0194    0.2278   -0.0381
   83         68.97261461         61.02117637          9.71219026    0.0344    0.3866    0.1129
   83         72.82425681         60.83786087          9.61089933   -0.0846    0.1858    0.0186
   83         76.82155398         60.83581617          9.63811322   -0.0109    0.1398    0.0187
   83          1.95200441         64.77517267          9.47369986   -0.1899    0.1219    0.0518
   83          5.99410639         64.90823566          9.66334964   -0.0718    0.1179    0.1981
   83          9.67194520         64.78665446          9.49570325   -0.3273   -0.2429   -0.1358
   83         13.70508622         64.83895168          9.56375369   -0.2620   -0.2937   -0.1547
   83         17.89685201         65.00362892          9.47919286   -0.0465   -0.1195   -0.2238
   83         21.78331620         64.80631507          9.58111157   -0.0765   -0.3165   -0.1646
   83         25.68966745         64.76494915          9.78611035   -0.1205   -0.2929    0.0805
   83         29.58815819         64.87512719          9.63531964   -0.1744   -0.1565   -0.1156
   83         33.65462771         64.95557840          9.54812218   -0.0599   -0.0772   -0.2841
   83         37.47113350         64.74143507          9.43427581   -0.1874   -0.2572   -0.4208
   83         41.48305118         64.82676210          9.74844406   -0.0978   -0.1704   -0.1489
   83         45.31912961         64.77336389          9.74517965   -0.1794   -0.2434   -0.1504
   83         49.38536330         64.66617426          9.73783473   -0.0428   -0.3568   -0.1765
   83         53.27041261         64.84107502          9.72229738   -0.1006   -0.2252   -0.2177
   83         57.13117298         64.83816525          9.82883021   -0.1593   -0.0364   -0.0134
   83         61.10032958         64.89124889          9.88011914   -0.0907    0.2476    0.2388
   83         64.99135286         64.72035890          9.59514226   -0.1546    0.1063    0.0599
   83         68.81108145         64.73184069          9.66256492   -0.2600    0.1634    0.2260
   83         72.85648484         64.79546241          9.53242789   -0.1556    0.2085    0.1469
   83         76.66497293         64.83218843          9.60659909   -0.2589    0.2110    0.1868
   83          2.03217359         68.83461615          9.45781724   -0.1017    0.2657    0.0747
   83          5.79380527         68.70320466          9.54250362   -0.3008    0.0379    0.0771
   83          9.66958705         68.88101519          9.57784716   -0.3950   -0.0277   -0.0642
   83         13.99325194         68.95604006          9.41343380   -0.0574   -0.0780   -0.3358
   83         17.79922467         68.74661528          9.59018287   -0.2164   -0.2702   -0.1293
   83         21.80744792         68.83493072          9.63641824   -0.1180   -0.1950   -0.1763
   83         25.74280439         68.99040680          9.62430225   -0.1135   -0.0641   -0.1891
   83         29.54586874         68.62055147          9.58588263   -0.2525   -0.3878   -0.2183
   83         33.50802949         68.68291491          9.77214244   -0.2378   -0.2743   -0.0872
   83         37.43694035         68.63895379          9.81646311   -0.2615   -0.3327   -0.1072
   83         41.47008137         68.83870556          9.87189533   -0.1616   -0.1101   -0.1231
   83         45.38728009         68.70446294          9.79703358   -0.1574   -0.2273   -0.2130
   83         49.28050431         68.58838671          9.94660014   -0.1770   -0.3539   -0.0508
   83         53.37008368         68.64209949          9.89750841    0.0400   -0.3627   -0.0850
   83         56.98936967         68.83925606          9.78385038   -0.2368    0.0042   -0.0842
   83         60.86836639         68.78404907          9.96464857   -0.3000    0.1956    0.3128
   83         65.05620193         68.84641252          9.70035677   -0.0654    0.2706    0.1904
   83         68.90627204         68.81094478          9.59677447   -0.1549    0.2372    0.1438
   83         72.72898762         68.70296873          9.61064822   -0.2375    0.0937    0.1987
   83         76.51955379         68.93866009          9.64407705   -0.3307    0.3292    0.2967
   83          2.00749950         72.62636082          9.45640476   -0.1638    0.1013    0.0749
   83          5.98207197         72.51114966          9.40643415   -0.1455   -0.0989   -0.0640
   83          9.78820191         72.59325235          9.53176873   -0.2895   -0.1546   -0.1253
   83         13.79595353         72.75674996          9.64319817   -0.2668   -0.1495   -0.1252
   83         17.89960318         72.70987907          9.58968065   -0.0949   -0.2585   -0.1735
   83         21.65864876         72.75659268          9.71605105   -0.2420   -0.2431   -0.1241
   83         25.82510376         72.94564907          9.74813018   -0.0635   -0.0642   -0.1542
   83         29.68790787         72.75651403          9.65145337   -0.2321   -0.1259   -0.2619
   83         33.75870065         72.56903049          9.75406262   -0.1185   -0.2921   -0.1138
   83         37.43505383         72.49809502          9.94321018   -0.2889   -0.4034    0.0412
   83         41.42456910         72.80228393          9.89741424   -0.1791   -0.0662   -0.1387
   83         45.36511350         72.78293789          9.87340198   -0.1835   -0.0850   -0.2125
   83         49.23121901         72.65412159         10.01069561   -0.2323   -0.2406   -0.0398
   83         53.12554370         72.78545445          9.85607549   -0.1944   -0.1418   -0.1747
   83         56.99267107         72.83067384          9.93718357   -0.2148    0.0938   -0.0003
   83         60.97794168         72.69234181          9.95523200   -0.1510    0.1413    0.2059
   83         64.80010703         72.80417135          9.75522400   -0.2604    0.2659    0.1747
   83         68.91719813         72.68471350          9.72135572   -0.1212    0.1368    0.2261
   83         72.83361080         72.85804141          9.71121721   -0.1276    0.2462    0.2334
   83         76.51554493         72.77530957          9.56105427   -0.3216    0.2068    0.1624
   83          1.92183583         76.72323810          9.66243937   -0.2192    0.2807    0.2102
   83          5.90377359         76.72976542          9.58939815   -0.1992    0.1867    0.1677
   83          9.90650235         76.71820498          9.72396098   -0.1075    0.0688    0.2166
   83         13.78321953         76.70357749          9.71300636   -0.0967   -0.1034    0.1234
   83         17.86572445         76.54668585          9.75836285    0.1013   -0.3606    0.0983
   83         21.68152280         76.58246815          9.71733799   -0.0269   -0.3394    0.0245
   83         25.84679873         76.57169414          9.79411444    0.1186   -0.2640    0.0776
   83         29.65898125         76.54173137          9.80814513   -0.0334   -0.1514    0.0240
   83         33.61925548         76.65387548          9.89694342    0.0060   -0.1253    0.0772
   83         37.57497063         76.73409075          9.84512088    0.0491   -0.0976    0.0202
   83         41.50348847         76.61007164          9.76228643    0.0939   -0.1802   -0.1005
   83         45.42029417         76.59568008          9.99016748    0.1006   -0.1690    0.0905
   83         49.34802596         76.50461215          9.97695289    0.1065   -0.2754    0.0697
   83         53.01526096         76.59308488          9.87186394   -0.1909   -0.2085   -0.0319
   83         57.18737552         76.64640445         10.06976891   -0.0054    0.0523    0.1932
   83         60.92150333         76.55415688          9.86929008   -0.1915    0.0985    0.0864
   83         64.76363434         76.56186384          9.90604610   -0.2623    0.1336    0.2276
   83         68.82263638         76.58970326          9.78089985   -0.1647    0.1921    0.1631
   83         72.65148315         76.66700876          9.78024069   -0.2827    0.1354    0.1737
   83         76.52521334         76.64789865          9.75070404   -0.3065    0.1257    0.1806
