CRYSTAL
PRIMVEC
    78.8311964053000054    0.0000000000000000    0.0000000000000000
     0.0000000000000000   78.8066911879000003    0.0000000000000000
     0.0000000000000000    0.0000000000000000   31.5219540259000013
PRIMCOORD
  400    1
   83          1.74672588          1.75749166          9.82069630   -0.1591   -0.1128    0.0366
   83          6.04502840          2.09610037          9.75541433    0.2690    0.2226   -0.0319
   83          9.84601643          2.11515583          9.64363748    0.1593    0.2152   -0.0969
   83         13.83684575          1.92699697          9.69880090    0.1419   -0.1169    0.0928
   83         17.81411610          1.97958468          9.78740912    0.1584   -0.1348    0.2225
   83         21.82284010          1.65317525          9.64540271    0.2007   -0.4370    0.0202
   83         25.64914871          1.98672457          9.87683690   -0.0063   -0.1857    0.2055
   83         29.64344660          2.17004469          9.77439055   -0.0707   -0.0111    0.0295
   83         33.77333415          1.91306395          9.67799641    0.0842   -0.2151   -0.0430
   83         37.66215590          1.92190606         10.03980540    0.1389   -0.2052    0.2512
   83         41.53631505          1.95004005          9.99551706    0.2319   -0.2472    0.1114
   83         45.34039326          2.12172831          9.84046056    0.1319   -0.0548    0.0183
   83         49.27052256          2.00304543          9.93679166    0.0955   -0.1098    0.1555
   83         53.29958501          2.00468461          9.90265338    0.1324   -0.0322    0.1443
   83         57.06298632          1.89514331          9.98703765   -0.1755   -0.0186    0.1982
   83         61.27659260          1.96289342          9.99636815   -0.0016    0.1826    0.1962
   83         65.27711816          1.77352094          9.74233272    0.1452    0.0399   -0.0432
   83         69.07315559          2.04686983          9.81319407    0.0276    0.3403   -0.0663
   83         73.10600194          1.74045366          9.88809024    0.0920    0.1503    0.0283
   83         76.75541334          2.02965845          9.92597963   -0.0870    0.3128    0.1567
   83          1.93175058          5.69332636          9.97572127    0.1067    0.0681    0.0512
   83          6.03735812          5.94956632          9.84030295    0.2485    0.1773   -0.1113
   83         10.00896051          5.88523641          9.78431996    0.2724   -0.0594   -0.0160
   83         13.64638958          5.84134897          9.72300976    0.0121   -0.1639    0.1767
   83         17.63264669          5.98729896          9.70482160   -0.0236   -0.0509    0.2129
   83         21.81046360          5.78425352          9.80591250    0.1228   -0.2159    0.2543
   83         25.98063389          5.82642298          9.71267056    0.3941   -0.2129    0.1069
   83         29.78069172          5.76682148          9.80928535    0.2140   -0.3739    0.1747
   83         33.83080209          6.15655209          9.72575217    0.3121    0.0114    0.1274
   83         37.62021770          6.02447996          9.84667039    0.2767   -0.0236    0.2171
   83         41.56303882          6.03066628          9.70608247    0.3144   -0.0833   -0.0519
   83         45.36136236          5.77868189          9.83198116    0.1360   -0.3651    0.0391
   83         49.48423393          5.80594900          9.93483729    0.3005   -0.2479    0.1992
   83         53.30943891          6.00762321          9.69593240    0.1568   -0.0424   -0.0660
   83         57.02790644          5.99208253          9.88462282    0.0050    0.1212   -0.0205
   83         61.16457347          5.91601043         10.04573153    0.2192    0.2531    0.0507
   83         65.22075385          5.83512324          9.96692664    0.3107    0.2213   -0.0493
   83         69.10894495          5.76072972          9.88355108    0.2283    0.1679   -0.0837
   83         72.86840471          5.92113286          9.77161662    0.0394    0.3666   -0.1417
   83         76.93278353          5.88978356          9.90990343    0.2250    0.3063   -0.0086
   83          1.90155824          9.71134856          9.77177423    0.1437    0.1113   -0.1792
   83          6.00040206          9.93050996          9.67723989    0.2408    0.2412   -0.2913
   83         10.05917599          9.87881277          9.65618322    0.3363   -0.0243   -0.1642
   83         13.78860106          9.91537908          9.60518070    0.1613   -0.0764    0.0366
   83         17.88482768          9.69866068          9.78882760    0.1862   -0.2967    0.3238
   83         21.90939675          9.95241822          9.75828283    0.2345   -0.0487    0.1826
   83         25.64820274          9.90607989          9.83664641    0.1540   -0.0755    0.1573
   83         29.61806296          9.78920957          9.88878372    0.1783   -0.2234    0.3282
   83         33.66233983          9.77195090          9.64987883    0.2398   -0.2894    0.1213
   83         37.64512836          9.78913076          9.78526562    0.3140   -0.2295    0.1761
   83         41.60221793          9.75886899          9.98883440    0.2908   -0.2577    0.2787
   83         45.47282967          9.87069568          9.77404381    0.1755   -0.2006    0.0512
   83         49.32026504          9.71844116          9.83841164    0.1257   -0.2782    0.2022
   83         53.33695099          9.90127268          9.78671563    0.2533   -0.0457   -0.0044
   83         57.31319654          9.84145840         10.11987116    0.3352    0.0023    0.0900
   83         60.99823965          9.75193400         10.02335094    0.1186    0.1067   -0.0050
   83         65.01981313          9.62316387          9.77350793    0.1581    0.0551   -0.2236
   83         69.01497817          9.77068999          9.72439673    0.1461    0.2223   -0.2417
   83         73.07423296          9.72521853          9.79283089    0.2495    0.1440   -0.1964
   83         76.85466182          9.76359739          9.94133082    0.1349    0.1458   -0.0744
   83          2.06355635         13.86832271          9.76152959    0.1962    0.3236   -0.1019
   83          6.21776332         13.71764432          9.89272396    0.3475    0.1396    0.0946
   83         10.08574210         13.79479607          9.62450366    0.3017   -0.0419   -0.1095
   83         13.79530171         13.85839307          9.60896333    0.1391   -0.1049   -0.0037
   83         17.82128974         13.68241772          9.67162898    0.2397   -0.2330    0.1690
   83         21.62804821         13.95863518          9.78466671    0.0710   -0.0264    0.1806
   83         25.54990024         13.81607387          9.95854180    0.0377   -0.1604    0.2485
   83         29.51061604         13.50195040          9.90826429    0.1046   -0.4109    0.2551
   83         33.73139595         13.89314682          9.88509565    0.3453   -0.0916    0.2651
   83         37.47296103         13.84231650          9.68634973    0.1148   -0.1662    0.0847
   83         41.45062554         13.83837617          9.84597691    0.1390   -0.0857    0.2355
   83         45.38012419         13.95020286          9.91270888    0.0116   -0.0455    0.2066
   83         49.46972899         13.75933305          9.76587962    0.1719   -0.2321    0.1008
   83         53.25457239         13.71520131          9.83822251    0.1571   -0.0861    0.1261
   83         57.07331321         13.67004507          9.94974718    0.0302   -0.0378   -0.0659
   83         61.12200463         13.90094868          9.90618384    0.1032    0.3250   -0.1251
   83         65.11046901         13.43433426          9.79450155    0.1441   -0.0934   -0.1676
   83         68.88435487         13.63749791          9.78699933   -0.0092    0.0480   -0.1851
   83         72.95440954         13.87636099          9.96210378    0.1350    0.2793   -0.0368
   83         76.93554263         13.96399403          9.86520530    0.1765    0.3679   -0.1258
   83          1.99731449         17.53606492          9.58822189    0.0497    0.0786   -0.1474
   83          6.27053292         17.58988989          9.56870980    0.3783    0.0338   -0.0889
   83          9.95858738         17.77067244          9.49879410    0.2203    0.0013   -0.0756
   83         13.86861472         17.77303664          9.66917027    0.2380   -0.1197    0.1412
   83         17.73512724         17.63985334          9.64521358    0.2065   -0.2218    0.0995
   83         21.70104590         17.75097077          9.70381289    0.2073   -0.0878    0.1431
   83         25.68990444         17.86996887          9.64411031    0.2164    0.0164    0.0655
   83         29.50864526         17.80180109          9.73612290    0.1226   -0.0569    0.1313
   83         33.37665557         17.68516718          9.78507649    0.0555   -0.2457    0.1717
   83         37.57488977         17.69005320          9.74734471    0.2767   -0.2473    0.1707
   83         41.47490555         17.78399077          9.83081485    0.2215   -0.0920    0.2566
   83         45.40676913         17.59249051          9.87573363    0.1014   -0.2707    0.1723
   83         49.38727156         17.63291835          9.77855145    0.0569   -0.2371    0.0852
   83         53.38661465         17.79589058          9.92645245    0.2300   -0.0311    0.2728
   83         57.08111750         17.56404130          9.80878100    0.1148   -0.1165   -0.0829
   83         60.95299054         17.58776211          9.95759615    0.0444    0.0778   -0.0540
   83         64.82021254         17.78722185          9.87387384   -0.0846    0.3017   -0.1263
   83         69.09105027         17.62488006          9.92279591    0.2378    0.1096   -0.0338
   83         72.85334795         17.55734273          9.84150079    0.0934    0.0630    0.0004
   83         76.89746716         17.57239481          9.53866938    0.1823    0.0922   -0.2564
   83          1.88482237         21.76033999          9.75541433    0.0924    0.2964   -0.0370
   83          5.92656876         21.60816427          9.53803894    0.1481    0.0652   -0.1859
   83          9.87865255         21.64804046          9.56458042    0.1463   -0.0454   -0.0371
   83         13.62999269         21.83418186          9.60990899    0.0076   -0.0012    0.0994
   83         17.75972258         21.70344156          9.77010356    0.1605   -0.1330    0.2505
   83         21.82252478         21.84363866          9.67572683    0.2526    0.0455    0.1610
   83         25.64607430         21.63023014          9.64587554    0.1488   -0.1722    0.1214
   83         29.42358640         21.37119255          9.79459612    0.0068   -0.4189    0.2900
   83         33.43160091         21.52376230          9.68032904    0.0810   -0.2825    0.1912
   83         37.40595451         21.56655434          9.74299468    0.0631   -0.2551    0.2235
   83         41.45488242         21.75285336          9.78123081    0.1976   -0.0430    0.1394
   83         45.43562135         21.65923101          9.98063869    0.2100    0.0122    0.2714
   83         49.36086311         21.74079593          9.72969242    0.1594    0.0443    0.0442
   83         53.00814607         21.83173885          9.74264794   -0.0980   -0.0511    0.0187
   83         57.09593776         21.83032033          9.83705619    0.1061    0.1245   -0.0125
   83         60.88929493         21.58657124         10.06196533    0.0149    0.1191    0.0305
   83         65.13608915         21.52155572          9.83185507    0.2331    0.1293   -0.2237
   83         69.35568660         21.58980231          9.68972258    0.4134    0.1617   -0.2484
   83         73.11877259         21.67184008          9.78381561    0.2211    0.2076   -0.0976
   83         76.93798639         21.58531033          9.81423430    0.1802    0.1417   -0.0507
   83          1.94124974         25.44415877          9.68272471    0.1166    0.0438   -0.2216
   83          6.05033374         25.48411376          9.63777440    0.2006    0.0485   -0.2277
   83         10.01030064         25.69965006          9.63181675    0.2036    0.0292   -0.0376
   83         13.61154619         25.58435587          9.75910240    0.0190   -0.1920    0.2838
   83         17.59835512         25.39427413          9.60852203    0.0893   -0.3244    0.1681
   83         21.84254790         25.52887596          9.60644158    0.3083   -0.2511    0.1584
   83         25.75383654         25.66198046          9.67125071    0.2386   -0.1573    0.1586
   83         29.61782646         25.58419826          9.60332090    0.1661   -0.1680    0.1227
   83         33.70506634         25.58285855          9.48035376    0.3295   -0.1972   -0.0342
   83         37.41588724         25.47946417          9.67266920    0.0725   -0.2947    0.1586
   83         41.55184479         25.47938536          9.79623526    0.2361   -0.1879    0.2184
   83         45.66044792         25.29852401          9.68817800    0.3833   -0.2283    0.0474
   83         49.34564869         25.66087717          9.62702541    0.1869    0.0389    0.0115
   83         53.03936323         25.56102909          9.67660945   -0.0519   -0.2096    0.0436
   83         57.39864956         25.55417291          9.78532867    0.2905   -0.0707    0.0318
   83         61.12239878         25.49743209          9.90675123    0.1099    0.0764   -0.1155
   83         65.27167881         25.35707738          9.81281581    0.3295    0.0331   -0.1848
   83         68.85510850         25.52225620          9.64149399   -0.1145    0.1438   -0.1782
   83         73.34454514         25.68341588          9.79008848    0.4032    0.2200   -0.1013
   83         76.85655377         25.69169059          9.90549036    0.0658    0.2167   -0.0727
   83          2.08979925         29.45723191          9.74034684    0.1806    0.1403   -0.1414
   83          5.97792729         29.48575993          9.52829865    0.1027    0.1290   -0.2881
   83          9.87904670         29.48371095          9.48914839    0.0963   -0.1656   -0.1080
   83         13.62762775         29.74266974          9.44719267    0.0357   -0.0641   -0.0012
   83         17.70162398         29.56661559          9.48256030    0.2370   -0.1067    0.0170
   83         21.73691410         29.82762335          9.71430970    0.3027    0.1488    0.1937
   83         25.67011781         29.70208430          9.49898324    0.2601   -0.1043   -0.0884
   83         29.68073376         29.40813534          9.70125961    0.2724   -0.3390    0.1998
   83         33.60715799         29.67237417          9.80982122    0.2212   -0.1314    0.2583
   83         37.47761207         29.65582477          9.67909968    0.1592   -0.1012    0.1221
   83         41.62129508         29.46243315          9.64776686    0.3055   -0.0990    0.1226
   83         45.56790009         29.64565870          9.71865973    0.2620    0.0274    0.1664
   83         49.19973214         29.50569802          9.82227240   -0.0232   -0.1410    0.2226
   83         53.10621208         29.55022380          9.66882352    0.0034   -0.0443    0.0549
   83         57.33400798         29.60869837          9.76546984    0.2592    0.1008    0.0476
   83         61.23244713         29.53635382          9.84377037    0.1892    0.1818   -0.1045
   83         65.19529138         29.41475510          9.68430080    0.2599    0.1219   -0.2056
   83         69.09436118         29.41822259          9.67809098    0.2068    0.1439   -0.0907
   83         72.86935068         29.54533779          9.71676842    0.0313    0.2179   -0.0823
   83         76.98930550         29.53792996          9.61334489    0.2019    0.1402   -0.2746
   83          1.83132752         33.31261285          9.75106430   -0.0332    0.0612   -0.0389
   83          6.13991751         33.43232022          9.67544313    0.3973    0.0916    0.0030
   83         10.11112574         33.88577392          9.60124045    0.4064    0.1962    0.0450
   83         13.83219471         33.57417226          9.57063264    0.1124   -0.2911    0.1001
   83         17.77343920         33.61239351          9.64839730    0.1695   -0.1218    0.2372
   83         21.72548357         33.54509259          9.83475509    0.2629   -0.0606    0.3298
   83         25.78347707         33.55888376          9.69829655    0.4228   -0.1140    0.0841
   83         29.74876508         33.30898774          9.65397668    0.3934   -0.3756    0.1024
   83         33.40282753         33.41277616          9.69952591   -0.0027   -0.2624    0.1291
   83         37.46807350         33.51278185          9.62589062    0.0619   -0.1324    0.0559
   83         41.55428856         33.51869235          9.72947176    0.1701   -0.0363    0.2019
   83         45.27835311         33.55573149          9.83418770   -0.0520   -0.0975    0.2535
   83         49.36117843         33.46321244          9.75661217    0.0776   -0.1651    0.1278
   83         53.27207292         33.46604948          9.65734953    0.1270   -0.0794   -0.0056
   83         57.20464598         33.33357543          9.82895505    0.1662   -0.0604    0.0315
   83         61.33516418         33.29046817          9.72187497    0.3256    0.1042   -0.1875
   83         65.25827750         33.47188118          9.64978426    0.2693    0.2863   -0.2930
   83         68.95333217         33.35012484          9.65583648    0.0346    0.1333   -0.2212
   83         73.00028930         33.30993342          9.55175099    0.1434    0.1115   -0.2737
   83         77.24424559         33.34846990          9.67181811    0.4273    0.1073   -0.1925
   83          1.87538628         37.47053269          9.76660463    0.1414    0.2226   -0.0430
   83          5.80336348         37.41308261          9.63897223    0.2293    0.0140   -0.0949
   83          9.74818692         37.58243819          9.57126308    0.2088   -0.1211   -0.0334
   83         14.06411609         37.56580998          9.50197782    0.3916   -0.1797   -0.0405
   83         17.84273183         37.69970254          9.61930253    0.1974    0.0000    0.1888
   83         21.72453760         37.62775203          9.61974384    0.2318    0.0249    0.1988
   83         25.47855800         37.44042853          9.60395134    0.0875   -0.0930    0.0823
   83         29.64896479         37.32237611          9.66551372    0.2894   -0.2880    0.1214
   83         33.61590825         37.18257304          9.66352784    0.2563   -0.3494    0.0779
   83         37.44182271         37.14758287          9.79270480    0.1170   -0.3378    0.2567
   83         41.47325009         37.49638128          9.82845070    0.2167   -0.0556    0.3677
   83         45.52304514         37.38644595          9.66409523    0.3305   -0.2147    0.1062
   83         49.45924444         37.30228040          9.78019059    0.2987   -0.2304    0.1555
   83         53.38283075         37.34625453          9.78794499    0.2147   -0.2025    0.1024
   83         57.21733781         37.35807554          9.70526290    0.1300   -0.0289   -0.1221
   83         61.14652113         37.19061132          9.88121845    0.1857    0.0839   -0.0291
   83         64.93806518         37.31930265          9.82321806   -0.0157    0.2660   -0.1655
   83         69.03783921         37.38203277          9.56930872    0.0967    0.2726   -0.3093
   83         72.96284448         37.27209744          9.72386086    0.0942    0.1457   -0.1262
   83         76.91741145         37.33719176          9.62311669    0.1921    0.1785   -0.2707
   83          1.90591760         41.60457409          9.82435285    0.1378    0.3771   -0.0361
   83          5.71183258         41.58274464          9.78665259    0.0277    0.1603    0.0354
   83          9.75204964         41.62679758          9.58954581    0.1369   -0.0083    0.0547
   83         13.78678794         41.47730129          9.35108223    0.1789   -0.0756   -0.1587
   83         17.79330467         41.65824145          9.36876604    0.1382    0.1047   -0.0967
   83         21.62048042         41.52072377          9.56612500    0.0161    0.0090    0.1262
   83         25.70180795         41.34608815          9.55383144    0.2169   -0.0065    0.1046
   83         29.75546573         41.42851994          9.74901538    0.3567   -0.0471    0.2813
   83         33.55166083         41.38281206          9.73650116    0.2092   -0.0786    0.2277
   83         37.45987505         41.45263479          9.61410141    0.1639   -0.0141    0.0763
   83         41.31692783         41.36902089          9.72616196    0.1140   -0.1834    0.1903
   83         45.45958603         41.45184672          9.65829519    0.3069   -0.0993    0.1347
   83         49.22858436         41.36303158          9.64098964    0.1595   -0.0788    0.1157
   83         53.24203823         41.34340872          9.78539171    0.1463   -0.1493    0.0925
   83         57.16735883         41.33765583          9.70302484    0.0652   -0.0801   -0.2139
   83         61.15937061         41.38360013          9.81420278    0.2019    0.1923   -0.1639
   83         65.00373157         41.25419954          9.82384849    0.1056    0.1673   -0.1126
   83         69.16412679         41.14473705          9.91475781    0.3050    0.0671    0.1044
   83         72.94857604         41.30006504          9.72200106    0.2053    0.1789   -0.1849
   83         76.69975852         41.30416299          9.85537045    0.0589    0.1963   -0.0733
   83          1.96601062         45.35230510          9.72909350    0.1027    0.2266   -0.1043
   83          5.90830357         45.37255842          9.55660537    0.0469    0.0757   -0.1711
   83         10.00951233         45.54364774          9.74189141    0.1493    0.0104    0.1694
   83         13.87413290         45.30462705          9.49901476    0.0762   -0.2026    0.1026
   83         17.77154726         45.36704195          9.76048937    0.0856   -0.0946    0.3799
   83         21.85981193         45.35033493          9.57807182    0.2510   -0.0256    0.1140
   83         25.82147371         45.29627354          9.67474965    0.3129    0.0462    0.2122
   83         29.57604593         45.20517301          9.62308517    0.1364   -0.1572    0.1005
   83         33.54235875         45.18665343          9.63266784    0.1849   -0.2808    0.0928
   83         37.44592193         45.38745288          9.83258008    0.1781   -0.1942    0.2801
   83         41.18748700         45.40305661          9.77202640   -0.0433   -0.1732    0.2634
   83         45.41796316         45.27649306          9.46512866    0.2143   -0.2354   -0.0047
   83         49.26855178         45.25174776          9.75777848    0.1741   -0.1836    0.2336
   83         52.95091463         45.41385312          9.82091695   -0.1027    0.0234    0.1509
   83         57.36341201         45.16167171          9.82769417    0.3324   -0.1471    0.0036
   83         61.16591360         45.19161826          9.81294190    0.2294    0.0432   -0.1223
   83         65.21318606         45.19989296          9.84033448    0.3604    0.0706   -0.0473
   83         68.98399751         45.40203212          9.93562534    0.2340    0.2278    0.1019
   83         72.73841207         45.26254428          9.85117803    0.0727    0.1487   -0.1073
   83         76.93869587         45.12983381          9.68367036    0.2919    0.0775   -0.2361
   83          2.09882542         49.34441565          9.68010838    0.2806    0.2248   -0.0593
   83          5.87219100         49.26931288          9.54327158    0.0969    0.0881   -0.1890
   83          9.83663552         49.28759603          9.59354910    0.0562   -0.0488   -0.0610
   83         13.59995800         49.38492229          9.68723235   -0.1500   -0.1013    0.2498
   83         17.82854221         49.22258051          9.60026327    0.2172   -0.2270    0.1702
   83         21.66249745         49.13943945          9.54834662    0.1665   -0.2450    0.0494
   83         25.87799568         49.09727787          9.68597147    0.4121   -0.2900    0.1969
   83         29.47821641         49.20421855          9.61139052    0.0566   -0.1981    0.1312
   83         33.44563287         49.34977451          9.65643540    0.1068   -0.1326    0.1885
   83         37.48628350         49.37593833          9.81417125    0.2728   -0.1939    0.2824
   83         41.51676491         49.20658275          9.71241839    0.3492   -0.2910    0.2105
   83         45.20732620         49.25410319          9.57214569    0.0606   -0.2022    0.1010
   83         49.22393332         49.33180658          9.81079841    0.1531   -0.0818    0.2096
   83         53.24582213         49.00696540          9.79273633    0.2714   -0.3456    0.1035
   83         56.94205927         49.03249877          9.69129868    0.0657   -0.1588   -0.0409
   83         61.22897856         48.99002196          9.77886667    0.3744    0.0212   -0.0648
   83         64.89289491         49.11414250          9.58970342    0.0659    0.1071   -0.2882
   83         68.98864855         49.13171639          9.65281037    0.2424    0.0332   -0.2117
   83         72.73210557         49.25670381          9.65154949    0.0222    0.2547   -0.2304
   83         76.95635406         49.15165449          9.50169412    0.2527    0.1653   -0.3251
   83          2.14241907         53.49429721          9.51682466    0.3046    0.4017   -0.2166
   83          6.04559598         53.25456725          9.59068060    0.2552    0.0988   -0.1274
   83          9.88953125         53.26260553          9.51553226    0.1713   -0.0030   -0.0043
   83         13.76976040         53.27923374          9.61252531    0.1190   -0.1154    0.2391
   83         17.63579994         53.24857794          9.57923813    0.0385   -0.1481    0.1871
   83         21.53857481         53.11098146          9.55632167    0.0536   -0.3012    0.0976
   83         25.56952920         53.11295163          9.43322844    0.1997   -0.2999   -0.0905
   83         29.47127927         53.23754501          9.41998922    0.1058   -0.2079    0.0039
   83         33.46289690         53.33534411          9.61265140    0.1250   -0.1493    0.2280
   83         37.39657360         53.09191024          9.65939846    0.1596   -0.3896    0.1793
   83         41.32071173         53.17410562          9.68751604    0.1674   -0.2839    0.1479
   83         45.39068757         53.15684695          9.63039826    0.3175   -0.2570    0.0493
   83         48.97175232         53.24991766          9.83447139    0.0101   -0.0694    0.2322
   83         53.17589886         53.22666968          9.76379917    0.3341   -0.0809    0.0809
   83         57.25683224         52.97354259          9.65161254    0.4609   -0.1620   -0.1910
   83         61.11207190         52.99663295          9.65652996    0.3325    0.1365   -0.2121
   83         65.04937483         53.19372848          9.76446113    0.2570    0.3013   -0.1607
   83         69.03571077         53.19215235          9.70217375    0.2944    0.1739   -0.1451
   83         72.98136981         53.21421822          9.57173591    0.2990    0.2095   -0.1701
   83         76.84646337         53.14668089          9.49608322    0.1486    0.1734   -0.2829
   83          2.13817007         57.29876903          9.42686101    0.1826    0.3240   -0.2876
   83          5.91760565         57.36362694          9.64663207   -0.0262    0.3247   -0.0436
   83          9.84980033         57.19687198          9.42525339    0.0312    0.0166   -0.1565
   83         13.74532273         56.91001562          9.45333945   -0.0092   -0.3818   -0.0811
   83         17.67781696         57.11160314          9.57195656   -0.0509   -0.2210    0.0315
   83         21.68401836         57.09686629          9.49261580    0.0387   -0.2959   -0.0301
   83         25.53074425         57.10293440          9.70633465    0.0354   -0.2652    0.0797
   83         29.43359796         57.08094733          9.45601881   -0.0206   -0.3357   -0.1862
   83         33.37815336         57.39152450          9.69429326   -0.1055   -0.0382    0.0321
   83         37.27154732         57.17661866          9.81981368   -0.1051   -0.1440    0.1227
   83         41.22280338         57.17914047          9.57072720   -0.0579   -0.1508   -0.0799
   83         45.42245654         57.26417289          9.74003162    0.1584   -0.0510    0.0575
   83         49.23347190         57.17086577          9.75235670    0.0686   -0.0564    0.1372
   83         53.07854233         56.97400665          9.92084155    0.0118   -0.2140    0.2661
   83         57.03421294         56.93019013          9.75478389    0.0464   -0.1524   -0.0981
   83         61.01952407         56.86257399          9.86652922    0.1411    0.0145    0.0245
   83         64.90676920         57.20049708          9.68240949    0.1283    0.3508   -0.1627
   83         68.81868849         57.03240241          9.62957869    0.0993    0.0489   -0.1813
   83         73.13761324         57.05171005          9.66529307    0.4352    0.1183   -0.0456
   83         76.83653064         57.15494682          9.51644640    0.1278    0.2418   -0.2069
   83          2.16941876         60.90173214          9.49523212    0.0465    0.0616   -0.0270
   83          6.10661133         60.93743157          9.48908534    0.0868    0.0867   -0.0107
   83          9.84294201         60.93427931          9.68527798    0.0005   -0.0811    0.0390
   83         13.70630129         61.17290597          9.50538219   -0.1100   -0.0111   -0.3151
   83         17.78684051         61.22980440          9.63947659   -0.0652   -0.0536   -0.1610
   83         21.70853487         60.93664351          9.55351622   -0.0300   -0.3760   -0.1523
   83         25.69479197         61.19126793          9.59909696    0.0248   -0.1332   -0.1572
   83         29.24992127         61.17479733          9.72527934   -0.4091   -0.1864   -0.1273
   83         33.54227991         61.12956229          9.76187633   -0.1281   -0.2193   -0.1836
   83         37.39483931         61.15856315          9.89679030   -0.1899   -0.0600   -0.0410
   83         41.32875251         60.96201926          9.58286316   -0.1796   -0.1203   -0.2374
   83         45.45091460         60.94807048          9.73246635   -0.1142   -0.1886   -0.0642
   83         49.44789275         61.01891769          9.82331262   -0.0474   -0.2010    0.0590
   83         53.22264576         61.07290028          9.74665123   -0.1649   -0.1227   -0.0492
   83         56.92700251         60.94854332          9.67569531   -0.3618   -0.1463   -0.1537
   83         61.26610805         60.96036432          9.58005770    0.1119    0.1244   -0.1432
   83         64.96904584         61.23752745          9.84405407   -0.0282    0.4846    0.1445
   83         69.09759326         60.94357850          9.66604959    0.1815    0.1203   -0.0357
   83         72.97009695         60.94925258          9.76635245    0.0637    0.1783    0.1527
   83         76.92072236         60.97502237          9.72357716   -0.0075    0.1604    0.1597
   83          2.06748214         64.87146160          9.38761617   -0.1464    0.0861   -0.0483
   83          6.02515506         64.89250299          9.49365603   -0.1172    0.1352    0.0814
   83          9.80336875         65.07943246          9.64080051   -0.1764    0.1529    0.0511
   83         13.84212744         64.98242142          9.59503063   -0.0516   -0.1019   -0.2332
   83         17.69216424         65.07691064          9.62431453   -0.2256   -0.1053   -0.2091
   83         21.58689833         65.09511499          9.54084439   -0.2498   -0.1263   -0.2390
   83         25.79506526         65.09432692          9.64732555   -0.0054   -0.1547   -0.1780
   83         29.73110689         64.94869216          9.87242383   -0.0613   -0.3610    0.0034
   83         33.65942307         65.05626329          9.76773942   -0.0622   -0.2206   -0.1551
   83         37.60547627         64.98888357          9.82268218   -0.1034   -0.1914   -0.1176
   83         41.48665139         65.15942125          9.82703221   -0.2053    0.1452   -0.1089
   83         45.17405944         64.89061162          9.82895505   -0.4203   -0.1919   -0.1683
   83         49.33666193         65.16682908          9.63566243   -0.1475   -0.0598   -0.3705
   83         53.27191526         65.03490668          9.97940934   -0.1852   -0.1582    0.0070
   83         57.15703194         64.97004877          9.76474483   -0.2973   -0.1264   -0.1071
   83         61.20974375         64.94435779          9.64669511   -0.1849    0.1216   -0.0433
   83         65.23715074         64.81897634          9.71137816   -0.0184    0.1166    0.0775
   83         69.14836055         64.89045401          9.78041124    0.0133    0.1828    0.2239
   83         72.89055628         64.91181062          9.63042978   -0.2327    0.1856    0.1388
   83         76.80216024         64.97052161          9.75245127   -0.3008    0.1434    0.2516
   83          2.17000999         68.85537626          9.61681230   -0.0611    0.1530    0.1606
   83          6.11447080         68.96310501          9.57945878   -0.0823    0.1949    0.1033
   83          9.83419175         68.89509483          9.62674172   -0.2597    0.0154    0.0777
   83         13.82486341         68.85797688          9.57309135   -0.1688   -0.1320   -0.0943
   83         17.57084303         69.01858492          9.68767365   -0.3544   -0.1106   -0.1410
   83         21.60455652         69.09061423          9.66668003   -0.3219   -0.0378   -0.2431
   83         25.75265407         68.93583789          9.55931626   -0.1665   -0.2178   -0.3180
   83         29.74789794         69.24097740          9.63777440   -0.1380   -0.0323   -0.1777
   83         33.40629610         68.89060285          9.69400957   -0.4543   -0.2582   -0.2063
   83         37.61375355         68.92645989          9.72587826   -0.1571   -0.0690   -0.3376
   83         41.39836045         68.65307948          9.99277465   -0.2398   -0.4049   -0.1064
   83         45.42663459         69.11307414          9.84748996   -0.0184    0.0144   -0.2492
   83         49.28723477         68.86806414         10.00481603   -0.1654   -0.1952   -0.0588
   83         53.23423395         68.71116001          9.94722542   -0.2571   -0.3738   -0.0763
   83         57.16712233         68.95152042         10.06959365   -0.2801   -0.0910    0.1577
   83         61.03347719         68.98335832          9.99860621   -0.3707    0.1739    0.2623
   83         64.99679442         68.91440247          9.56209019   -0.2773    0.2190   -0.0880
   83         69.29017787         68.70414622          9.85663133    0.1170    0.0567    0.3475
   83         73.01834164         68.71872546          9.65750714   -0.0989    0.0429    0.1727
   83         76.83605766         69.02252525          9.70362376   -0.2514    0.2696    0.1804
   83          2.06622872         72.83267116          9.60439265   -0.1258    0.2473    0.0559
   83          5.94324156         72.61311571          9.63124936   -0.1212   -0.0718    0.0116
   83          9.99437674         73.00092344          9.67683010   -0.0024    0.1863    0.0152
   83         13.71055817         72.94410382          9.78923739   -0.2800   -0.0368    0.0529
   83         17.76019556         73.08634989          9.65353538   -0.2216   -0.0094   -0.2174
   83         21.71499902         72.86844939          9.76915790   -0.2888   -0.1627   -0.1220
   83         25.80720526         72.84835369          9.61596121   -0.1466   -0.1922   -0.2673
   83         29.71494650         72.90020849          9.79024609   -0.2429   -0.2375   -0.0408
   83         33.96907201         73.12803863         10.08585898    0.0247    0.0722    0.0975
   83         37.58498016         72.87569961         10.02855206   -0.1221   -0.1203   -0.0724
   83         41.26537223         72.90509450          9.96144182   -0.2891   -0.1545   -0.0873
   83         45.42797472         72.75693793         10.01320087   -0.0933   -0.2286   -0.1098
   83         49.62179437         72.55795103         10.00689648    0.1192   -0.3948   -0.1456
   83         53.33364008         72.69026746          9.99457140   -0.1470   -0.3229   -0.0310
   83         57.33873785         73.04694655          9.87838147   -0.0949    0.1044    0.0319
   83         61.00762056         72.91384205          9.69839112   -0.3218    0.1774   -0.0480
   83         65.07144757         72.87861546          9.83056267   -0.2156    0.2245    0.1310
   83         69.09223274         72.94087274          9.85931069   -0.1888    0.2896    0.2558
   83         73.02827438         72.82652423          9.64445705   -0.1038    0.1973    0.1322
   83         76.69424033         72.78507191          9.56439129   -0.3637    0.1717    0.0298
   83          1.91154615         76.93227404          9.74948820   -0.1535    0.2164    0.1028
   83          5.71892739         76.80657737          9.84578777   -0.1560    0.1439    0.1343
   83          9.89765086         76.87206573          9.84178449    0.1375    0.1646    0.0835
   83         13.78063911         76.96434836          9.64083203   -0.0452    0.0267   -0.1356
   83         17.90808289         76.90122420          9.87689994    0.0249   -0.1061    0.1215
   83         21.90309026         76.74116781          9.58396642    0.0297   -0.2253   -0.1129
   83         25.64426118         76.74684189          9.83652032   -0.1907   -0.2547    0.0761
   83         29.92266670         76.60262565          9.80049073    0.0582   -0.3884    0.0124
   83         33.76387441         76.88357150          9.82047565   -0.0536   -0.0799   -0.0626
   83         37.44907518         76.95875309         10.00434320   -0.2071   -0.0826    0.0154
   83         41.54238505         76.81650701         10.10272322   -0.0039   -0.2308    0.1200
   83         45.36017989         76.91470015          9.92084155   -0.1327   -0.0033   -0.0840
   83         49.37599870         76.90571618         10.04692936    0.0127   -0.0306    0.0563
   83         53.37455347         76.84999985          9.85978352    0.0577   -0.0639   -0.0042
   83         57.24358859         76.90264272          9.77032422   -0.1592    0.0775    0.0122
   83         61.08219487         76.83313522          9.68934432   -0.3038    0.1410   -0.0030
   83         65.09840784         76.52862617          9.89064351   -0.1925   -0.1215    0.2494
   83         69.19140238         76.69270170          9.95914072   -0.0798    0.0627    0.2311
   83         73.03694581         76.46731456          9.76524918   -0.1465   -0.0406    0.0964
   83         77.01382200         76.64195019          9.71254447    0.0124    0.0326    0.1180
