CRYSTAL
PRIMVEC
    78.9890160433999995    0.0000000000000000    0.0000000000000000
     0.0000000000000000   78.8923967774999966    0.0000000000000000
     0.0000000000000000    0.0000000000000000   31.6101929147000007
PRIMCOORD
  400    1
   83          2.09309834          2.15956891          9.86588892    0.1443    0.2726    0.1991
   83          5.66643504          2.23885577          9.73138755   -0.0319    0.2967   -0.1065
   83          9.90016731          1.93497015          9.80364845    0.2609   -0.1134    0.1313
   83         13.80198774          1.94843708          9.97573434    0.1477   -0.0583    0.3883
   83         17.87047499          1.65932011          9.82833601    0.2992   -0.2852    0.0909
   83         21.66218473          2.00335408          9.62176340    0.2447    0.0157   -0.1240
   83         25.60286775          2.09953180          9.64069791    0.1284    0.0762   -0.0509
   83         29.75690010          1.93198013          9.87688927    0.1351   -0.0569    0.1981
   83         33.63660360          1.90080185          9.63937028    0.0915   -0.1044   -0.0253
   83         37.75730259          1.84044128          9.99466885    0.2872   -0.1293    0.2466
   83         41.67294610          1.82601975          9.84404628    0.2046   -0.1478    0.0595
   83         45.39159099          1.87866464          9.84113814    0.0273   -0.1466    0.1661
   83         49.41639732          1.91481314          9.78841234    0.0971   -0.1952    0.1373
   83         53.44270443          1.91815818          9.95708433    0.1641   -0.1744    0.0683
   83         57.38212363          2.13218536          9.81474363    0.1942    0.1280   -0.1255
   83         61.08370690          2.18356798          9.90546488   -0.1098    0.2849   -0.0152
   83         65.28252602          2.03323852         10.07268280    0.2216    0.2997    0.0376
   83         69.12684245          1.80260448          9.90145039    0.1546    0.0903   -0.0311
   83         73.13466613          1.70656877          9.93479914    0.1424   -0.1380    0.0910
   83         77.14272678          1.89800117          9.84521585    0.1113   -0.0525    0.1726
   83          2.08185030          6.13039681          9.93837109    0.2127    0.2112    0.1492
   83          5.66086632          6.19017357          9.83487932   -0.0555    0.2231   -0.0447
   83          9.86991452          5.96140140          9.96865366    0.1584   -0.0897    0.1608
   83         13.84495777          5.96344472          9.79261649    0.1118   -0.1800    0.0760
   83         17.83121745          6.03127640          9.88169402    0.1680    0.1087    0.1836
   83         21.71297466          5.96347627          9.83845127    0.1921    0.0440    0.2052
   83         25.37332567          5.84639996          9.69310761   -0.1484   -0.0876    0.0822
   83         29.72111808          5.65854138          9.74045968    0.1106   -0.2263    0.1092
   83         33.69789908          5.69338815          9.91403124    0.1404   -0.1789    0.2940
   83         37.59284746          5.59006278          9.70707931    0.1586   -0.2570   -0.0063
   83         41.50856995          5.88568837          9.86317044    0.1468   -0.0849    0.0179
   83         45.71607787          5.75851383          9.82618652    0.3718   -0.2404    0.0569
   83         49.61505469          5.73322881         10.02156912    0.3427   -0.2441    0.3401
   83         53.59578514          5.81100883          9.99994775    0.4355   -0.1358    0.1902
   83         57.05953249          5.68713198         10.01723852    0.0024   -0.1141    0.0236
   83         61.07541305          5.92839282         10.00468928    0.0345    0.2512   -0.1056
   83         65.19895564          5.69622039         10.06620271    0.2374    0.0310   -0.0368
   83         69.06452011          5.69077681         10.05008151    0.1939    0.0100    0.0318
   83         73.04904204          5.85453376          9.91248235    0.2070    0.1277   -0.0442
   83         76.88980395          5.58933697          9.85627942    0.0086   -0.1857    0.0319
   83          2.06512833         10.08465730          9.77854996    0.2624    0.1268   -0.0875
   83          5.83980014          9.90541377          9.76701224    0.0481   -0.0779   -0.1842
   83          9.78650212         10.07361236          9.90145039    0.0164    0.0038   -0.0009
   83         13.82931794         10.08426283          9.62337552    0.0335   -0.0910   -0.0940
   83         18.07079113          9.79733119          9.64262613    0.2263   -0.1656   -0.1008
   83         21.74393836          9.70408037          9.62296459   -0.0078   -0.2680   -0.0779
   83         25.75776521          9.72932594          9.76625359    0.1949   -0.2073    0.1349
   83         29.77356678          9.85247697          9.57128192    0.2522    0.0291   -0.0377
   83         33.78691970          9.92403238          9.67844048    0.2686    0.1308    0.0901
   83         37.60801335          9.80837612          9.72332695    0.2005   -0.0174    0.0154
   83         41.49672160          9.94130981          9.83838805    0.1310    0.0006    0.0272
   83         45.48069060         10.03684850          9.86095773    0.1281    0.1425    0.0231
   83         49.36979380          9.76159293          9.73770959    0.1492   -0.0697   -0.0108
   83         53.16237241          9.50290476          9.97563951   -0.0038   -0.3486    0.2869
   83         57.16845834          9.60720051          9.91513760    0.0939   -0.1222    0.1261
   83         61.33718265          9.72766920          9.86620502    0.3206    0.0796   -0.1036
   83         65.11522729          9.90849057          9.90966904    0.1613    0.2035   -0.0437
   83         69.26428333          9.61114513          9.96773696    0.4211   -0.0588    0.0020
   83         73.03537694          9.94351880          9.79087793    0.1899    0.2529   -0.2316
   83         76.88277393         10.14887571          9.82299389    0.0761    0.3749   -0.0848
   83          2.12889616         14.12481583          9.78787496    0.2845    0.1730   -0.2275
   83          6.08365503         13.88277395          9.55199971    0.2981   -0.0488   -0.4286
   83          9.83792397         13.88553519          9.89082936    0.0546   -0.1064    0.1051
   83         13.97955505         14.05870400          9.70518270    0.1752   -0.0154    0.0772
   83         17.83840545         13.87220237          9.87116782    0.0615   -0.1231    0.1380
   83         21.79693999         13.84640456          9.87217935    0.1480   -0.1700    0.0863
   83         25.46621675         13.91306863          9.79944430   -0.0314   -0.0515    0.0932
   83         29.76574687         13.89807908          9.90495912    0.1900    0.0811    0.2270
   83         33.76448682         13.72672479          9.88943851    0.1954   -0.0728    0.2359
   83         37.74892976         13.71410201          9.74959502    0.3683   -0.1597    0.0195
   83         41.36631073         13.46227748          9.84768145    0.1089   -0.4134    0.0724
   83         45.33542980         13.58613854          9.83933636    0.1582   -0.1869    0.0699
   83         49.44617617         13.61690658          9.78879166    0.3008   -0.0453    0.0858
   83         53.27445783         13.59126655          9.84625899    0.1271   -0.1253    0.1914
   83         57.39412996         13.69982249          9.70167397    0.2905   -0.0065    0.0261
   83         61.14271169         13.61059518          9.71453932    0.0607   -0.0159   -0.0973
   83         65.31641231         13.72396356          9.90998514    0.2380    0.1304    0.0257
   83         69.12486772         13.77792596          9.73249391    0.1728    0.1614   -0.2230
   83         73.08521901         13.69966470          9.79236361    0.2647   -0.0163   -0.2852
   83         76.78593340         13.98320397         10.13798946   -0.0314    0.1720    0.1221
   83          1.79608384         17.79047215          9.73944815    0.0316    0.0340   -0.2781
   83          6.29866313         17.79457456          9.80200472    0.5225   -0.0316   -0.0646
   83          9.92757650         17.68388852          9.53218011    0.1789   -0.2317   -0.0776
   83         14.19243045         17.89768692          9.79081471    0.4319   -0.1104    0.2330
   83         17.86794734         17.73587861          9.83554314    0.1351   -0.2744    0.2597
   83         21.55215303         17.67505257          9.79622006   -0.0260   -0.3140    0.1688
   83         25.36392597         17.71875896          9.79909658   -0.1026   -0.1786    0.1174
   83         29.79750046         17.67947055          9.87056723    0.2673   -0.1244    0.1881
   83         33.53462878         17.71315760          9.75591706   -0.0137   -0.0870    0.0891
   83         37.60461682         17.69146219          9.78961353    0.2522   -0.1681    0.0617
   83         41.40967570         17.54148775          9.83307754    0.2274   -0.3148    0.0662
   83         45.37753095         17.61974900          9.67964166    0.2631   -0.1206   -0.0281
   83         49.31576531         17.29431787          9.84809238    0.1604   -0.3563    0.1880
   83         53.13472626         17.63521191          9.79735802   -0.0576   -0.0509    0.1210
   83         57.36798459         17.49872807          9.79182624    0.1918   -0.1237    0.0511
   83         61.39042125         17.62913720          9.65511215    0.1949    0.0995   -0.1791
   83         64.98110394         17.67347473          9.92563219   -0.1992    0.1895   -0.0114
   83         69.17344596         17.87386141         10.01932480    0.1212    0.3043   -0.0051
   83         72.98537689         18.03377630          9.75756079    0.0495    0.3673   -0.2683
   83         76.81713406         17.80767069          9.67436276   -0.0162    0.1606   -0.3031
   83          1.71449609         21.67600158          9.98136096    0.0012    0.1535    0.1010
   83          5.81292807         21.63316301          9.70101015    0.0967   -0.0476   -0.1016
   83          9.95822424         21.86731565          9.59992076    0.2440   -0.0003    0.0205
   83         13.72718514         21.73903661          9.75133358   -0.0215   -0.1816    0.2989
   83         17.91810537         21.96814013          9.44228073    0.1759    0.0467    0.0235
   83         21.72158447         21.63300523          9.86317044    0.1481   -0.3114    0.3752
   83         25.66155659         21.83552201          9.82903144    0.1691    0.0387    0.2906
   83         29.80176586         21.66290545          9.88656199    0.2922   -0.0724    0.3372
   83         33.57988949         21.53967552          9.90233547    0.0816   -0.2337    0.2892
   83         37.54237348         21.59963374          9.83788229    0.2594   -0.1970    0.1246
   83         41.65904403         21.58645871          9.90031242    0.4991   -0.2533    0.2116
   83         45.44514555         21.66953241          9.76577944    0.2380   -0.0520    0.1284
   83         49.44206875         21.56223875          9.73192492    0.2263   -0.1371    0.1285
   83         53.16545298         21.52957730          9.89629793   -0.0539   -0.1986    0.2083
   83         57.37706833         21.81556223         10.01897709    0.1146    0.2742    0.2208
   83         61.32999465         21.70140494          9.98705079    0.0605    0.1488    0.1845
   83         65.05724935         21.73177851          9.71694169   -0.0439    0.1734   -0.2172
   83         69.23292469         21.75536734          9.95537738    0.2280    0.1852   -0.1285
   83         73.12945286         21.64057890          9.85359256    0.1660    0.0002   -0.1927
   83         76.97542805         21.74448018          9.79593556    0.1492    0.2338   -0.0878
   83          2.07582344         25.77635501          9.69908193    0.2488    0.3889   -0.1641
   83          5.98363913         25.50015273          9.84079043    0.2265   -0.0627   -0.0348
   83          9.94163655         25.63916114          9.66503776    0.2305   -0.1157   -0.1147
   83         13.84748541         25.64578810          9.69949287    0.1529   -0.1829    0.1380
   83         17.95594111         25.88041409          9.51476290    0.2977    0.0141    0.0587
   83         21.74662398         25.85138168          9.59315618    0.1814   -0.0643    0.1156
   83         25.79702275         25.55009162          9.67771344    0.3317   -0.1636    0.1967
   83         29.60816378         25.79907602          9.76565300    0.2068    0.1662    0.2269
   83         33.56503955         25.59797931          9.58746634    0.1847   -0.1438   -0.0647
   83         37.55738139         25.61012873          9.82397380    0.2718   -0.1746    0.1329
   83         41.31623170         25.53186748          9.56938531    0.1168   -0.2077    0.0052
   83         45.56481390         25.80751751          9.55282157    0.3334    0.2118    0.0481
   83         49.40510189         25.53999339          9.77873962    0.1430   -0.0196    0.2188
   83         53.43859700         25.65265174          9.70404473    0.1514   -0.0232    0.0239
   83         57.39649963         25.57604722          9.71201050    0.0524    0.0502    0.0211
   83         61.24128998         25.48689881          9.72693051   -0.0045    0.0674   -0.0203
   83         65.32897156         25.61217994          9.77744360    0.2770    0.1004   -0.2031
   83         69.20978091         25.67434715          9.96571391    0.2220    0.1722   -0.1491
   83         73.01641957         25.55892757          9.93404050    0.1211    0.0111   -0.1784
   83         76.95560180         25.68042186          9.83544831    0.1221    0.2497   -0.1133
   83          1.93441731         29.63632331          9.74042807    0.0722    0.3317   -0.0453
   83          6.22296006         29.50551972          9.64916944    0.3543    0.0122   -0.1340
   83          9.95000938         29.70093618          9.66604928    0.2223    0.0041   -0.1590
   83         13.83800673         29.77706735          9.54510868    0.1806    0.0105   -0.1631
   83         18.00957465         29.61241892          9.65071834    0.2735   -0.1999    0.0862
   83         21.83998900         29.59600930          9.61126882    0.0962   -0.2657    0.0888
   83         25.65484252         29.65486302          9.71295881    0.1054   -0.0567    0.1581
   83         29.29173379         29.65486302          9.70556202   -0.0824    0.0481    0.1481
   83         33.64466048         29.74874498          9.49364729    0.2697    0.0829   -0.1258
   83         37.39363716         29.43412210          9.75882520    0.0385   -0.2903    0.1038
   83         41.44924920         29.66977369          9.60953026    0.1613    0.0331    0.0583
   83         45.36734136         29.60642309          9.62754807    0.0787    0.0666    0.1572
   83         49.62453337         29.52784627          9.80118286    0.3348   -0.0164    0.2043
   83         53.50818633         29.48098418          9.76922495    0.2292   -0.1452    0.0951
   83         57.50329278         29.31712467          9.81553388    0.2417   -0.1920    0.1221
   83         61.25448115         29.42497058          9.85972493    0.0857    0.0813    0.0560
   83         65.12565384         29.66732802          9.86228536    0.0181    0.2952   -0.0544
   83         69.05717413         29.47940633          9.81616609    0.0398    0.0941   -0.1209
   83         72.90259640         29.41944811          9.81727244    0.0365   -0.0125   -0.1094
   83         77.07953557         29.46291782          9.82722965    0.2745    0.1254   -0.0959
   83          1.96863535         33.51924930          9.60083745    0.2195    0.2989   -0.0617
   83          5.83859950         33.60058736          9.64531299   -0.0006    0.2412   -0.0372
   83         10.08121014         33.55238410          9.54390750    0.2312   -0.1366   -0.1117
   83         13.72102400         33.61108005          9.51172832   -0.1413   -0.1489   -0.0939
   83         18.00270260         33.49550268          9.66446877    0.1524   -0.2143    0.0876
   83         21.80136337         33.48153873          9.58240871    0.0276   -0.2700    0.0649
   83         25.55373658         33.70661874          9.73824696   -0.1056    0.0040    0.1878
   83         29.60358242         33.49597604          9.78452428    0.0508   -0.1254    0.2642
   83         33.39521317         33.64808058          9.56458056   -0.0704    0.0770    0.0598
   83         37.35706525         33.60074514          9.70113660    0.0279   -0.0277    0.1496
   83         41.49719553         33.54094471          9.74381036    0.2144   -0.0546    0.1817
   83         45.27737288         33.30032289          9.81796787    0.0321   -0.2289    0.2169
   83         49.47800875         33.44256589          9.85112696    0.3234   -0.1130    0.2045
   83         53.61806005         33.49834281          9.88513953    0.4387   -0.0969    0.2129
   83         57.42280297         33.45424196          9.74418968    0.2446   -0.0508    0.0193
   83         61.22106880         33.40651206          9.69838651    0.0861    0.0077   -0.1145
   83         64.97944517         33.45968554          9.79473438   -0.1610    0.1194   -0.1332
   83         69.18031801         33.57218609          9.88352741    0.1825    0.2187    0.0296
   83         73.15141180         33.48422107          9.69870261    0.3018    0.0707   -0.1250
   83         76.87637582         33.30371527          9.84983094    0.1163   -0.0014    0.0320
   83          1.99938577         37.49542609          9.62280654    0.2283    0.2328   -0.1569
   83          5.73477634         37.60232529          9.81717761   -0.0704    0.3198    0.0723
   83          9.88176287         37.44225262          9.38174721   -0.0092   -0.1599   -0.1449
   83         14.03555826         37.50205305          9.62713713    0.1371   -0.2151    0.1371
   83         17.88342919         37.48950916          9.58316736    0.1576   -0.2160    0.0752
   83         22.05183754         37.40690882          9.70957652    0.3947   -0.3374    0.3083
   83         25.60650124         37.43744018          9.68545794   -0.0430   -0.1474    0.2577
   83         29.75342459         37.29780064          9.79160497    0.2323   -0.2262    0.2985
   83         33.45587673         37.42055721          9.64679867    0.0863   -0.0946    0.1510
   83         37.64166267         37.53550343          9.52099011    0.3283   -0.0405   -0.0115
   83         41.38226652         37.35854779          9.63074070    0.1185   -0.1462    0.0851
   83         45.15762553         37.26750596          9.54166317    0.0032   -0.1603   -0.1020
   83         49.21323757         37.53203217          9.72519195    0.1288    0.0365    0.0499
   83         53.43741217         37.34710839          9.79482921    0.2590   -0.1255    0.1873
   83         57.45542543         37.63506564          9.76375639    0.2604    0.2281    0.0664
   83         61.32083192         37.69391936         10.04157837    0.1900    0.2858    0.1255
   83         65.12439001         37.48272442          9.62062543    0.0004    0.1186   -0.3875
   83         69.03671598         37.45684771          9.74264078   -0.0156    0.1158   -0.2265
   83         72.97692507         37.67853535          9.81992770    0.0127    0.3003   -0.1391
   83         77.10820858         37.36659481          9.55386471    0.2865    0.0403   -0.2712
   83          2.13069711         41.33740692          9.69494100    0.2733    0.0496   -0.1403
   83          5.99510044         41.45464103          9.68659591    0.2569    0.1737   -0.0976
   83          9.88602828         41.39342053          9.52977774    0.2065   -0.0688   -0.0520
   83         14.02568463         41.84799852          9.46538778    0.2895    0.2511    0.0738
   83         17.90917961         41.72792429          9.41503274    0.1741    0.0352   -0.0143
   83         21.91834611         41.33093775          9.61114238    0.1975   -0.3658    0.1303
   83         25.80823919         41.21614931          9.72787882    0.1451   -0.2494    0.3249
   83         29.79473584         41.36320474          9.69051557    0.2734   -0.0763    0.2448
   83         33.69079007         41.42868543          9.59957305    0.3811   -0.0950    0.0616
   83         37.38076195         41.19618953          9.73786764    0.0896   -0.3207    0.1690
   83         41.54790648         41.41732492          9.67439437    0.1948   -0.0559    0.1323
   83         45.27271252         41.24076374          9.81897939    0.0415   -0.1302    0.1252
   83         49.37500707         41.31034683          9.69528871    0.1820   -0.1014   -0.0654
   83         53.48796514         41.24691735          9.60355593    0.3030   -0.1044    0.0309
   83         57.46403524         41.26514149          9.74820417    0.3325   -0.0201    0.0992
   83         61.18710352         41.11019682          9.94292296    0.0914   -0.2397    0.0165
   83         65.28402681         41.38024550          9.75436816    0.1738    0.0775   -0.2050
   83         69.23355661         41.39034372          9.73619230    0.1103    0.0730   -0.1532
   83         73.09422375         41.55238871          9.84268704    0.0441    0.1548   -0.1196
   83         77.13222124         41.56651044          9.71163118    0.1977    0.1844   -0.1958
   83          2.32670046         45.25117984          9.47183626    0.4391    0.1152   -0.2125
   83          5.90837050         45.37401530          9.74011196    0.2042    0.1024   -0.0060
   83          9.84929839         45.30348550          9.63532417    0.3245   -0.0566   -0.1123
   83         13.78942849         45.27713543          9.50145501    0.2259   -0.2206    0.0052
   83         18.01486691         45.44675409          9.58335702    0.2811   -0.1255    0.1364
   83         21.74046284         45.59822749          9.71858542   -0.0169    0.0260    0.1665
   83         25.79828657         45.50158430          9.78480878    0.1996   -0.0155    0.1759
   83         29.49149701         45.44659630          9.65568114   -0.0208   -0.0347    0.0512
   83         33.53684048         45.43563026          9.64935910    0.1326   -0.0942    0.1265
   83         37.20793399         45.26380262          9.80579794   -0.0685   -0.2319    0.2541
   83         41.42918599         45.31334704          9.75364113    0.1061   -0.1296    0.2226
   83         45.20391309         45.35437109          9.68036870   -0.0831   -0.0754    0.0503
   83         49.19830864         45.04637517          9.69734337   -0.0297   -0.3755   -0.0764
   83         53.71916599         45.36107694         10.05842661    0.5655   -0.0541    0.4282
   83         57.38654701         45.26861506          9.74463222    0.2937   -0.0765    0.1212
   83         61.24492348         45.36036691          9.71469737    0.1269    0.1798   -0.1295
   83         65.29476932         45.04566514          9.74181891    0.2063   -0.1073   -0.1250
   83         68.91752155         45.28155341          9.37109457   -0.0587    0.0089   -0.4267
   83         73.19596161         45.48880374          9.77564182    0.2381    0.1286   -0.1011
   83         77.02882462         45.36044581          9.50588043    0.0438    0.1389   -0.3235
   83          1.85070475         49.39074279          9.62286976    0.0212    0.2685   -0.0629
   83          5.62049503         49.31082479          9.79577751   -0.0548    0.0365    0.0774
   83          9.36786034         49.59815090          9.63412299   -0.0550    0.2766   -0.0643
   83         13.40190837         49.55412894          9.66026462   -0.0246    0.1532    0.1371
   83         17.68042742         49.41725063          9.56527599    0.0507    0.0376    0.0690
   83         21.54962538         49.48628148          9.86200087   -0.1079    0.0195    0.2258
   83         25.77711752         49.45227886          9.86038875    0.2560   -0.0464    0.1252
   83         29.66393003         49.35571456          9.73107145    0.1914   -0.0991    0.0191
   83         33.43067924         49.25047211          9.64297384    0.0083   -0.2718    0.0874
   83         37.48739712         49.38080235          9.80595600    0.1671   -0.1090    0.2433
   83         41.33439917         49.30198884          9.53666876    0.1024   -0.0565   -0.0372
   83         45.10091141         49.28502698          9.84483653   -0.1286   -0.1427    0.3066
   83         49.29428030         49.47697218          9.63437587    0.0761   -0.0443   -0.0274
   83         53.08093474         49.12116747          9.70651033   -0.0553   -0.3422    0.0440
   83         57.46482513         49.25946584          9.98844164    0.3055   -0.1018    0.2855
   83         61.33773557         49.15761575          9.92123837    0.1082    0.0185   -0.0167
   83         65.25045648         49.34175061          9.77213309    0.1730    0.3111   -0.1200
   83         68.83805860         49.09221396          9.62353357    0.0052   -0.0536   -0.1769
   83         73.03664076         49.21007920          9.76315579    0.2130   -0.0049   -0.0765
   83         77.10520700         49.06846735          9.57817294    0.2547    0.0000   -0.1719
   83          1.86428296         53.26712070          9.66864132    0.1931    0.0859   -0.0131
   83          5.86653792         53.40021218          9.29630485    0.2666    0.1501   -0.3130
   83          9.56944030         53.46995306          9.58183973    0.0747    0.1105    0.0751
   83         13.56525766         53.29078842          9.64727283    0.0319   -0.0345    0.2535
   83         17.93461407         53.27114422          9.19603732    0.2578   -0.0149   -0.2446
   83         21.84204272         53.30143890          9.67047471    0.1998   -0.1014    0.0092
   83         25.73185681         53.34277851          9.63029815    0.1934   -0.0300   -0.0200
   83         29.61314009         53.65684914          9.61205907    0.1177    0.3004    0.0570
   83         33.46124799         53.34956326          9.65239368   -0.0119   -0.0603    0.0529
   83         37.45516961         53.14933435          9.96640933    0.0176   -0.2709    0.3307
   83         41.33645289         53.39397968          9.70255905    0.0881    0.0210    0.0922
   83         45.13756232         53.27011861          9.67616454   -0.0006   -0.1122    0.0134
   83         49.38037832         53.19793207          9.64249969    0.2176   -0.3075   -0.0913
   83         53.40392082         53.01632177          9.69124260    0.2614   -0.4284   -0.0612
   83         57.12414550         53.18365255          9.67578522    0.0308   -0.0860   -0.0969
   83         61.30179557         53.26435947          9.72983865    0.2419    0.0587   -0.1680
   83         65.03489546         53.14073508          9.70673160    0.0476    0.0722   -0.2512
   83         69.02289290         53.32068864          9.62716874    0.0878    0.3214   -0.2812
   83         73.22747822         53.41993528          9.76087986    0.2998    0.3828   -0.1140
   83         76.98861921         53.26869855          9.66127614    0.2047    0.1923   -0.0909
   83          1.88530983         57.21702633          9.60545254    0.1032    0.1470    0.0567
   83          5.91337840         57.48478713          9.68492057    0.0853    0.2646    0.2009
   83          9.67654941         57.30696366          9.66810394   -0.2262    0.0054    0.1518
   83         13.88389935         57.05332461          9.65185630   -0.0172   -0.1802    0.1247
   83         17.93382418         57.04519869          9.72430687    0.0500   -0.2334    0.1823
   83         21.63777712         57.16748191          9.66320436   -0.2043   -0.2166   -0.0297
   83         25.68035597         57.34096629          9.73031280   -0.0778    0.0147    0.0184
   83         29.54212897         57.19130741          9.53733258   -0.1642   -0.1143   -0.0684
   83         33.56187999         56.94926554          9.68934599   -0.0677   -0.4116   -0.0003
   83         37.51259462         57.16732412          9.72019754    0.0428   -0.2110   -0.0503
   83         41.43432028         57.36763192          9.78553581    0.0034   -0.0701    0.0893
   83         45.22634597         57.09852995          9.80883252   -0.1457   -0.3518    0.0092
   83         49.00636533         56.96969867          9.81098202   -0.2777   -0.4724   -0.0408
   83         53.21711180         57.13458378          9.87085172    0.0191   -0.3123   -0.0166
   83         56.95890048         57.10689255          9.97475443   -0.0418   -0.1768    0.0510
   83         61.00400698         56.93601162         10.01306598    0.0570   -0.1973    0.1930
   83         65.29627011         57.38254258          9.65476444    0.2811    0.3259   -0.2350
   83         69.08655805         56.92938465          9.72781560    0.0371    0.0190   -0.2099
   83         73.52471389         56.97719345          9.88188368    0.4952    0.0716    0.0385
   83         77.01650233         57.01435177          9.54166317    0.1190    0.0138   -0.1467
   83          1.94387229         60.89633104          9.51624858   -0.1062   -0.0456    0.0698
   83          5.72900224         61.14618326          9.54068326   -0.3432    0.0334    0.0431
   83          9.83539632         61.04094080          9.57213540   -0.2895   -0.0725   -0.1085
   83         13.85467341         60.90161683          9.65305749   -0.3071   -0.2113   -0.0791
   83         17.88161244         60.93049145          9.61749602   -0.2296   -0.2963   -0.0898
   83         21.57458591         60.95060901          9.60880322   -0.4029   -0.3647   -0.1974
   83         25.90768636         61.39508877          9.78477717   -0.0067    0.1381   -0.1119
   83         29.60547816         61.13103592          9.73707738   -0.2377   -0.1154   -0.1344
   83         33.79734625         61.39114415          9.63797943    0.1307    0.0451   -0.2064
   83         37.46235761         61.15580813          9.62037255   -0.0663   -0.2806   -0.2468
   83         41.19608941         61.26254955          9.71817449   -0.3995   -0.2020   -0.1926
   83         45.37753095         61.22255110          9.69990380   -0.1930   -0.2300   -0.1707
   83         49.47398031         61.47145661          9.50629137   -0.0034    0.0394   -0.3342
   83         53.27208816         61.21363626          9.70587812   -0.1339   -0.1839   -0.2960
   83         57.28180758         61.02090214         10.02337090    0.0312   -0.2919    0.0149
   83         61.25645588         61.14066079         10.02242260    0.0094    0.0773    0.2123
   83         65.05511665         61.00157350          9.79685226   -0.2229    0.0882    0.0265
   83         68.94603659         61.06318846          9.62514569   -0.2177    0.2588   -0.0982
   83         73.13474512         61.02484676          9.52803918    0.0228    0.2114   -0.1241
   83         77.22685008         61.06949985          9.59514762    0.1222    0.1896    0.0182
   83          2.04312199         65.12101889          9.39037679   -0.1837    0.1910   -0.0337
   83          6.02274660         64.91755540          9.35500498   -0.1515   -0.0750   -0.1865
   83          9.75466955         64.72703026          9.51577442   -0.4601   -0.3049   -0.2996
   83         14.10214600         64.96804653          9.79884370   -0.0741   -0.1971   -0.0384
   83         17.93248137         65.29024308          9.43665411   -0.1502    0.0182   -0.3690
   83         21.79654504         64.95455593          9.59887762   -0.1779   -0.3242   -0.1879
   83         25.56890247         65.15936059          9.58013278   -0.3176   -0.0523   -0.3161
   83         29.67325073         64.97601466          9.86939765   -0.0617   -0.1990   -0.1260
   83         33.54434443         65.11210405          9.57697176   -0.0336   -0.0793   -0.2774
   83         37.44853453         65.12401680          9.77598953   -0.1711   -0.1989   -0.1430
   83         41.67191924         65.28590400          9.86294917   -0.0808   -0.0594   -0.1308
   83         45.51323408         65.03557842          9.67546912   -0.2032   -0.3030   -0.1452
   83         49.54799302         65.02177225          9.70711092   -0.0929   -0.3474   -0.1266
   83         53.37809142         64.91006062          9.88469699   -0.2562   -0.3542   -0.1501
   83         57.60582052         65.17521797         10.02681641    0.0325    0.0163    0.0671
   83         61.52888899         65.16054398          9.75616994   -0.0445    0.1334   -0.0520
   83         65.29800787         65.01404080          9.84875620   -0.2344    0.0996    0.1753
   83         69.13995462         64.93467505          9.86648951   -0.1858    0.1777    0.3643
   83         72.98008463         64.90895613          9.75016400   -0.2708    0.1903    0.2007
   83         77.03174721         64.95857944          9.79925463   -0.2724    0.1363    0.2392
   83          2.04417254         69.03068940          9.81594482   -0.2678    0.1619    0.1577
   83          6.13744655         69.07092452          9.72936450   -0.2099    0.1907    0.0599
   83         10.27797178         68.81341973          9.66532225    0.0020   -0.2015   -0.1966
   83         13.94424696         69.13892976          9.81246769   -0.1395   -0.0598   -0.0369
   83         17.79006417         69.05609275          9.59644364   -0.2085   -0.1722   -0.2808
   83         21.87197955         69.12977825          9.76163850   -0.2053   -0.1392   -0.1296
   83         25.77356301         69.21032738          9.69917676   -0.3052   -0.0605   -0.2217
   83         29.64852717         68.97333462          9.80971761   -0.2483   -0.2217   -0.1234
   83         33.74110607         69.00481269          9.70809084    0.0318   -0.1249   -0.1333
   83         37.53573840         68.82320239         10.03952371   -0.1458   -0.2556    0.1067
   83         41.68368860         68.96110630          9.88169402   -0.1012   -0.1835   -0.0855
   83         45.60399246         68.82959268          9.64695672   -0.1626   -0.3586   -0.2950
   83         49.73993633         69.10689945          9.86064163    0.0642   -0.0891   -0.1511
   83         53.62019275         69.25403377          9.56081895   -0.0505    0.0279   -0.4211
   83         57.39081242         69.26255415          9.89572894   -0.2607    0.2616    0.0485
   83         61.42580833         68.94816795          9.83582763   -0.1586    0.0855    0.0727
   83         65.31222589         69.08118053          9.90211420   -0.1977    0.1409    0.2587
   83         69.10772710         69.22744703          9.97551307   -0.2671    0.3855    0.3995
   83         72.99272287         68.81089518          9.67240293   -0.2448    0.0541    0.0717
   83         76.75702342         68.98406399          9.67382539   -0.4886    0.1735   -0.0173
   83          1.94453580         72.78044501          9.89304208   -0.1606    0.0007    0.0503
   83          5.97653802         73.07810603          9.79799023   -0.1581    0.2703   -0.0557
   83          9.75522247         73.00410496          9.68014743   -0.2997    0.0228   -0.1579
   83         13.95696419         73.08063058          9.78702149   -0.0765   -0.0011    0.0072
   83         17.68619362         73.00718176          9.74431612   -0.3449   -0.0318   -0.1175
   83         21.72545493         72.99739911          9.92326142   -0.2435   -0.1116   -0.0625
   83         25.99338944         73.09601460          9.98524901   -0.0188   -0.1520    0.0157
   83         30.01495722         73.30555281          9.80838998    0.0254    0.1715   -0.0541
   83         33.90263861         72.90683063          9.72427526    0.0188   -0.1565   -0.0995
   83         37.62570689         72.85697064          9.89386394   -0.1052   -0.1652    0.0906
   83         41.55019716         72.68656306          9.92518964   -0.0428   -0.3084    0.1432
   83         45.61133844         72.79133217          9.87268511    0.0390   -0.2649   -0.0312
   83         49.44017301         72.96734110          9.92003718   -0.1586   -0.1464   -0.1579
   83         53.42666966         73.02745711          9.81515456   -0.2226   -0.2178   -0.0623
   83         57.40984877         73.12701931          9.81543905   -0.2239    0.0802    0.1373
   83         61.28196933         72.65192930          9.75101748   -0.2361   -0.1552    0.0290
   83         65.35187838         72.76229976          9.87742664   -0.0493   -0.0254    0.1746
   83         69.25204004         72.91629772          9.95534577   -0.0952    0.1468    0.2074
   83         73.08245439         72.95306158          9.77058419   -0.1753    0.1548    0.1270
   83         76.98553864         72.84253333          9.64739927   -0.1362    0.0229   -0.0368
   83          1.89226877         76.64727695          9.75136519   -0.0200   -0.1092    0.0599
   83          6.04952387         76.71914792          9.84648026    0.2521   -0.1068   -0.0357
   83          9.73918770         76.95164382          9.80962278   -0.0066   -0.0132    0.0618
   83         14.21928671         76.68380413          9.70284355    0.3626   -0.2627    0.0810
   83         17.93398216         76.74273675          9.83823000    0.0793   -0.1886    0.0082
   83         21.71779299         76.78486529          9.75686537    0.0662   -0.1670   -0.1532
   83         25.82119339         76.74715472          9.81818914    0.1926   -0.3134   -0.0188
   83         30.18873305         76.91345990          9.98752494    0.4752   -0.0653    0.2101
   83         33.91148538         76.84285120          9.86380265    0.2529   -0.1348    0.1358
   83         37.81164703         77.06453884          9.93015244    0.2256    0.0690    0.2110
   83         41.50067105         76.78320855          9.85767027   -0.0769   -0.1260    0.2064
   83         45.63787874         76.82005130          9.81031820    0.1424   -0.1409    0.1234
   83         49.12003053         76.95890192         10.13220480   -0.3754   -0.1184    0.2999
   83         53.52343121         77.10942861         10.00535309   -0.0256   -0.0351    0.1648
   83         57.33370336         76.95716628          9.96005569   -0.1579   -0.1182    0.2709
   83         61.40258556         77.42846946          9.98461681   -0.0461    0.5514    0.2450
   83         65.07296816         76.88568977          9.88855343   -0.2146    0.2014    0.0217
   83         69.04753747         77.03479640          9.92844549   -0.1372    0.3933    0.1288
   83         73.07810999         76.91298654          9.91128116   -0.1610    0.1296    0.2153
   83         77.04730805         76.80277386          9.63115163   -0.0554   -0.0949    0.0386
