POSCAR file written by OVITO Basic 3.10.6
1
66.3620116199 0.0 0.0
0.0 62.703732084 0.0
0.0 0.0 101.9486837625
O Ti Sr Pb 
19968 6656 4096 2560 
Direct
0.0301152 0.00126532 0.00866574
0.0366133 0.0637582 0.00605986
0.0315047 0.126197 0.00852134
0.0371763 0.188506 0.00591792
0.0978134 0.00132345 0.00584966
0.0935175 0.0637907 0.00858692
0.0996915 0.126154 0.00594584
0.0940341 0.188565 0.00834834
0.155045 0.00125489 0.00861718
0.161514 0.0636919 0.00596778
0.156197 0.12614 0.00854871
0.162076 0.188485 0.00594381
0.222622 0.00127937 0.00579902
0.218552 0.0637922 0.00858074
0.224411 0.126078 0.00607775
0.218719 0.18858 0.00849062
0.0358591 0.00115175 0.0441939
0.0317572 0.0636618 0.0472384
0.0358894 0.126197 0.0444005
0.0319224 0.188656 0.0472304
0.0937066 0.00107855 0.047201
0.0982464 0.0635825 0.0443446
0.0942895 0.126084 0.0471254
0.098551 0.188582 0.0443282
0.160545 0.00112818 0.044093
0.156667 0.0635731 0.0470971
0.160728 0.126068 0.0443777
0.156729 0.188605 0.0470167
0.218888 0.00108612 0.0470607
0.223108 0.0635729 0.0443651
0.219271 0.126119 0.0470482
0.223259 0.188542 0.0443018
0.0320978 0.00105585 0.0855348
0.0354748 0.0635826 0.082501
0.0323582 0.126189 0.0855013
0.0356749 0.188679 0.0824995
0.0978753 0.00103957 0.0825037
0.0946805 0.0635726 0.0854139
0.0980178 0.126111 0.0825989
0.095085 0.188667 0.0853408
0.157009 0.00104247 0.0854504
0.160345 0.0635526 0.0825068
0.157314 0.126084 0.0852978
0.160594 0.188567 0.0825147
0.222913 0.00102207 0.0823933
0.219549 0.0635826 0.0852591
0.222885 0.126073 0.0825636
0.219874 0.188582 0.0853071
0.0350726 0.00103398 0.120569
0.0325755 0.0635993 0.123674
0.035511 0.126103 0.120746
0.0326621 0.188608 0.123707
0.0950168 9.82461e-04 0.123685
0.0977554 0.0635408 0.120777
0.0951364 0.126115 0.123605
0.0981873 0.18865 0.12068
0.16013 0.00102535 0.12062
0.157426 0.0635529 0.123594
0.160488 0.126069 0.120798
0.157543 0.188576 0.123657
0.219841 9.89849e-04 0.123559
0.222745 0.0635613 0.12069
0.220002 0.12608 0.12356
0.223024 0.18854 0.120726
0.0327762 0.00101437 0.161874
0.0351247 0.0635185 0.158898
0.0327385 0.126024 0.161909
0.035668 0.188566 0.158887
0.0974305 9.42819e-04 0.158779
0.0952481 0.0635078 0.161879
0.0977941 0.126062 0.158889
0.0951586 0.188563 0.161854
0.157671 9.73598e-04 0.161946
0.160141 0.0635067 0.158877
0.157623 0.126059 0.161916
0.160596 0.188566 0.158856
0.222356 9.7138e-04 0.158679
0.220233 0.0635244 0.161752
0.222848 0.126041 0.158882
0.220171 0.188585 0.161729
0.0348797 9.3218e-04 0.196851
0.0328195 0.0634804 0.200057
0.0351784 0.126004 0.197119
0.0329587 0.188591 0.200083
0.095385 8.78462e-04 0.200139
0.0975177 0.0634086 0.196996
0.0953343 0.126 0.200114
0.0977892 0.18855 0.197067
0.15998 9.20983e-04 0.196875
0.157922 0.0634495 0.200049
0.160107 0.12599 0.197021
0.157886 0.188569 0.200056
0.220303 8.94503e-04 0.200073
0.222592 0.0634292 0.196943
0.220321 0.126009 0.200024
0.222885 0.188565 0.196936
0.0328097 9.01879e-04 0.238191
0.0349917 0.0634671 0.235126
0.0328772 0.125978 0.23823
0.0352514 0.188534 0.235159
0.0972632 8.43969e-04 0.234993
0.0953657 0.0633639 0.238236
0.0975927 0.125932 0.235248
0.095457 0.188534 0.238234
0.157802 8.15251e-04 0.238184
0.159996 0.0634238 0.235147
0.157965 0.125925 0.238181
0.160123 0.188491 0.2351
0.222473 8.13872e-04 0.235021
0.220383 0.0633298 0.23817
0.222579 0.125894 0.235135
0.220382 0.188442 0.238215
0.0318194 0.0351848 0.0264507
0.0357685 0.0930427 0.0264667
0.0325445 0.159921 0.0264278
0.0358615 0.217796 0.0263602
0.0979154 0.0303672 0.0264335
0.0945251 0.0974439 0.0264176
0.0980598 0.155416 0.0263958
0.0948752 0.222255 0.0263137
0.15676 0.0351101 0.0263846
0.160355 0.0929507 0.0264089
0.157191 0.15965 0.0263877
0.160595 0.217945 0.0262952
0.222906 0.0303567 0.0263891
0.219353 0.0973748 0.026424
0.222916 0.155459 0.0263747
0.219728 0.222252 0.0263037
0.0358346 0.0302537 0.0647269
0.0320892 0.0976357 0.064743
0.036052 0.155503 0.0647279
0.0324857 0.222686 0.0646412
0.0942785 0.0350633 0.0646817
0.0983473 0.0928307 0.0647073
0.0946445 0.160006 0.0646624
0.0986066 0.217965 0.0645976
0.160678 0.0303019 0.0646547
0.156959 0.0974907 0.0646755
0.160897 0.155484 0.0646523
0.157226 0.222555 0.0645992
0.219268 0.0350446 0.0646426
0.223201 0.0930462 0.0646545
0.219581 0.159949 0.064655
0.223446 0.217975 0.0645532
0.0318067 0.0352056 0.102934
0.0360186 0.092907 0.102962
0.0320094 0.160283 0.102952
0.0363241 0.217825 0.102889
0.0985129 0.0303433 0.102914
0.0943478 0.0975149 0.102937
0.0987681 0.155465 0.102927
0.0948191 0.222702 0.102863
0.156775 0.0350832 0.102891
0.161042 0.0928704 0.102905
0.157001 0.159967 0.102902
0.161194 0.217734 0.102854
0.223336 0.030317 0.102848
0.219374 0.0975083 0.102899
0.223754 0.15542 0.102882
0.219696 0.222505 0.102859
0.0361346 0.0303105 0.141085
0.0318727 0.0977139 0.141156
0.0363463 0.15533 0.141149
0.0322647 0.222765 0.141121
0.0942148 0.0350854 0.141139
0.0987388 0.0928489 0.141159
0.0944686 0.16012 0.141151
0.0988579 0.217766 0.141116
0.161075 0.0302014 0.141132
0.156854 0.0975198 0.141166
0.161292 0.155327 0.141169
0.157109 0.222636 0.14107
0.219239 0.0350719 0.141069
0.223522 0.0928754 0.141098
0.219386 0.160001 0.14109
0.22393 0.217812 0.141057
0.0317382 0.0351501 0.179266
0.0362021 0.0927096 0.179352
0.0318473 0.160142 0.179368
0.0364416 0.217726 0.179328
0.0987265 0.0300512 0.179325
0.0943242 0.0976732 0.179355
0.0987657 0.155259 0.179365
0.0945345 0.222688 0.179302
0.156618 0.0351914 0.17931
0.161247 0.0927114 0.179346
0.156891 0.160245 0.179345
0.161424 0.217767 0.179293
0.223801 0.0301591 0.179272
0.21922 0.0975947 0.179323
0.223841 0.155355 0.179288
0.219603 0.222716 0.179224
0.0362271 0.0301196 0.217441
0.0317557 0.0975963 0.217525
0.0363004 0.155182 0.217564
0.0318894 0.222823 0.217525
0.0940993 0.0351269 0.217476
0.0986904 0.0925768 0.217513
0.0945022 0.160229 0.217542
0.098904 0.217743 0.217464
0.161301 0.0300297 0.217466
0.156663 0.0975762 0.217503
0.161299 0.155209 0.2175
0.156983 0.222868 0.217489
0.219122 0.0351215 0.217429
0.223861 0.0925693 0.217473
0.219384 0.160137 0.217493
0.223957 0.217607 0.217439
0.00257966 0.0352074 0.00630037
0.00304279 0.09216 0.00837646
0.00300356 0.160027 0.00645415
0.00332845 0.216899 0.00814152
0.0650914 0.0298186 0.00841674
0.0653163 0.0976719 0.00631026
0.0657165 0.154471 0.00815863
0.0655314 0.222486 0.0063224
0.127434 0.0352295 0.00631679
0.12781 0.0920225 0.00827327
0.127829 0.160213 0.00645371
0.128108 0.216774 0.00808374
0.190009 0.0298598 0.00834447
0.190115 0.0977314 0.00635936
0.190477 0.154333 0.00813991
0.190298 0.222575 0.00633744
0.00282826 0.0300008 0.0467178
0.00289132 0.0967186 0.0443979
0.00305423 0.155083 0.0465878
0.00321642 0.221832 0.0443236
0.0651257 0.0341584 0.0443011
0.0653031 0.0925876 0.0466511
0.0653961 0.159269 0.0443887
0.0655776 0.217448 0.0465299
0.127641 0.0298866 0.0466156
0.127697 0.0966418 0.0444195
0.127883 0.154996 0.0465702
0.127983 0.221836 0.0442261
0.190114 0.0340872 0.0443258
0.190139 0.0925428 0.0465345
0.190195 0.159148 0.044359
0.190453 0.21743 0.0464546
0.00276039 0.0336847 0.0824933
0.00293658 0.0929342 0.0850081
0.00302682 0.158743 0.0825276
0.00321332 0.217969 0.0848323
0.0652599 0.0304426 0.0849613
0.0652627 0.0961951 0.0824499
0.0655464 0.155617 0.0850016
0.0656506 0.22133 0.0824229
0.127643 0.033744 0.0824154
0.127803 0.092977 0.0849245
0.127873 0.158663 0.082449
0.128076 0.217972 0.0848336
0.190163 0.0304025 0.084913
0.19019 0.0963052 0.0824798
0.190397 0.155457 0.0848994
0.190533 0.221214 0.0824334
0.00277839 0.0305666 0.123238
0.00290892 0.0959645 0.120725
0.00308441 0.155589 0.123271
0.00327645 0.221138 0.120615
0.0653042 0.0332253 0.120621
0.0654636 0.0930816 0.123311
0.0655719 0.158581 0.120601
0.0656655 0.218022 0.123174
0.127789 0.0306476 0.12323
0.127898 0.0960381 0.12063
0.128048 0.155546 0.123282
0.12817 0.221226 0.12053
0.190236 0.0334241 0.120602
0.190286 0.0931271 0.123231
0.190464 0.158556 0.120534
0.190604 0.217992 0.123156
0.00287064 0.0332139 0.158709
0.00294867 0.0931828 0.161463
0.00309617 0.158391 0.158816
0.00324797 0.218031 0.161434
0.0653498 0.0307979 0.161515
0.0654887 0.0956662 0.158805
0.0654818 0.155528 0.161537
0.0656487 0.221092 0.158831
0.127784 0.0330824 0.158728
0.127907 0.0932797 0.161561
0.128001 0.158467 0.158836
0.128208 0.218028 0.161457
0.190381 0.0308236 0.161512
0.190373 0.0957556 0.158782
0.190467 0.155626 0.161493
0.190602 0.220981 0.158631
0.00290404 0.0309516 0.19966
0.00289492 0.0955252 0.196971
0.00304946 0.155804 0.199794
0.00312806 0.220782 0.196965
0.0653597 0.0329085 0.196854
0.0654082 0.0932954 0.199718
0.0655033 0.158077 0.197061
0.0656099 0.21825 0.199738
0.127913 0.0307293 0.199781
0.127897 0.0954288 0.196959
0.128001 0.155819 0.199707
0.128161 0.22078 0.196921
0.190415 0.0328765 0.196844
0.190421 0.0933369 0.19977
0.1905 0.15815 0.196951
0.190629 0.218235 0.199639
0.00282753 0.0328857 0.235001
0.00282634 0.0933359 0.237987
0.00297639 0.158202 0.235153
0.00301873 0.218186 0.237956
0.0652634 0.0308128 0.23788
0.0654036 0.0954428 0.235122
0.0655257 0.155799 0.237942
0.0655711 0.220701 0.235024
0.127867 0.0328321 0.235059
0.127874 0.0933026 0.237957
0.128005 0.157922 0.235122
0.128042 0.218223 0.237927
0.190335 0.0307042 0.237831
0.190447 0.095396 0.235031
0.190498 0.155777 0.237917
0.190567 0.220598 0.235023
0.0347769 8.07021e-04 0.273113
0.032642 0.0633441 0.276363
0.0350125 0.125936 0.273237
0.0328254 0.188436 0.27643
0.0949999 7.62743e-04 0.276387
0.0973442 0.063283 0.27328
0.095303 0.125871 0.27638
0.0975002 0.188452 0.273279
0.159887 6.88475e-04 0.273098
0.157738 0.0632241 0.276372
0.159869 0.125823 0.273316
0.157838 0.188401 0.276444
0.220309 7.46604e-04 0.276327
0.222293 0.0632464 0.273222
0.220347 0.125753 0.276366
0.222503 0.188337 0.273229
0.0327455 7.9303e-04 0.314471
0.0344123 0.0632907 0.311297
0.0329341 0.125802 0.314509
0.0347535 0.188402 0.311358
0.0967606 6.84767e-04 0.311262
0.0954697 0.0631942 0.314443
0.097133 0.125767 0.311313
0.095449 0.188373 0.314559
0.157967 6.91601e-04 0.314526
0.159232 0.0631717 0.311315
0.158047 0.125774 0.31448
0.159733 0.188337 0.31134
0.221833 6.70295e-04 0.31117
0.220602 0.0632273 0.314461
0.222139 0.125783 0.31129
0.220553 0.188276 0.31457
0.0338307 8.03517e-04 0.349397
0.0332607 0.0632391 0.352561
0.0337471 0.125739 0.349322
0.033287 0.188335 0.35268
0.0955915 6.71973e-04 0.352608
0.0964098 0.0632014 0.349293
0.0958813 0.125696 0.352556
0.0965262 0.188313 0.349339
0.158896 6.8611e-04 0.349329
0.158373 0.0631583 0.352613
0.158772 0.125728 0.349364
0.158491 0.188286 0.352593
0.220839 7.29331e-04 0.352653
0.221431 0.0632149 0.349303
0.221099 0.125685 0.352647
0.221518 0.188315 0.349308
0.0336968 6.65139e-04 0.390662
0.0327203 0.0632778 0.387282
0.0337213 0.125773 0.390658
0.0330074 0.188365 0.387236
0.0953096 7.55902e-04 0.3874
0.0964429 0.0631668 0.390561
0.0955289 0.125713 0.387379
0.0965081 0.188252 0.390556
0.159026 7.38107e-04 0.390661
0.157986 0.0632069 0.387368
0.158855 0.125706 0.390625
0.158203 0.188249 0.387317
0.220411 7.86806e-04 0.387366
0.221512 0.0632621 0.390704
0.22069 0.125697 0.387329
0.221373 0.188237 0.390653
0.0311224 9.31417e-04 0.425491
0.0359494 0.0633818 0.428883
0.0309659 0.125967 0.425337
0.0364534 0.18835 0.428843
0.0980275 9.69825e-04 0.4288
0.0935065 0.0634756 0.425541
0.0986386 0.125841 0.428721
0.0936854 0.188375 0.425496
0.156199 9.76608e-04 0.425571
0.16115 0.063375 0.428863
0.155869 0.125909 0.425472
0.161508 0.188234 0.428753
0.223108 9.03051e-04 0.428841
0.218575 0.0634478 0.425582
0.223833 0.125781 0.428891
0.218639 0.188335 0.42548
0.0329019 0.00104155 0.466911
0.028516 0.0634978 0.463942
0.0338076 0.125953 0.466973
0.0285015 0.188412 0.463996
0.0914668 9.63276e-04 0.46388
0.0962238 0.0634263 0.466822
0.09102 0.125892 0.464074
0.0965384 0.188338 0.466991
0.158261 0.00103411 0.467017
0.15346 0.0634866 0.464028
0.158982 0.125958 0.467091
0.153478 0.188367 0.464132
0.21626 8.87404e-04 0.463963
0.221102 0.0633998 0.466987
0.215972 0.125852 0.464156
0.221663 0.1884 0.466941
0.0315686 0.0351268 0.255605
0.0361158 0.0925816 0.255646
0.0319567 0.160181 0.255661
0.0364733 0.217551 0.255668
0.0986208 0.0298869 0.255625
0.0941571 0.0974644 0.25568
0.0988421 0.155163 0.255685
0.0943064 0.222672 0.255642
0.15659 0.0349884 0.255612
0.161295 0.0925442 0.255669
0.156882 0.160144 0.255677
0.161501 0.217534 0.255646
0.2237 0.0299935 0.255569
0.219159 0.0974628 0.25563
0.223803 0.154972 0.255667
0.21929 0.222673 0.255649
0.0360317 0.0299022 0.293757
0.0314624 0.0975659 0.293778
0.0362195 0.15501 0.293789
0.0316852 0.222712 0.293789
0.0939137 0.0350374 0.29374
0.0987196 0.092407 0.293766
0.0941488 0.160118 0.293818
0.0989743 0.217552 0.293827
0.161146 0.0297379 0.29378
0.156452 0.0974663 0.293802
0.161323 0.154962 0.293809
0.15672 0.222835 0.293799
0.21899 0.0349723 0.293728
0.22386 0.0923934 0.293763
0.219178 0.160141 0.293797
0.223852 0.217358 0.293802
0.0312502 0.0351082 0.331882
0.0360391 0.0923556 0.331887
0.0316204 0.160191 0.331922
0.0362143 0.217415 0.331928
0.0984884 0.0297182 0.331888
0.0939188 0.0974501 0.331906
0.0986841 0.154867 0.331903
0.0941151 0.222869 0.331924
0.156275 0.0349986 0.331933
0.161108 0.0922831 0.3319
0.15664 0.160082 0.331921
0.161368 0.217402 0.3319
0.223641 0.0296908 0.331878
0.21899 0.0976543 0.331901
0.22371 0.154849 0.33192
0.219091 0.222821 0.331889
0.0358513 0.0297773 0.370029
0.0313121 0.0976553 0.370018
0.0358602 0.154731 0.370022
0.0314061 0.222876 0.369998
0.093688 0.0350728 0.369992
0.0984096 0.0923044 0.369999
0.0939957 0.160064 0.36998
0.0987094 0.217421 0.370005
0.160959 0.0297407 0.370018
0.15657 0.0975749 0.370037
0.16094 0.154765 0.370035
0.156577 0.222851 0.369997
0.21894 0.0352071 0.370035
0.223485 0.0921186 0.370032
0.219086 0.160188 0.369998
0.223797 0.217358 0.370019
0.0312432 0.0352108 0.40813
0.03564 0.092243 0.408122
0.0315067 0.160474 0.408104
0.0357506 0.217267 0.408122
0.0981102 0.0298681 0.408119
0.0939081 0.0976205 0.408094
0.0981374 0.154928 0.408125
0.0942684 0.22273 0.408092
0.156341 0.0352653 0.408161
0.160633 0.0922445 0.408162
0.156757 0.160173 0.408122
0.160963 0.21722 0.408122
0.223207 0.0298299 0.408186
0.219179 0.0976956 0.408196
0.223323 0.154772 0.40815
0.219238 0.222783 0.408085
0.0339649 0.029727 0.446389
0.0307606 0.0975545 0.446304
0.0340542 0.154528 0.44636
0.030976 0.222625 0.446309
0.092873 0.0348887 0.446328
0.0964271 0.0923048 0.446394
0.0933418 0.159929 0.446342
0.0965604 0.216916 0.446372
0.159024 0.0297736 0.446402
0.15583 0.0976475 0.446378
0.159366 0.154716 0.446417
0.156094 0.222291 0.446325
0.218124 0.034876 0.446392
0.221536 0.0921673 0.446438
0.218227 0.159879 0.446376
0.221598 0.217151 0.446367
0.0286789 0.0339659 0.484648
0.0320205 0.0925091 0.484621
0.0291444 0.159164 0.484622
0.0320388 0.217829 0.484614
0.0945901 0.0299272 0.484635
0.091582 0.0963439 0.484658
0.0949451 0.154878 0.484658
0.0918869 0.221558 0.484566
0.154021 0.0341254 0.484658
0.156981 0.0924537 0.484652
0.154003 0.159035 0.484663
0.157179 0.217596 0.484663
0.219774 0.0298382 0.48464
0.216812 0.0963786 0.48466
0.219947 0.155083 0.484643
0.217098 0.22152 0.484658
0.00269565 0.0306671 0.276078
0.00277062 0.095401 0.273165
0.00290751 0.155748 0.276022
0.00295645 0.220484 0.27321
0.0651444 0.0328577 0.273183
0.065248 0.093224 0.276042
0.0654208 0.158077 0.273281
0.0654949 0.218214 0.276113
0.127762 0.0305679 0.276067
0.12778 0.0953154 0.27324
0.127898 0.155689 0.276173
0.128036 0.220484 0.273232
0.190205 0.0326281 0.273126
0.190298 0.0931361 0.276186
0.190416 0.157763 0.273235
0.190483 0.218192 0.276159
0.00248834 0.03253 0.311304
0.00255195 0.0933602 0.314256
0.00278073 0.157604 0.311356
0.00284834 0.218469 0.314231
0.0650974 0.0309919 0.314246
0.0652702 0.0949494 0.311315
0.0653186 0.155808 0.314271
0.0653928 0.220212 0.311353
0.127551 0.0322138 0.311316
0.127647 0.0934356 0.3143
0.127839 0.157609 0.311381
0.127912 0.218332 0.314349
0.190209 0.0310256 0.314356
0.190262 0.0948192 0.311301
0.190307 0.155866 0.314281
0.1904 0.220108 0.311403
0.00239113 0.0314061 0.352429
0.00250518 0.0943989 0.349539
0.00255568 0.1563 0.352376
0.002612 0.219628 0.349507
0.0649435 0.0319616 0.349471
0.0649727 0.0939302 0.352447
0.0651513 0.156951 0.349508
0.0651985 0.218851 0.352409
0.127478 0.0311787 0.35248
0.127633 0.0943911 0.349536
0.127642 0.156524 0.352371
0.127783 0.219576 0.349483
0.190135 0.0318681 0.349489
0.190096 0.0939816 0.352398
0.190214 0.156783 0.349563
0.190316 0.219036 0.352376
0.00231901 0.0311097 0.387707
0.00224228 0.0946989 0.390499
0.00243193 0.156219 0.38782
0.00248214 0.219915 0.390428
0.0647547 0.03218 0.390487
0.0648813 0.0935752 0.387676
0.0649852 0.157141 0.390387
0.0651371 0.218635 0.387754
0.127467 0.0310964 0.387679
0.127412 0.0945401 0.390447
0.127501 0.156213 0.387808
0.127675 0.219722 0.390438
0.189924 0.0321926 0.390534
0.190102 0.0937164 0.387825
0.190099 0.156994 0.390379
0.190104 0.218742 0.387687
0.00226248 0.0341916 0.428412
0.00249801 0.0918451 0.426105
0.00237798 0.159534 0.428358
0.00267775 0.216738 0.426152
0.0648395 0.0296497 0.42596
0.0648194 0.0969988 0.428385
0.0651836 0.154251 0.426067
0.0651187 0.222077 0.428284
0.127318 0.0342956 0.428464
0.127601 0.0918708 0.426145
0.127583 0.159471 0.428461
0.127885 0.216724 0.426103
0.190005 0.0295057 0.4261
0.189928 0.0969604 0.428403
0.190263 0.154095 0.426109
0.190057 0.221929 0.42832
0.249852 0.222315 0.466378
0.249697 0.0297223 0.464653
0.061873 0.0344632 0.466761
0.062115 0.0920031 0.46465
0.0621913 0.159897 0.466655
0.062246 0.216736 0.464651
0.124684 0.0297866 0.464514
0.124675 0.0973119 0.466617
0.124755 0.154266 0.464509
0.124902 0.222276 0.466441
0.187033 0.034638 0.466601
0.187193 0.0919272 0.464675
0.187225 0.159872 0.466699
0.187415 0.216662 0.464713
0.249683 0.0972712 0.466566
0.249789 0.154319 0.464475
0.187211 0.217549 0.504616
0.0280788 0.0634799 0.504707
0.0319675 9.38625e-04 0.502772
0.0274819 8.52348e-04 0.542601
0.0318881 0.0633966 0.541566
0.0275686 0.12591 0.542663
0.03215 0.188363 0.541467
0.24881 0.219685 0.579307
0.0902171 0.0633212 0.54265
0.0949114 0.125801 0.541409
0.0900387 0.188332 0.542624
0.153003 8.5832e-04 0.542771
0.157462 0.0632857 0.54135
0.152908 0.125868 0.542709
0.157443 0.188275 0.541535
0.219863 7.6429e-04 0.541423
0.215455 0.0633601 0.542657
0.219868 0.125761 0.541433
0.215567 0.188308 0.542606
0.0295037 8.87391e-04 0.580276
0.0294214 0.0634231 0.580704
0.029872 0.125884 0.580212
0.0297134 0.188399 0.580643
0.0918814 9.15042e-04 0.58085
0.0921324 0.0632951 0.580126
0.0920963 0.12588 0.580694
0.092252 0.188295 0.580172
0.154818 8.58959e-04 0.580177
0.154303 0.063348 0.580754
0.154748 0.125752 0.580197
0.154559 0.18831 0.580636
0.216773 9.15492e-04 0.580786
0.217301 0.0633473 0.580289
0.216871 0.125829 0.580667
0.217421 0.188176 0.580164
0.0293994 0.00100218 0.619436
0.0293046 0.0633716 0.619257
0.0294186 0.125838 0.619452
0.0294837 0.188248 0.619273
0.0919008 8.96576e-04 0.619342
0.0919884 0.0633773 0.619535
0.0919081 0.125794 0.619299
0.0919386 0.188329 0.619401
0.154423 9.08796e-04 0.619444
0.154144 0.0633399 0.619337
0.154473 0.125804 0.619416
0.154447 0.188249 0.619266
0.216267 8.67726e-04 0.504826
0.216898 9.19072e-04 0.61931
0.216778 0.0634145 0.619537
0.216904 0.125792 0.619315
0.216575 0.188205 0.619402
0.158079 0.125873 0.502622
0.029403 0.00100856 0.658208
0.0295404 0.0633709 0.658234
0.0295545 0.125794 0.658134
0.0296825 0.188295 0.658161
0.0918956 9.04395e-04 0.658302
0.0921295 0.063392 0.658212
0.0919562 0.12586 0.658195
0.0919432 0.188369 0.658175
0.154531 0.00101227 0.658225
0.154405 0.0634553 0.658324
0.154569 0.125892 0.658196
0.154513 0.188323 0.65825
0.216935 0.00104823 0.658284
0.216914 0.0634437 0.658223
0.216943 0.12586 0.658244
0.21696 0.18826 0.658123
0.0293869 0.00101215 0.697167
0.029496 0.0634263 0.697071
0.0296502 0.125875 0.697012
0.0296412 0.188349 0.696934
0.092091 0.00100899 0.697125
0.0920486 0.0634801 0.697056
0.0922144 0.125902 0.69709
0.0919847 0.188397 0.697058
0.154652 0.00114519 0.697178
0.154892 0.0635138 0.697016
0.154717 0.125932 0.697166
0.15461 0.188386 0.697041
0.217065 0.0011269 0.697069
0.217391 0.0634702 0.697127
0.217395 0.125914 0.697145
0.21726 0.18831 0.69697
0.0293487 0.00109774 0.735916
0.0295649 0.0635516 0.735844
0.0292529 0.125963 0.735792
0.0295202 0.188447 0.735791
0.0919822 0.00109688 0.735883
0.0918308 0.063533 0.735899
0.0921698 0.126016 0.735929
0.0921073 0.188458 0.735881
0.154629 0.0011779 0.735875
0.15461 0.0635799 0.735974
0.15463 0.125995 0.73583
0.154777 0.188528 0.735821
0.217592 0.00112633 0.735883
0.217689 0.0635277 0.735954
0.217538 0.125965 0.735813
0.217504 0.18844 0.73573
0.0317272 0.0308846 0.522972
0.0293001 0.0959098 0.522938
0.0319279 0.155749 0.522854
0.0295931 0.220792 0.522899
0.0915691 0.0333987 0.522927
0.0942215 0.0930764 0.522922
0.0916431 0.158482 0.522927
0.0942681 0.218247 0.522876
0.157067 0.0305439 0.522926
0.154532 0.0959757 0.522939
0.157204 0.155771 0.522931
0.154575 0.220641 0.522928
0.216787 0.0334144 0.522933
0.219334 0.093054 0.522865
0.216602 0.158214 0.522901
0.219118 0.21852 0.522915
0.0296564 0.0326766 0.561352
0.0313361 0.0941199 0.561302
0.0297029 0.157732 0.5613
0.0313263 0.21895 0.561236
0.093701 0.0312836 0.56124
0.0921708 0.0951521 0.561269
0.0939075 0.156382 0.561226
0.0923873 0.22021 0.561257
0.154622 0.032917 0.561327
0.156167 0.0937792 0.561277
0.154556 0.157738 0.561317
0.156123 0.218948 0.561251
0.218733 0.0314146 0.561307
0.217244 0.0951604 0.561286
0.219186 0.156271 0.561208
0.217156 0.220051 0.56127
0.0297511 0.0319492 0.599973
0.0292961 0.0949079 0.599948
0.0299368 0.156945 0.599964
0.0295259 0.219705 0.599936
0.0917686 0.0324602 0.600012
0.0921364 0.0943204 0.599929
0.0916127 0.157259 0.59996
0.0924014 0.219328 0.599907
0.15469 0.0318667 0.599995
0.154357 0.0947766 0.599977
0.154747 0.156745 0.599932
0.154331 0.219872 0.599923
0.216789 0.0323547 0.600037
0.21727 0.0944363 0.600027
0.216829 0.157285 0.599948
0.217176 0.219126 0.599915
0.029594 0.0323235 0.638821
0.0297677 0.0944162 0.638794
0.0296701 0.157095 0.638808
0.0298225 0.219451 0.638785
0.092397 0.0319153 0.638861
0.0921531 0.0946775 0.638823
0.0923904 0.157009 0.638799
0.092116 0.219744 0.638781
0.154603 0.0322508 0.638861
0.154733 0.094582 0.638843
0.154489 0.157204 0.638811
0.154746 0.21945 0.638809
0.217426 0.0320918 0.638924
0.217169 0.0947091 0.638918
0.217176 0.156963 0.638827
0.217076 0.219458 0.638772
0.0299037 0.0321149 0.677677
0.0296114 0.0946216 0.677637
0.0295679 0.157123 0.677596
0.0296232 0.219598 0.677568
0.0923021 0.0320957 0.677712
0.0923317 0.0946286 0.677671
0.0922421 0.157039 0.677666
0.0922451 0.219727 0.677614
0.154936 0.032234 0.677729
0.154734 0.0948243 0.67773
0.154779 0.157016 0.677709
0.154596 0.219569 0.677637
0.217168 0.0323049 0.677733
0.217411 0.0946832 0.677748
0.217321 0.157092 0.677652
0.217367 0.219482 0.677596
0.0295314 0.0322314 0.716491
0.0297053 0.0946804 0.716444
0.0296525 0.15716 0.71639
0.0297327 0.219667 0.716315
0.0922883 0.0323523 0.716501
0.0922542 0.0947049 0.716524
0.092223 0.15721 0.716496
0.0922509 0.21966 0.716411
0.154917 0.0324265 0.716552
0.155074 0.0946404 0.716544
0.154797 0.157224 0.716489
0.154951 0.219757 0.716419
0.217693 0.0323714 0.716531
0.217699 0.0946543 0.716519
0.217635 0.157198 0.716431
0.217518 0.219564 0.716338
0.249012 0.0923506 0.542687
0.220488 0.188414 0.502767
0.12449 0.155018 0.504827
0.0618344 0.0923607 0.504677
0.095499 0.0632788 0.502621
0.12449 0.0298965 0.504852
0.24955 0.0965009 0.502953
0.248928 0.219151 0.619405
0.187016 0.0924937 0.504653
0.153646 0.0634165 0.504777
0.248937 0.156939 0.619303
0.248855 0.0344266 0.541356
0.249035 0.156676 0.580182
0.0612963 0.0297206 0.542781
0.0613602 0.0969323 0.541421
0.0614692 0.154673 0.542746
0.0614751 0.222183 0.54149
0.123911 0.0344164 0.541342
0.124023 0.092148 0.542682
0.123951 0.159394 0.541366
0.12401 0.217153 0.542617
0.18663 0.0297514 0.542845
0.186478 0.0969571 0.541509
0.186588 0.154681 0.542927
0.186473 0.221903 0.541488
0.248859 0.0318946 0.580135
0.0948457 8.42343e-04 0.541362
0.248783 0.0947665 0.579363
0.0613328 0.0321482 0.579283
0.0615512 0.0946321 0.580004
0.0614502 0.157335 0.579214
0.0616429 0.21953 0.579902
0.123877 0.0318775 0.580099
0.123753 0.0946095 0.579284
0.123935 0.157028 0.580048
0.123903 0.219666 0.5793
0.186322 0.0323536 0.579323
0.186457 0.0944036 0.579991
0.186393 0.157176 0.579174
0.186463 0.219244 0.579993
0.248944 0.0321896 0.619384
0.249098 0.21945 0.658098
0.249187 0.032101 0.658407
0.0615523 0.032261 0.619495
0.0614824 0.0945125 0.619126
0.0616639 0.157117 0.61949
0.0615367 0.21956 0.619178
0.123964 0.0319642 0.619242
0.124031 0.0946911 0.619358
0.123965 0.157095 0.619128
0.124043 0.219426 0.619428
0.186483 0.032244 0.619477
0.186463 0.0945453 0.619196
0.186527 0.156844 0.619408
0.186405 0.219554 0.619203
0.0616267 0.0322955 0.658087
0.0616552 0.0944386 0.658245
0.0616429 0.157066 0.658115
0.0616277 0.219614 0.658258
0.124056 0.032111 0.658275
0.124135 0.0946716 0.658163
0.124082 0.157165 0.658337
0.124067 0.219693 0.658222
0.186567 0.0321892 0.658136
0.186627 0.0947075 0.658364
0.186598 0.157097 0.658167
0.186637 0.219523 0.65827
0.249003 0.15928 0.541186
0.249046 0.0946896 0.619558
0.249472 0.219462 0.696973
0.0615699 0.0322082 0.697177
0.061641 0.094679 0.696996
0.0616613 0.156972 0.696999
0.0616919 0.219466 0.696912
0.124236 0.0322467 0.697136
0.124251 0.0945573 0.697224
0.124178 0.157274 0.697056
0.124136 0.219655 0.69704
0.186916 0.0324653 0.697305
0.186893 0.0946597 0.697151
0.186816 0.157174 0.697166
0.186764 0.219502 0.696943
0.248986 0.21733 0.542677
0.0615459 0.0320297 0.735738
0.0615634 0.0950476 0.735893
0.0615014 0.157074 0.735922
0.0616401 0.219482 0.735741
0.124222 0.0322913 0.735864
0.124266 0.0945887 0.73579
0.124279 0.15745 0.735874
0.124198 0.219868 0.735752
0.186949 0.0323769 0.735999
0.186979 0.0946646 0.735997
0.186852 0.157129 0.73583
0.186974 0.219828 0.735793
0.0910449 9.67664e-04 0.504742
0.124511 0.221701 0.503031
0.0286932 0.188488 0.504654
0.158142 8.8208e-04 0.502542
0.0620746 0.217746 0.504538
0.0330925 0.125883 0.502595
0.0955072 0.188355 0.502547
0.220469 0.0633068 0.502564
0.216589 0.125804 0.504672
0.0911587 0.125842 0.50473
0.153969 0.18833 0.504705
0.0619756 0.159393 0.502881
0.249667 0.221626 0.503081
0.124355 0.0968615 0.503011
0.0614707 0.0343265 0.502909
0.187067 0.159127 0.502733
0.186888 0.0344463 0.50288
0.249462 0.0322203 0.696972
0.249561 0.155368 0.504912
0.249465 0.0301414 0.504723
0.24913 0.09467 0.658238
0.249104 0.15716 0.658153
0.24973 0.0322924 0.735876
0.249596 0.157382 0.735774
0.249537 0.094861 0.697108
0.249518 0.157105 0.696942
0.249784 0.094832 0.735782
0.249513 0.219542 0.735703
0.02894 0.00124622 0.774689
0.0290984 0.063716 0.77477
0.0291015 0.126124 0.774616
0.0290172 0.188576 0.77457
0.0917358 0.00125297 0.774798
0.0918963 0.06366 0.774722
0.0920735 0.126025 0.774679
0.0921688 0.188451 0.774696
0.154601 0.00127236 0.774716
0.154738 0.0636789 0.774677
0.154827 0.126029 0.774673
0.154793 0.188366 0.774643
0.217222 0.00110767 0.774788
0.21716 0.0635952 0.774747
0.217675 0.126041 0.774692
0.217274 0.188484 0.774633
0.028963 0.00124936 0.813458
0.0288282 0.0636469 0.81343
0.0285899 0.126069 0.813412
0.0286384 0.18852 0.813465
0.0920223 0.00134141 0.813625
0.091815 0.0637503 0.813544
0.0921647 0.126091 0.813501
0.0918928 0.188362 0.813265
0.154787 0.00133973 0.813501
0.154905 0.0636419 0.813603
0.154819 0.126011 0.813587
0.155279 0.188442 0.813398
0.217728 0.00118451 0.813567
0.217907 0.0635728 0.81358
0.217848 0.12595 0.81358
0.217588 0.188391 0.813559
0.0289834 0.00136052 0.852429
0.0290296 0.063676 0.852276
0.0288512 0.126003 0.852335
0.0292393 0.188448 0.852206
0.0922152 0.00130506 0.852233
0.0926151 0.0637232 0.852402
0.0920507 0.126072 0.852268
0.0920272 0.188298 0.852219
0.155181 0.00121855 0.852369
0.155067 0.0636638 0.852262
0.155463 0.126083 0.852381
0.155485 0.188473 0.852235
0.217304 0.00111426 0.852264
0.21795 0.0635267 0.852247
0.21792 0.12601 0.85233
0.217853 0.188434 0.852325
0.0289746 0.00118205 0.891098
0.0290818 0.0635931 0.891394
0.0293677 0.125984 0.89105
0.0291249 0.188423 0.891138
0.0923689 0.00130245 0.891159
0.0920734 0.0636991 0.890953
0.0920206 0.126049 0.891254
0.0922411 0.188369 0.891037
0.154879 0.00128482 0.891034
0.15508 0.0636181 0.891062
0.155095 0.125972 0.890982
0.155254 0.188404 0.891193
0.217938 0.00108257 0.891139
0.217674 0.0634999 0.891017
0.217898 0.125945 0.891165
0.217686 0.188531 0.891024
0.0294525 0.00112647 0.93029
0.0296702 0.0636601 0.929829
0.0296683 0.126079 0.930238
0.0293954 0.18849 0.929718
0.0924525 0.00129194 0.929663
0.0923353 0.0636832 0.930037
0.0921349 0.126078 0.92976
0.0927104 0.18834 0.93006
0.154957 0.00120253 0.93011
0.155026 0.0636474 0.929769
0.155175 0.12599 0.930146
0.154731 0.188395 0.929648
0.217464 0.0011054 0.929828
0.217666 0.0635904 0.930215
0.21749 0.126083 0.929686
0.217901 0.188484 0.930097
0.0305002 0.00124365 0.968318
0.0300898 0.0636218 0.969641
0.0311434 0.126104 0.968305
0.0300318 0.188468 0.969569
0.0928201 0.00127741 0.969446
0.093125 0.0637261 0.968222
0.0923496 0.125988 0.969492
0.0935678 0.188436 0.968093
0.15544 0.0012605 0.968189
0.154966 0.0635375 0.969609
0.156053 0.126051 0.968224
0.154909 0.188399 0.969517
0.21788 0.00106305 0.969503
0.21836 0.0637031 0.96822
0.217401 0.12602 0.969509
0.218455 0.188425 0.968247
0.0336824 0.0308264 0.988108
0.0309262 0.096347 0.988049
0.0336396 0.155587 0.988023
0.0313767 0.221356 0.987942
0.0932111 0.0342319 0.988018
0.0961907 0.0932401 0.988015
0.0938111 0.158798 0.987946
0.0963614 0.218068 0.987879
0.158524 0.0306008 0.988029
0.155945 0.0964409 0.988023
0.158606 0.155584 0.988006
0.156264 0.221329 0.987912
0.218216 0.0342874 0.988047
0.22107 0.0932006 0.988058
0.218703 0.158817 0.988049
0.220892 0.21799 0.987939
0.0296228 0.0324147 0.755312
0.0295599 0.0949017 0.755278
0.0295856 0.157312 0.755215
0.0296999 0.219794 0.755168
0.0923138 0.0323986 0.755315
0.092199 0.0947643 0.755273
0.092312 0.157229 0.755292
0.0922858 0.219711 0.755219
0.155029 0.0323701 0.755337
0.155117 0.0948655 0.755338
0.154977 0.157211 0.755279
0.155013 0.219673 0.755217
0.217866 0.0323393 0.75534
0.218047 0.0948175 0.755333
0.217696 0.157221 0.755246
0.217601 0.219739 0.755196
0.0295881 0.0323663 0.794103
0.0296003 0.0949484 0.794054
0.0293685 0.157356 0.793998
0.0294936 0.219815 0.793949
0.0923581 0.0325624 0.794203
0.0922596 0.094882 0.794196
0.092242 0.157217 0.794104
0.0921285 0.2197 0.794031
0.155068 0.0325252 0.794121
0.154903 0.0949063 0.794127
0.155202 0.157105 0.794091
0.155146 0.219615 0.794033
0.217728 0.0324213 0.794159
0.217895 0.0948667 0.794139
0.217836 0.157219 0.794065
0.217713 0.219622 0.794012
0.0294437 0.0325478 0.832899
0.0295154 0.0948982 0.832892
0.0295289 0.157145 0.832863
0.0294483 0.219767 0.83279
0.0923786 0.0326064 0.832951
0.0921628 0.0948237 0.832938
0.092158 0.157338 0.832807
0.092306 0.219393 0.832735
0.155086 0.0323892 0.832897
0.155065 0.0949183 0.832945
0.155196 0.157253 0.832905
0.154962 0.219734 0.832787
0.21797 0.032349 0.832905
0.218018 0.0947703 0.83294
0.217739 0.15717 0.832938
0.217745 0.219601 0.832863
0.0296563 0.0325846 0.871754
0.0295966 0.0946254 0.871729
0.0295388 0.157318 0.871695
0.029835 0.219561 0.871589
0.0924537 0.0323674 0.871647
0.0924219 0.0950509 0.871659
0.0925059 0.157206 0.871678
0.0923739 0.219587 0.871554
0.155264 0.0324758 0.871622
0.155215 0.0947182 0.871655
0.155272 0.157302 0.871651
0.155229 0.21954 0.87159
0.217965 0.0322558 0.871632
0.217949 0.0947539 0.871633
0.217974 0.157137 0.871674
0.217836 0.219816 0.871601
0.0300159 0.0320675 0.910572
0.0298205 0.0950856 0.910578
0.0300547 0.157097 0.910539
0.0302098 0.219752 0.910438
0.0926905 0.0327195 0.910401
0.092508 0.0946462 0.910443
0.0924411 0.157329 0.910472
0.0929515 0.219497 0.910371
0.155397 0.0323226 0.910468
0.155194 0.0950172 0.910448
0.155374 0.15688 0.910453
0.155271 0.219717 0.910426
0.217693 0.0325102 0.910466
0.217971 0.0945745 0.910496
0.217922 0.157389 0.910487
0.218401 0.219631 0.91043
0.029786 0.0329874 0.949419
0.0305018 0.0943189 0.949408
0.0299118 0.157984 0.949388
0.030913 0.218965 0.949274
0.0931688 0.0319289 0.949272
0.0922528 0.0953829 0.949254
0.0930955 0.156608 0.949278
0.0924983 0.220212 0.949163
0.15477 0.0330737 0.949296
0.15573 0.0943511 0.949328
0.154988 0.157797 0.949287
0.155762 0.218921 0.949232
0.218127 0.0318721 0.949413
0.217424 0.0955175 0.949349
0.218435 0.156632 0.949336
0.217614 0.220227 0.949274
0.0614683 0.0323569 0.774773
0.0615619 0.094882 0.77478
0.0614444 0.157223 0.774694
0.061637 0.219692 0.774603
0.124125 0.0325788 0.774754
0.124201 0.0947952 0.774714
0.124223 0.157201 0.774703
0.124266 0.21937 0.774673
0.186934 0.0323318 0.774719
0.187025 0.0949145 0.774737
0.187069 0.157133 0.774615
0.186966 0.219801 0.774555
0.0613376 0.032346 0.813601
0.0611943 0.0952406 0.813622
0.061142 0.157007 0.813354
0.0612871 0.219625 0.813405
0.124201 0.0326933 0.813517
0.124255 0.0944797 0.81371
0.124425 0.15745 0.813568
0.124297 0.219427 0.813382
0.187144 0.0324269 0.813406
0.187057 0.0948473 0.813471
0.187181 0.156912 0.813491
0.187129 0.219832 0.81344
0.0614346 0.0326698 0.852306
0.0613926 0.0947885 0.8523
0.0614105 0.156982 0.852332
0.0616529 0.219728 0.85204
0.124433 0.0323881 0.852255
0.124461 0.0951161 0.852261
0.124335 0.157342 0.852181
0.124347 0.219135 0.85214
0.187291 0.032574 0.852189
0.187398 0.0946946 0.852214
0.187485 0.157348 0.852302
0.187322 0.219787 0.852158
0.0615756 0.0322755 0.891068
0.0616094 0.0948527 0.891183
0.0616015 0.157279 0.891019
0.061849 0.219389 0.890984
0.124471 0.0325111 0.891036
0.124451 0.0949361 0.890988
0.124508 0.15702 0.89104
0.124532 0.219746 0.890844
0.187216 0.0322953 0.89102
0.187285 0.0947324 0.8911
0.187287 0.157166 0.891043
0.187259 0.219809 0.891085
0.249899 0.219528 0.852254
0.249992 0.0949928 0.81354
0.0617822 0.0323414 0.930155
0.0619669 0.0950819 0.929691
0.0618461 0.157382 0.930101
0.0622855 0.219282 0.929628
0.124588 0.032474 0.929694
0.124496 0.0948989 0.930023
0.124708 0.157166 0.929784
0.124688 0.219588 0.930088
0.187129 0.032329 0.93022
0.187265 0.0948247 0.929877
0.187124 0.157431 0.930153
0.187353 0.219564 0.929637
0.249719 0.157327 0.891218
0.249712 0.219494 0.774487
0.249658 0.094808 0.930266
0.249905 0.219631 0.93009
0.0622735 0.0328018 0.968884
0.0621413 0.0942563 0.970193
0.0624568 0.158008 0.968969
0.0624015 0.219025 0.969957
0.12458 0.0322023 0.970177
0.124709 0.0954452 0.968869
0.124712 0.156558 0.969998
0.124884 0.220245 0.96872
0.187271 0.0327023 0.968902
0.187108 0.0942885 0.970194
0.187367 0.157901 0.968887
0.187324 0.218976 0.96996
0.249628 0.031812 0.970362
0.249777 0.0946546 0.77468
5.93007e-05 0.220551 0.968922
0.249561 0.219621 0.813468
0.249708 0.156487 0.970254
0.249723 0.157442 0.774528
0.249968 0.0321781 0.813561
0.2497 0.156973 0.813473
0.249604 0.0324784 0.7747
0.249839 0.0323008 0.891143
0.249623 0.032479 0.92986
0.249836 0.0945958 0.890943
0.249856 0.219828 0.890939
0.249837 0.157126 0.929816
0.249961 0.0319665 0.852261
0.249803 0.0955358 0.969012
0.249934 0.220436 0.969038
0.0316018 0.25095 0.00841822
0.0359894 0.313306 0.00559123
0.0300311 0.375839 0.00804416
0.034054 0.438272 0.00594761
0.0995254 0.250858 0.00577234
0.0931198 0.313506 0.00833461
0.096959 0.375797 0.00586747
0.0925035 0.438361 0.00772368
0.156359 0.250931 0.00837829
0.160823 0.313286 0.0056054
0.154906 0.375874 0.00804059
0.159061 0.438262 0.00599704
0.224435 0.250863 0.00582574
0.218189 0.31344 0.00829365
0.222097 0.375867 0.00585545
0.217542 0.438402 0.00789604
0.0365251 0.251024 0.044181
0.0320524 0.31346 0.0471375
0.0356249 0.37584 0.0436902
0.0306207 0.438389 0.0465048
0.0944267 0.251134 0.0470379
0.0993517 0.313463 0.0439844
0.0938479 0.375981 0.046825
0.0966798 0.438375 0.0438703
0.161282 0.250999 0.0442518
0.157022 0.313407 0.0470833
0.160647 0.375777 0.0437597
0.155609 0.438423 0.046542
0.219307 0.251062 0.0469974
0.224252 0.313357 0.0439604
0.218853 0.375891 0.0468475
0.221785 0.438363 0.0438997
0.0325755 0.251127 0.0854609
0.0360284 0.313447 0.0822295
0.0322734 0.375935 0.0852895
0.0335274 0.438384 0.0820011
0.0983981 0.251133 0.0823435
0.0954227 0.313538 0.0853949
0.0971178 0.376042 0.0819787
0.0935582 0.438542 0.0849223
0.157539 0.251072 0.0853475
0.160976 0.313441 0.0821915
0.157363 0.375932 0.085297
0.158495 0.43845 0.0819857
0.223153 0.251039 0.0823677
0.220421 0.313431 0.0854285
0.222082 0.375984 0.081959
0.218712 0.438546 0.0849056
0.0360034 0.251124 0.120615
0.0331323 0.313519 0.123738
0.0346815 0.376026 0.120058
0.0310436 0.438568 0.123284
0.0950664 0.251133 0.123643
0.0986605 0.313565 0.120356
0.0947665 0.376076 0.123677
0.0961684 0.438562 0.120157
0.160835 0.251114 0.120541
0.158107 0.313556 0.123699
0.159605 0.376145 0.120028
0.156054 0.438637 0.123174
0.22012 0.251067 0.12358
0.22364 0.313554 0.120454
0.219673 0.376079 0.123584
0.221265 0.438571 0.120092
0.032794 0.25111 0.161861
0.0362639 0.313529 0.158595
0.0322816 0.376015 0.161932
0.033603 0.438558 0.158284
0.0984054 0.251066 0.158746
0.0956173 0.313519 0.161979
0.0972485 0.376092 0.158231
0.0936881 0.438603 0.16159
0.157754 0.251129 0.161835
0.161287 0.313592 0.158625
0.15724 0.376104 0.161849
0.158589 0.438629 0.158223
0.223262 0.251108 0.158716
0.220653 0.313563 0.161919
0.222297 0.376155 0.158183
0.218625 0.438658 0.161512
0.0355605 0.251071 0.196929
0.0329947 0.313518 0.200149
0.034362 0.376108 0.19639
0.0309837 0.438609 0.199789
0.095363 0.251098 0.20004
0.098596 0.313539 0.196809
0.0946394 0.376039 0.200115
0.0960019 0.438606 0.19642
0.160643 0.2511 0.196915
0.158164 0.313549 0.200156
0.159417 0.376202 0.196366
0.156105 0.438704 0.199788
0.220313 0.251066 0.200034
0.223537 0.313573 0.196731
0.219776 0.3761 0.200083
0.221012 0.438676 0.196415
0.0327585 0.251054 0.238344
0.0359216 0.313515 0.234923
0.0321048 0.376024 0.238323
0.0332136 0.438585 0.234542
0.0979155 0.251027 0.235065
0.0955504 0.31342 0.238334
0.0967685 0.376122 0.234511
0.0935042 0.438648 0.237995
0.157829 0.251015 0.238316
0.160895 0.313521 0.23483
0.157302 0.376097 0.238316
0.158282 0.438667 0.23456
0.222965 0.250908 0.235031
0.220505 0.313458 0.238327
0.221882 0.376185 0.2345
0.218703 0.438692 0.238066
0.0336112 0.284727 0.0262321
0.0317607 0.342094 0.0261269
0.034157 0.409302 0.0261939
0.0308962 0.468074 0.0261111
0.0973989 0.280084 0.0261809
0.0979823 0.347152 0.0262059
0.0928284 0.405254 0.0261594
0.0961611 0.471545 0.0261261
0.158263 0.284566 0.0262125
0.156718 0.342035 0.0261194
0.15927 0.409277 0.0262048
0.15594 0.468112 0.0261328
0.222403 0.280141 0.0261858
0.222878 0.347081 0.0261705
0.217909 0.405202 0.026166
0.221175 0.471624 0.0261689
0.0357043 0.280017 0.0645201
0.036916 0.347347 0.0644694
0.0296239 0.404721 0.0644167
0.0341122 0.472103 0.0644092
0.0954226 0.285089 0.0645183
0.0946381 0.342173 0.0645099
0.0974377 0.409944 0.0644578
0.0931166 0.467835 0.064395
0.160593 0.280074 0.0644946
0.161849 0.347225 0.0644425
0.154658 0.404659 0.0644165
0.159114 0.472135 0.0644294
0.220416 0.284983 0.0645062
0.219686 0.342021 0.0645197
0.222384 0.409839 0.0644436
0.218087 0.46797 0.0643731
0.0326513 0.285283 0.102812
0.0321401 0.34194 0.102767
0.0350176 0.410136 0.102722
0.0303866 0.46778 0.102643
0.0985024 0.280038 0.102769
0.0996993 0.347532 0.10274
0.0918925 0.404852 0.102737
0.0968541 0.472535 0.10264
0.157421 0.285185 0.102779
0.157182 0.342047 0.102746
0.159961 0.410155 0.102655
0.155296 0.467878 0.102633
0.22352 0.280031 0.102764
0.224575 0.347423 0.102703
0.216809 0.404794 0.10268
0.222106 0.472524 0.102604
0.0362347 0.280096 0.141025
0.0371094 0.347686 0.140967
0.0292782 0.404682 0.140951
0.0346945 0.472781 0.140883
0.0951129 0.285301 0.14102
0.0946168 0.341983 0.140986
0.0975426 0.410403 0.140959
0.0927944 0.467799 0.140879
0.161137 0.280128 0.141025
0.162111 0.347746 0.140955
0.15429 0.404876 0.1409
0.159583 0.472762 0.140829
0.219987 0.28528 0.140977
0.219732 0.342143 0.140967
0.222472 0.4104 0.140885
0.217919 0.467727 0.140813
0.032459 0.285345 0.179239
0.0321297 0.341878 0.179192
0.0349431 0.410525 0.179141
0.030221 0.467602 0.179107
0.0987213 0.28002 0.179229
0.0995718 0.34777 0.179181
0.0916018 0.40465 0.179142
0.0970689 0.472928 0.179108
0.1575 0.285366 0.179221
0.157333 0.34213 0.179192
0.159939 0.410574 0.17911
0.155216 0.467715 0.179049
0.223685 0.280088 0.179216
0.224569 0.347781 0.179123
0.216888 0.404795 0.179105
0.22208 0.472939 0.179059
0.0363001 0.279994 0.217445
0.0368413 0.347797 0.217352
0.0290228 0.404661 0.217333
0.0342398 0.472948 0.217295
0.0946557 0.285334 0.217435
0.0946309 0.341982 0.217387
0.0973035 0.410565 0.217303
0.0924973 0.467671 0.217284
0.161293 0.279947 0.217423
0.161987 0.347936 0.217329
0.154178 0.404778 0.217314
0.159484 0.473051 0.217291
0.219873 0.285344 0.217423
0.219822 0.341948 0.217342
0.222295 0.410663 0.2173
0.217657 0.467632 0.217295
0.00308572 0.284751 0.00680115
0.0010585 0.342167 0.00610594
6.89854e-04 0.409024 0.00805165
7.55224e-04 0.467433 0.00631771
0.0657467 0.279293 0.00742914
0.0633949 0.34707 0.00787268
0.0631709 0.404735 0.0061879
0.063144 0.47141 0.00773167
0.127866 0.284614 0.00678165
0.126007 0.342246 0.00604491
0.125614 0.409081 0.00809577
0.125746 0.467432 0.00640905
0.190542 0.279311 0.00747993
0.188364 0.347045 0.00792144
0.188202 0.404685 0.00622258
0.188213 0.471399 0.00778343
0.00333645 0.279741 0.0458172
0.00343213 0.346729 0.0465424
0.00102892 0.405121 0.0439571
9.25006e-04 0.470935 0.0463512
0.0656912 0.28471 0.0445958
0.0658288 0.342165 0.0440429
0.0634156 0.408924 0.0467394
0.063452 0.467618 0.0443975
0.128177 0.279766 0.0458489
0.128371 0.346808 0.0465254
0.126031 0.405176 0.0439345
0.125878 0.471219 0.0463019
0.190601 0.284413 0.0445959
0.190882 0.342033 0.0440854
0.188355 0.408902 0.0467196
0.188459 0.467676 0.0443411
0.00322554 0.283813 0.0825967
0.00359247 0.343106 0.0820282
8.52325e-04 0.40589 0.120136
0.00105369 0.468179 0.0823621
0.0657003 0.280433 0.0844857
0.0658639 0.346011 0.085048
0.0634011 0.405935 0.081937
0.063357 0.470693 0.0847305
0.128129 0.283871 0.0824976
0.128528 0.343197 0.082014
0.125773 0.408405 0.0852338
0.125975 0.468146 0.0824048
0.19063 0.280455 0.0844732
0.19086 0.345895 0.0850266
0.188417 0.405885 0.0818501
0.188417 0.470717 0.0848468
0.00334077 0.280371 0.122916
0.00348067 0.345879 0.123313
0.065833 0.283892 0.120722
0.0661222 0.343224 0.120234
0.0632874 0.40844 0.123613
0.0634454 0.468095 0.120489
0.128222 0.280551 0.122888
0.128508 0.346047 0.123293
0.125866 0.406068 0.12012
0.125925 0.470867 0.123162
0.190693 0.283774 0.120694
0.191104 0.343287 0.12027
0.188307 0.408495 0.123536
0.188458 0.468168 0.120461
0.00333704 0.283654 0.158855
0.00363474 0.343183 0.158512
8.56739e-04 0.408264 0.0852993
0.0658332 0.280483 0.161105
0.0660217 0.346008 0.16154
0.0633148 0.405971 0.158281
0.0634355 0.470672 0.161423
0.128273 0.283755 0.158925
0.128639 0.343224 0.158532
0.125838 0.408375 0.16184
0.125927 0.468338 0.158647
0.19081 0.28048 0.161138
0.191044 0.346001 0.161487
0.188339 0.405971 0.158341
0.188438 0.470802 0.161324
0.00318909 0.280615 0.199486
0.00331914 0.345836 0.199708
0.0657267 0.283574 0.197061
0.0660081 0.343228 0.196704
0.0630811 0.408268 0.200112
0.0632772 0.468289 0.196944
0.128244 0.280657 0.199383
0.12843 0.345881 0.199734
0.125715 0.406018 0.196519
0.125836 0.470765 0.19963
0.190791 0.2836 0.197097
0.191096 0.343325 0.196739
0.188228 0.408394 0.199932
0.188351 0.468483 0.196934
0.00312571 0.283494 0.235151
0.00335871 0.343208 0.23494
0.0655513 0.280612 0.237731
0.0657814 0.345791 0.237897
0.0630437 0.406121 0.234753
0.0631713 0.470631 0.237765
0.128207 0.283333 0.235196
0.128495 0.343275 0.234929
0.125581 0.408154 0.238143
0.125675 0.468366 0.235134
0.190666 0.280565 0.237656
0.190875 0.345813 0.237776
0.188159 0.406178 0.234705
0.188183 0.470651 0.237782
9.48577e-04 0.468265 0.15869
4.23993e-04 0.408141 0.238179
7.32441e-04 0.408366 0.161833
4.99201e-04 0.468291 0.235048
9.87586e-04 0.470907 0.123106
6.79728e-04 0.470735 0.199615
5.95228e-04 0.405993 0.196423
0.0352078 0.250965 0.273209
0.0330866 0.313394 0.276595
0.0340367 0.376072 0.272708
0.0308887 0.438612 0.276189
0.0953989 0.250973 0.27641
0.0980955 0.313483 0.273051
0.0947589 0.376056 0.276517
0.0956051 0.438645 0.272745
0.160242 0.250974 0.273096
0.158207 0.313401 0.276543
0.159154 0.376098 0.272692
0.155999 0.43869 0.276212
0.22048 0.250914 0.276457
0.223092 0.313422 0.272963
0.219767 0.376048 0.276506
0.220655 0.43868 0.272694
0.0329579 0.250912 0.314642
0.0349609 0.313405 0.311084
0.0324912 0.37602 0.314731
0.0325445 0.438631 0.310946
0.0974199 0.250964 0.311268
0.096056 0.31344 0.314581
0.0960785 0.376055 0.310766
0.0936439 0.438618 0.31442
0.15809 0.250879 0.314623
0.160188 0.313422 0.311131
0.157547 0.375983 0.314721
0.157774 0.438643 0.310895
0.222304 0.250905 0.31118
0.221201 0.313447 0.314692
0.221239 0.376098 0.310744
0.218717 0.438659 0.314354
0.0341521 0.250878 0.349272
0.0335536 0.31343 0.352826
0.0332525 0.376127 0.348849
0.0311729 0.43865 0.352456
0.0958138 0.250894 0.352651
0.0971149 0.313446 0.349142
0.0949818 0.376058 0.35295
0.0947647 0.438633 0.349072
0.159288 0.250856 0.349246
0.158539 0.313403 0.352805
0.158446 0.376063 0.348863
0.156343 0.438563 0.352625
0.221066 0.25089 0.352711
0.222187 0.313462 0.349191
0.21993 0.376034 0.352908
0.220065 0.438597 0.349151
0.0344154 0.250823 0.390668
0.0331093 0.313476 0.387078
0.0333349 0.376016 0.391065
0.0319807 0.438668 0.387432
0.0955376 0.250832 0.387246
0.0971677 0.313343 0.390914
0.0949186 0.37617 0.387132
0.0942071 0.438676 0.39063
0.159363 0.250789 0.39071
0.158079 0.313409 0.387101
0.158177 0.375898 0.391159
0.157048 0.438609 0.387422
0.220459 0.250897 0.387232
0.222175 0.313383 0.390933
0.219868 0.376119 0.387229
0.219034 0.438652 0.390671
0.0308776 0.250939 0.425384
0.0351345 0.313371 0.429062
0.0303166 0.376046 0.425705
0.0321889 0.438522 0.428737
0.0990306 0.250746 0.428853
0.0934083 0.31346 0.425413
0.095702 0.375978 0.428869
0.0933799 0.438618 0.425845
0.156283 0.250834 0.425433
0.159975 0.31328 0.429136
0.155319 0.376035 0.425649
0.157113 0.438532 0.428755
0.223684 0.250742 0.428817
0.218149 0.313515 0.425431
0.220699 0.375993 0.428907
0.218322 0.438606 0.425853
0.0341027 0.25087 0.466971
0.0293837 0.313379 0.464209
0.0330312 0.375839 0.466777
0.0307123 0.438533 0.464381
0.0912032 0.250771 0.464006
0.0961368 0.313265 0.466722
0.092652 0.375865 0.464313
0.0944937 0.438442 0.466592
0.159171 0.250733 0.466947
0.154143 0.313228 0.464213
0.157707 0.375849 0.466756
0.155669 0.438491 0.464261
0.216159 0.250882 0.464105
0.221092 0.313329 0.466928
0.21757 0.375934 0.464221
0.219558 0.438352 0.46663
3.26574e-05 0.405923 0.466762
0.249931 0.279505 0.46563
0.0320309 0.285431 0.255606
0.0321071 0.341881 0.255571
0.0346297 0.410525 0.255501
0.0298875 0.46759 0.255444
0.0986588 0.279902 0.255607
0.099285 0.347853 0.255502
0.0915371 0.404711 0.255499
0.0967545 0.473111 0.255453
0.157167 0.285466 0.255583
0.15727 0.341938 0.25554
0.159738 0.410747 0.255481
0.154893 0.467665 0.255478
0.22374 0.279876 0.255563
0.2242 0.347885 0.25548
0.216579 0.404668 0.255482
0.221725 0.473124 0.255471
0.0361332 0.279706 0.293751
0.0367564 0.347748 0.293693
0.0287019 0.40458 0.293659
0.0341666 0.472986 0.293631
0.094578 0.285471 0.293712
0.0944478 0.341871 0.29369
0.0971533 0.410668 0.293636
0.0922611 0.467669 0.293642
0.161042 0.279723 0.293742
0.161564 0.347815 0.293672
0.154011 0.40463 0.293659
0.159207 0.473176 0.293638
0.219717 0.285482 0.293726
0.21962 0.341832 0.293686
0.222133 0.4107 0.293618
0.217369 0.467647 0.293636
0.0317859 0.285502 0.331882
0.0317601 0.34173 0.331853
0.0346739 0.410705 0.331769
0.0293467 0.467813 0.33179
0.098439 0.27987 0.331865
0.0990371 0.347859 0.331816
0.091126 0.40448 0.331802
0.0967927 0.473054 0.331793
0.157087 0.285411 0.331876
0.156829 0.341743 0.331841
0.159686 0.41074 0.331782
0.154626 0.467577 0.331811
0.223446 0.279748 0.331874
0.224179 0.347994 0.331856
0.216355 0.404589 0.331789
0.221735 0.473016 0.331804
0.0355812 0.279672 0.370014
0.0363063 0.348066 0.369939
0.0288689 0.404658 0.369986
0.0342807 0.472951 0.369924
0.0946818 0.28559 0.369971
0.0942329 0.341727 0.369992
0.0970153 0.410827 0.369898
0.0918942 0.467794 0.369947
0.16057 0.27967 0.37
0.161217 0.348015 0.369981
0.153783 0.40449 0.369991
0.159128 0.473019 0.369972
0.219742 0.285564 0.369988
0.219088 0.341788 0.370002
0.222224 0.410647 0.369941
0.217082 0.467777 0.369969
0.0329109 0.285504 0.408088
0.0306766 0.341828 0.408166
0.0342316 0.41038 0.408139
0.0293722 0.467908 0.408152
0.0972398 0.279491 0.408126
0.0975718 0.348088 0.40811
0.0915965 0.40506 0.408116
0.0966941 0.472687 0.408161
0.158021 0.28539 0.408104
0.155549 0.341587 0.408216
0.159436 0.410396 0.408129
0.154259 0.467738 0.408161
0.222187 0.279597 0.408167
0.222479 0.347959 0.408163
0.216369 0.405048 0.40816
0.221681 0.472806 0.408173
0.0326587 0.279478 0.44638
0.0335976 0.347459 0.446325
0.0290996 0.405359 0.446348
0.0337934 0.472179 0.446346
0.0947874 0.284904 0.446307
0.0921481 0.342346 0.446339
0.0963735 0.409796 0.446306
0.0915212 0.468133 0.446369
0.157695 0.279345 0.446424
0.158136 0.347318 0.446374
0.153959 0.405351 0.446356
0.158902 0.472369 0.446322
0.220019 0.284932 0.446358
0.217258 0.34238 0.446433
0.221282 0.409859 0.44634
0.216692 0.467905 0.446356
0.0310017 0.283914 0.484642
0.029531 0.343198 0.484588
0.0333284 0.409276 0.484536
0.0290071 0.468494 0.484592
0.0934782 0.280427 0.484594
0.0949519 0.346335 0.484572
0.0914471 0.40582 0.48454
0.0958722 0.471785 0.484554
0.155679 0.283851 0.484661
0.15425 0.343036 0.484575
0.157921 0.409238 0.484534
0.154106 0.468351 0.484582
0.21846 0.280497 0.484646
0.219513 0.346601 0.48456
0.216594 0.405724 0.484562
0.2204 0.471835 0.484565
0.00295721 0.2807 0.275882
0.00317015 0.345735 0.276025
0.0655139 0.283212 0.273337
0.0658433 0.343478 0.273079
0.0629115 0.408103 0.276317
0.0630259 0.468499 0.273252
0.128033 0.280697 0.275839
0.128254 0.345617 0.275969
0.12555 0.406116 0.272815
0.125517 0.470764 0.275981
0.190667 0.283113 0.273409
0.190893 0.343382 0.273173
0.188007 0.408105 0.276299
0.188124 0.46843 0.273251
0.00289934 0.282861 0.311418
0.00314144 0.343882 0.311217
3.21835e-04 0.47024 0.352437
3.78023e-04 0.342683 0.428506
0.0654488 0.281103 0.313963
0.0655692 0.345066 0.314224
0.0628704 0.406428 0.310866
0.0628122 0.470356 0.314266
0.127975 0.282785 0.311589
0.128193 0.343897 0.311228
0.12529 0.407696 0.314605
0.125461 0.468801 0.311334
0.190493 0.281064 0.313908
0.190761 0.345182 0.314153
0.187991 0.406415 0.310995
0.187977 0.470358 0.314192
0.00269306 0.281509 0.35218
0.00288602 0.34492 0.352369
4.51771e-04 0.470632 0.27599
2.47493e-04 0.406582 0.349055
0.0652982 0.282334 0.349742
0.0655526 0.344125 0.349439
0.0627469 0.407562 0.35268
0.0628565 0.468915 0.349352
0.127757 0.281249 0.352061
0.12796 0.345007 0.352326
0.125301 0.406596 0.349103
0.125336 0.470066 0.352341
0.190407 0.282374 0.349798
0.190533 0.343994 0.349391
0.187821 0.407604 0.35268
0.1879 0.4687 0.349499
0.00274616 0.281253 0.388338
0.00274551 0.345134 0.387512
1.65312e-04 0.470015 0.46406
0.0651795 0.282624 0.389892
0.0652876 0.34373 0.390391
0.0628674 0.407341 0.387362
0.0628168 0.469865 0.390594
0.127791 0.281141 0.388275
0.127689 0.344982 0.387609
0.125328 0.406996 0.390674
0.12541 0.469291 0.387595
0.190135 0.282757 0.38985
0.190192 0.343742 0.390457
0.187885 0.407018 0.387273
0.187787 0.46988 0.390552
0.00241973 0.284564 0.427525
3.68045e-04 0.469239 0.387564
0.249958 0.469859 0.464166
0.0652963 0.279388 0.426825
0.0630186 0.346304 0.42603
0.062544 0.405922 0.428779
0.0627573 0.469905 0.425838
0.127496 0.284272 0.427495
0.125362 0.342856 0.428506
0.125174 0.408051 0.425685
0.125085 0.469296 0.428825
0.190251 0.279481 0.426959
0.187792 0.346308 0.426153
0.187464 0.405841 0.428907
0.187698 0.469916 0.425713
1.29901e-04 0.279657 0.465402
3.61712e-04 0.406182 0.272843
0.062659 0.284299 0.46554
0.062447 0.342672 0.466466
0.0625354 0.408005 0.464007
0.0624636 0.469228 0.466977
0.124903 0.279311 0.465535
0.125013 0.346271 0.46435
0.124869 0.405964 0.466814
0.125086 0.469816 0.463936
0.187563 0.284441 0.465646
0.187232 0.342626 0.466418
0.187457 0.408015 0.464115
0.187382 0.469069 0.466813
1.37357e-04 0.469359 0.428661
4.18748e-04 0.468805 0.311316
2.48895e-04 0.407765 0.314629
1.1674e-04 0.346389 0.464307
3.77266e-04 0.406976 0.390719
1.92042e-04 0.408039 0.425668
0.154632 0.250766 0.658096
0.158186 0.250836 0.502843
0.24898 0.281865 0.579533
0.0324492 0.250933 0.502757
0.187181 0.409121 0.504864
0.0277975 0.250951 0.542581
0.0322208 0.313531 0.541433
0.0279926 0.376079 0.542425
0.0328015 0.438579 0.541512
0.0950882 0.250832 0.541529
0.0906753 0.313456 0.542432
0.0950674 0.37601 0.541457
0.0908664 0.438506 0.542473
0.153043 0.250881 0.542577
0.157536 0.31348 0.541509
0.153183 0.375981 0.542623
0.157355 0.438542 0.541345
0.219979 0.250878 0.541552
0.215544 0.313437 0.542522
0.219838 0.375929 0.541457
0.215827 0.438501 0.542538
0.0297544 0.313472 0.580618
0.0301308 0.376064 0.580158
0.0296651 0.438449 0.580634
0.0922991 0.313429 0.580067
0.0923063 0.375919 0.580592
0.0925055 0.438587 0.580099
0.154754 0.313342 0.580693
0.15481 0.375985 0.580175
0.154728 0.438429 0.580751
0.217322 0.313311 0.580288
0.217176 0.375885 0.580617
0.217306 0.438508 0.580091
0.0297157 0.313367 0.619097
0.0297611 0.375915 0.619299
0.0298179 0.438481 0.619106
0.0920297 0.313266 0.619234
0.0920085 0.375868 0.619076
0.0920927 0.43844 0.619373
0.154399 0.313241 0.619196
0.154317 0.375815 0.619375
0.154474 0.43835 0.619197
0.21664 0.31322 0.619321
0.217036 0.375795 0.619102
0.216639 0.438361 0.619373
0.0297631 0.3134 0.658127
0.0298333 0.375898 0.657968
0.0298317 0.438426 0.658162
0.092088 0.313323 0.658125
0.0920348 0.375947 0.65809
0.0920617 0.43846 0.658017
0.154533 0.313279 0.658122
0.154424 0.375787 0.658004
0.154519 0.438336 0.658102
0.216899 0.313267 0.658122
0.21682 0.375756 0.658123
0.216808 0.438243 0.658088
0.0296167 0.250887 0.696855
0.0297713 0.313427 0.696868
0.0297026 0.37599 0.69685
0.029893 0.438446 0.696882
0.0919569 0.250888 0.697017
0.0921621 0.313421 0.696872
0.0921451 0.376008 0.696936
0.0918985 0.438552 0.696936
0.154691 0.250861 0.696972
0.154358 0.313349 0.696949
0.154641 0.375862 0.696922
0.154657 0.438326 0.697004
0.217312 0.250769 0.696922
0.217209 0.313341 0.696867
0.217201 0.375851 0.696825
0.217304 0.438337 0.696842
0.0297845 0.250972 0.735721
0.0296817 0.313453 0.735732
0.0296595 0.375937 0.73577
0.029661 0.438386 0.735691
0.0920117 0.250948 0.73577
0.0920635 0.313416 0.735843
0.0920856 0.375883 0.735734
0.0922763 0.438491 0.735818
0.154841 0.250932 0.735809
0.154806 0.313273 0.735744
0.154481 0.375736 0.735843
0.154393 0.438243 0.73586
0.21749 0.250919 0.735647
0.217299 0.313446 0.735566
0.217292 0.375864 0.735591
0.216992 0.438261 0.735659
0.0305115 0.280971 0.522895
0.0322728 0.346094 0.522818
0.0294667 0.406435 0.522814
0.032516 0.47101 0.522866
0.092985 0.283175 0.522902
0.0919584 0.343691 0.522848
0.0950227 0.408474 0.522798
0.091793 0.468851 0.522856
0.155958 0.28094 0.522906
0.156867 0.346141 0.522878
0.154312 0.406071 0.522837
0.157639 0.471249 0.522866
0.218083 0.283374 0.522908
0.217294 0.343623 0.522851
0.219656 0.408489 0.522858
0.21669 0.468873 0.522911
0.0304759 0.282779 0.561227
0.0299955 0.344346 0.561217
0.0317651 0.407872 0.5612
0.0299432 0.469232 0.561252
0.0931206 0.281619 0.561233
0.0938526 0.345289 0.561153
0.0922387 0.406678 0.561203
0.0943546 0.470495 0.561142
0.15542 0.282768 0.561269
0.154964 0.344087 0.561262
0.156676 0.407999 0.561213
0.15453 0.469018 0.561272
0.217979 0.281539 0.56126
0.218635 0.345168 0.561265
0.217154 0.406655 0.561239
0.219119 0.470516 0.561251
0.0296757 0.281863 0.599893
0.0298154 0.34505 0.599833
0.0295045 0.407005 0.599872
0.0301883 0.469915 0.599844
0.0920386 0.282337 0.599863
0.0918507 0.344431 0.599846
0.0926061 0.407526 0.599844
0.0919855 0.469484 0.599874
0.154483 0.281725 0.599902
0.154745 0.34485 0.599882
0.154137 0.40691 0.59988
0.154747 0.469955 0.599928
0.216952 0.282115 0.599895
0.2169 0.344175 0.599906
0.217167 0.407376 0.599888
0.216572 0.469487 0.599937
0.030029 0.282143 0.638747
0.0299074 0.344628 0.638648
0.0302507 0.407304 0.638682
0.029759 0.469612 0.638682
0.0923171 0.282027 0.638709
0.092317 0.344512 0.638695
0.0921781 0.407096 0.638674
0.0923701 0.469805 0.638719
0.154662 0.282038 0.638748
0.154515 0.344465 0.638727
0.154765 0.407189 0.638699
0.154686 0.469647 0.638793
0.217112 0.281947 0.638708
0.217155 0.344603 0.638676
0.216985 0.406954 0.638682
0.217143 0.469695 0.638758
0.029812 0.282187 0.677524
0.0300183 0.344676 0.677478
0.0297439 0.407212 0.677501
0.0298366 0.469798 0.677568
0.0922015 0.282083 0.677583
0.0922624 0.344844 0.677535
0.0924482 0.407269 0.677538
0.0921451 0.469749 0.677535
0.154906 0.282091 0.677563
0.154913 0.344663 0.677542
0.154739 0.407175 0.677521
0.154774 0.469575 0.677604
0.217263 0.282034 0.677529
0.217145 0.344626 0.677501
0.217232 0.407091 0.677511
0.217189 0.469612 0.677543
0.0297034 0.282204 0.716311
0.0298377 0.344754 0.716342
0.0300227 0.407165 0.716318
0.0296813 0.469731 0.716368
0.0921999 0.282295 0.71637
0.0924274 0.344652 0.716388
0.0922406 0.407279 0.716379
0.0923388 0.469777 0.716426
0.154959 0.282061 0.716408
0.154946 0.344515 0.716369
0.154914 0.40708 0.716385
0.154818 0.469459 0.716433
0.217503 0.282049 0.716264
0.217403 0.344572 0.716275
0.217268 0.407068 0.716293
0.217195 0.469582 0.716342
0.249074 0.284473 0.542094
0.0623031 0.409172 0.504813
0.124721 0.346677 0.504617
0.216634 0.250933 0.504608
0.0922762 0.250902 0.580582
0.249164 0.469627 0.735663
0.249096 0.342341 0.541536
0.248969 0.469722 0.580158
0.249028 0.344332 0.619099
0.0615303 0.279967 0.542167
0.0616941 0.347132 0.54265
0.0617857 0.404887 0.541164
0.0618905 0.472138 0.542834
0.124133 0.284566 0.542024
0.124138 0.342377 0.541433
0.124309 0.409451 0.542858
0.12425 0.467533 0.541066
0.186622 0.279928 0.542186
0.186692 0.346962 0.54262
0.186634 0.405147 0.541189
0.186791 0.471819 0.543032
0.249021 0.344812 0.579952
0.249058 0.467552 0.541213
0.249724 0.280218 0.503798
0.249379 0.282078 0.696874
0.0614963 0.282243 0.579495
0.0615773 0.344636 0.579209
0.0618125 0.407413 0.58009
0.0616561 0.469542 0.579069
0.12406 0.282157 0.579628
0.124056 0.344727 0.579892
0.124003 0.407149 0.579166
0.124194 0.469985 0.580137
0.186529 0.282037 0.579555
0.186427 0.344672 0.579379
0.186635 0.407234 0.580128
0.186372 0.46965 0.579194
0.248959 0.282151 0.619268
0.24888 0.407114 0.57929
0.249486 0.344455 0.735483
0.249295 0.344849 0.696822
0.0616249 0.282016 0.619129
0.0617282 0.344462 0.61926
0.061767 0.407253 0.618981
0.0618309 0.46979 0.619308
0.12407 0.281988 0.619253
0.124025 0.344548 0.619164
0.12416 0.4071 0.619395
0.124121 0.469616 0.619163
0.186406 0.281862 0.619251
0.186424 0.344631 0.619355
0.186461 0.407075 0.619022
0.186405 0.469549 0.619497
0.0620474 0.467919 0.502512
0.249054 0.469516 0.658218
0.248794 0.469599 0.619164
0.249026 0.344657 0.658193
0.0617815 0.282066 0.658219
0.0618413 0.344599 0.658031
0.0618892 0.407278 0.658161
0.0616891 0.469802 0.658051
0.124109 0.281935 0.658204
0.124094 0.344447 0.658201
0.124204 0.407291 0.658064
0.12416 0.469685 0.658219
0.186643 0.282016 0.658113
0.186562 0.344433 0.657955
0.186539 0.406929 0.658223
0.186591 0.469607 0.658038
0.249262 0.407062 0.69683
0.249131 0.409395 0.542758
0.24905 0.407398 0.619382
0.248948 0.407019 0.658073
0.0616749 0.282301 0.696889
0.0617146 0.344629 0.696998
0.0618355 0.407126 0.696921
0.0615493 0.470032 0.697101
0.12418 0.281926 0.696923
0.124126 0.344801 0.696943
0.124152 0.407329 0.697057
0.124149 0.469509 0.696995
0.186703 0.282106 0.696929
0.186697 0.344429 0.697032
0.18672 0.407244 0.696895
0.186679 0.469428 0.697028
0.249032 0.282024 0.658066
0.124563 0.405307 0.50255
0.249572 0.404841 0.502715
0.249132 0.469741 0.696947
0.0617022 0.28232 0.735688
0.0618202 0.344596 0.73577
0.0617672 0.407193 0.735843
0.0615362 0.469807 0.73578
0.124194 0.281944 0.735781
0.124308 0.344452 0.735758
0.124161 0.406975 0.735707
0.124144 0.469691 0.735881
0.186995 0.282058 0.735687
0.186856 0.344671 0.735757
0.186622 0.407048 0.735814
0.186601 0.469452 0.735832
0.21705 0.250749 0.580634
0.187271 0.284184 0.503609
0.0621714 0.283931 0.503807
0.216926 0.250712 0.658163
0.0956794 0.313353 0.502872
0.0291968 0.31342 0.504574
0.12486 0.471525 0.505087
0.0918108 0.250862 0.658082
0.220749 0.313453 0.502817
0.0297896 0.250862 0.658198
0.0917733 0.375923 0.504432
0.154031 0.313386 0.504644
0.216554 0.375933 0.504461
0.154111 0.438492 0.504447
0.0292142 0.438519 0.504378
0.154874 0.250822 0.580187
0.249546 0.472011 0.504812
0.0917843 0.250783 0.619161
0.0299338 0.250878 0.580226
0.216997 0.250694 0.619253
0.0915407 0.250853 0.504546
0.032882 0.376012 0.502719
0.157982 0.375981 0.502617
0.124635 0.279967 0.503855
0.154192 0.25073 0.619391
0.0295607 0.250788 0.619396
0.187025 0.342583 0.502973
0.0622186 0.342568 0.502938
0.0952198 0.438649 0.502715
0.220612 0.438545 0.502793
0.187108 0.467629 0.502583
0.249462 0.282421 0.735538
0.249347 0.407075 0.735574
0.24968 0.346765 0.504369
0.0293783 0.250967 0.774546
0.029133 0.313361 0.774579
0.0292351 0.375908 0.774578
0.0292682 0.438415 0.774661
0.0923093 0.250894 0.774616
0.092263 0.313419 0.774585
0.0923261 0.375903 0.774579
0.0922502 0.43837 0.774616
0.154816 0.250876 0.774602
0.154668 0.31335 0.774637
0.155072 0.375839 0.774579
0.154685 0.438294 0.774638
0.217597 0.250863 0.77451
0.217215 0.313266 0.774535
0.217468 0.375723 0.774492
0.217279 0.438258 0.774546
0.0290475 0.250925 0.813377
0.0293566 0.313379 0.813396
0.0292729 0.375872 0.813352
0.029472 0.438291 0.81342
0.0921344 0.250772 0.813327
0.091843 0.313317 0.813354
0.0923767 0.375763 0.813335
0.0925609 0.438272 0.813294
0.154718 0.250834 0.813366
0.155277 0.313274 0.813366
0.15475 0.375769 0.81339
0.154858 0.438261 0.813396
0.217795 0.250868 0.813482
0.21751 0.313368 0.81348
0.217685 0.375908 0.813433
0.217348 0.438286 0.813401
0.0294164 0.250902 0.852148
0.0297343 0.313346 0.852166
0.0300446 0.375853 0.852127
0.0302302 0.438362 0.852184
0.0928142 0.250738 0.852155
0.0924314 0.313301 0.8521
0.0926195 0.375765 0.852127
0.0924556 0.438352 0.85218
0.155082 0.25081 0.852149
0.155192 0.313191 0.85218
0.155206 0.375711 0.852179
0.154771 0.438294 0.852116
0.217937 0.250911 0.852214
0.217805 0.313449 0.852227
0.217387 0.375869 0.852268
0.217733 0.43825 0.852299
0.0298649 0.313268 0.891037
0.0303637 0.375795 0.890893
0.0305563 0.438268 0.890967
0.0925188 0.313215 0.890906
0.0929623 0.375679 0.891003
0.092632 0.438202 0.890923
0.155174 0.313163 0.891038
0.155162 0.375651 0.890859
0.155399 0.43825 0.891037
0.217654 0.313364 0.890942
0.217791 0.375818 0.891152
0.21765 0.438359 0.891046
0.0300549 0.313319 0.929606
0.0304728 0.375746 0.92994
0.0304585 0.438235 0.929611
0.0930499 0.313238 0.929919
0.0928305 0.375781 0.929575
0.0928188 0.438255 0.929907
0.155061 0.313259 0.929677
0.155382 0.375759 0.929903
0.15567 0.438318 0.929663
0.217987 0.313358 0.930169
0.2179 0.375857 0.92971
0.217835 0.438355 0.93002
0.155475 0.250764 0.930063
0.0307754 0.313365 0.969213
0.0309213 0.375727 0.968038
0.0311095 0.438229 0.969016
0.0938905 0.313295 0.968065
0.0936174 0.375823 0.969131
0.0934326 0.438293 0.968147
0.155559 0.313323 0.969201
0.155917 0.375768 0.968038
0.1561 0.438292 0.96909
0.218918 0.313279 0.968087
0.218452 0.375848 0.969271
0.218593 0.438356 0.968288
0.0330889 0.280263 0.987771
0.0332561 0.346124 0.987802
0.030759 0.405821 0.987841
0.0327802 0.470708 0.987762
0.0948691 0.283748 0.987832
0.0934987 0.343204 0.987809
0.095426 0.4083 0.987862
0.0935574 0.468658 0.987804
0.157892 0.280344 0.987786
0.158209 0.346127 0.987817
0.155852 0.405864 0.987842
0.157626 0.470698 0.987853
0.219555 0.283642 0.987861
0.218251 0.343234 0.98784
0.220392 0.408502 0.987931
0.2185 0.468731 0.987875
0.0298409 0.282081 0.755167
0.0300131 0.344601 0.755166
0.0299793 0.407092 0.755171
0.0297892 0.469657 0.755202
0.092076 0.282134 0.755165
0.0923657 0.344612 0.75521
0.0924082 0.407244 0.755211
0.0920386 0.469731 0.755256
0.154867 0.282135 0.75519
0.154887 0.344583 0.755182
0.154852 0.407011 0.755221
0.15473 0.469552 0.755242
0.217725 0.282249 0.755114
0.217496 0.344517 0.755068
0.217373 0.407012 0.755098
0.21732 0.469516 0.755111
0.0296911 0.282138 0.79396
0.0298736 0.344615 0.793984
0.0296947 0.407083 0.794019
0.0297705 0.469628 0.794037
0.0922877 0.282051 0.793998
0.0925908 0.344486 0.794014
0.09242 0.407037 0.794005
0.0923906 0.469598 0.793994
0.155027 0.281986 0.794003
0.155203 0.344565 0.794013
0.155183 0.407024 0.794018
0.155088 0.469485 0.794017
0.217781 0.282085 0.793984
0.217601 0.344628 0.793949
0.217365 0.406915 0.793997
0.217543 0.469525 0.793976
0.0299249 0.282204 0.83277
0.0300328 0.344506 0.832785
0.0301101 0.407117 0.832811
0.0301534 0.469572 0.832814
0.0925848 0.282029 0.832727
0.0925588 0.344677 0.832719
0.0928066 0.407027 0.832713
0.0927424 0.469541 0.832718
0.155291 0.281941 0.832783
0.155319 0.344505 0.832756
0.15522 0.406971 0.832782
0.155219 0.469572 0.83276
0.217811 0.282178 0.832856
0.217698 0.344613 0.832862
0.217704 0.407054 0.832874
0.2177 0.469508 0.832865
0.0301684 0.282024 0.871576
0.030264 0.344492 0.871544
0.030513 0.407011 0.871521
0.0306007 0.469585 0.871602
0.0925375 0.281985 0.8715
0.0928899 0.344525 0.871541
0.0929466 0.406951 0.871571
0.0929287 0.469635 0.871585
0.155266 0.281935 0.871582
0.155342 0.344218 0.871548
0.155384 0.407071 0.871569
0.155387 0.469486 0.871585
0.217942 0.282199 0.87159
0.217871 0.344551 0.871664
0.217863 0.406964 0.871683
0.217773 0.469648 0.871689
0.0303478 0.281833 0.910435
0.0305408 0.344688 0.910365
0.0304812 0.406778 0.910338
0.0307079 0.469733 0.910355
0.0927934 0.282089 0.910334
0.0930425 0.344168 0.91032
0.0932288 0.407138 0.910337
0.0934674 0.469195 0.91039
0.155479 0.281796 0.91037
0.155528 0.344616 0.910365
0.155548 0.406786 0.910377
0.155727 0.469717 0.910437
0.21799 0.28231 0.910442
0.218079 0.344257 0.910451
0.218071 0.40723 0.910438
0.218205 0.469538 0.910481
0.030406 0.282806 0.949154
0.0304422 0.344004 0.949152
0.0313112 0.407364 0.949157
0.0304526 0.469131 0.949135
0.0931148 0.281457 0.949175
0.0934633 0.345034 0.949169
0.0931159 0.406621 0.949188
0.0934079 0.469852 0.949171
0.155358 0.282534 0.949158
0.155194 0.344058 0.949176
0.155864 0.407409 0.949185
0.155454 0.469199 0.949242
0.218323 0.281282 0.949265
0.218399 0.345126 0.94927
0.217993 0.406726 0.94925
0.218404 0.469953 0.949261
5.20918e-06 0.46932 0.929765
0.0305647 0.250846 0.930153
0.0921827 0.250723 0.89097
0.249451 0.344363 0.813477
0.0616953 0.28243 0.774548
0.0615369 0.344579 0.774589
0.0615314 0.407162 0.774619
0.0615849 0.469589 0.774627
0.12417 0.282222 0.774555
0.124279 0.344886 0.774506
0.124293 0.407014 0.774628
0.124279 0.469498 0.774662
0.186912 0.281983 0.774519
0.18687 0.34442 0.774446
0.186902 0.407169 0.774503
0.186857 0.469516 0.774539
0.249307 0.469705 0.813484
1.75942e-04 0.344755 0.970059
0.249565 0.28224 0.813504
0.0615562 0.281926 0.813421
0.0616886 0.344746 0.81333
0.0618561 0.407001 0.813357
0.0618468 0.469504 0.813313
0.124305 0.282178 0.813346
0.124535 0.34431 0.81335
0.124659 0.406907 0.813345
0.124554 0.469718 0.813297
0.187151 0.281691 0.813389
0.18723 0.344814 0.813371
0.18713 0.407101 0.813528
0.187087 0.469262 0.813375
0.249623 0.281968 0.774451
1.48252e-04 0.281527 0.969583
0.249253 0.407093 0.774477
0.249438 0.407169 0.813467
0.061929 0.281883 0.852013
0.0621808 0.344465 0.852125
0.0623208 0.407095 0.852164
0.0622041 0.469828 0.852113
0.124538 0.282267 0.852123
0.124668 0.344222 0.852083
0.124664 0.407071 0.852166
0.124725 0.469667 0.852035
0.187341 0.28176 0.852197
0.187263 0.344591 0.852178
0.187111 0.407145 0.852196
0.187173 0.469155 0.852185
0.249742 0.406875 0.852306
0.249214 0.469595 0.774496
3.44448e-04 0.40697 0.968995
0.154983 0.250794 0.891
0.0620224 0.282265 0.890912
0.0622194 0.344603 0.890893
0.0624553 0.406571 0.891023
0.0625826 0.469805 0.891138
0.124522 0.281815 0.891023
0.124915 0.344174 0.890963
0.125023 0.407009 0.890929
0.125042 0.469248 0.891035
0.187356 0.28196 0.890964
0.187357 0.344536 0.89102
0.18739 0.406951 0.890998
0.187368 0.46964 0.891134
0.249709 0.345064 0.852226
-1.18848e-05 0.344614 0.929678
0.0925419 0.250826 0.969379
0.0624093 0.282252 0.929953
0.0624787 0.344401 0.929931
0.0626414 0.406906 0.929598
0.0625227 0.469675 0.929882
0.124835 0.281944 0.929694
0.124951 0.344434 0.929716
0.12499 0.407114 0.929888
0.125157 0.469132 0.929768
0.187357 0.282191 0.929884
0.187336 0.344437 0.929976
0.187533 0.4069 0.929757
0.18758 0.469632 0.930007
0.249404 0.344368 0.774446
0.217713 0.250886 0.929703
0.156194 0.250811 0.968065
2.5162e-04 0.469315 0.969788
0.0627771 0.282692 0.969103
0.0628569 0.344373 0.968923
0.0627111 0.406927 0.96996
0.0629134 0.469569 0.969041
0.125103 0.281389 0.969455
0.125194 0.344816 0.969923
0.125406 0.407097 0.968992
0.125224 0.4694 0.969869
0.187635 0.28276 0.969184
0.187716 0.344114 0.968898
0.187708 0.407017 0.969934
0.187891 0.469694 0.969104
0.249885 0.344561 0.891016
0.0925782 0.250777 0.929601
0.217697 0.25085 0.969434
0.0313913 0.250924 0.968003
0.0299849 0.25082 0.890976
0.217829 0.250972 0.891024
0.249838 0.282076 0.891048
0.249796 0.282363 0.852197
0.249562 0.469874 0.852407
0.249896 0.469783 0.891003
0.249935 0.407047 0.891047
0.0300522 0.500771 0.00758532
0.0335489 0.563262 0.00611844
0.0301084 0.625878 0.00763417
0.0332982 0.688361 0.00622597
0.0962681 0.500796 0.00601819
0.0926175 0.56332 0.00758273
0.0959634 0.625801 0.00607164
0.0925867 0.688428 0.00763144
0.155093 0.500847 0.00766285
0.158666 0.563328 0.00620927
0.155117 0.625863 0.00760152
0.158335 0.688398 0.00611328
0.221498 0.500855 0.00605753
0.217871 0.563406 0.0076472
0.22113 0.625804 0.00608332
0.217728 0.688387 0.00765608
0.0338876 0.500764 0.0440253
0.0303923 0.563326 0.0461417
0.0337038 0.62581 0.0441714
0.0302224 0.688396 0.0461729
0.0930038 0.500874 0.0462574
0.0963178 0.563323 0.0440185
0.0929797 0.625899 0.0462131
0.0963739 0.688343 0.0440264
0.158945 0.500827 0.0440773
0.155515 0.563375 0.0461215
0.15896 0.625836 0.0441422
0.15525 0.688467 0.0461156
0.218135 0.500938 0.0462471
0.221624 0.563333 0.0440356
0.217979 0.625864 0.0461714
0.221462 0.688329 0.0440734
0.0310286 0.500956 0.0847196
0.0334067 0.563376 0.0821274
0.0304455 0.625878 0.0844874
0.0337691 0.688424 0.0821113
0.0961617 0.500929 0.0820434
0.0932657 0.563448 0.0846053
0.0962689 0.625869 0.0820841
0.0927425 0.688416 0.0845756
0.155973 0.500965 0.08466
0.158723 0.563426 0.0820663
0.155632 0.625963 0.0845079
0.158761 0.688498 0.0820494
0.221139 0.500911 0.0821227
0.218408 0.563453 0.0845411
0.221232 0.625933 0.0820834
0.217711 0.68849 0.084505
0.0336648 0.501012 0.120207
0.0307775 0.563514 0.122963
0.0335603 0.626011 0.120181
0.0305203 0.68853 0.122887
0.093428 0.501009 0.123008
0.0961527 0.563485 0.120177
0.0932563 0.626005 0.122923
0.0961365 0.688549 0.120059
0.158717 0.501084 0.120127
0.155811 0.563588 0.12293
0.158662 0.626042 0.120163
0.155535 0.68856 0.122908
0.2185 0.501055 0.122959
0.221171 0.563561 0.120173
0.218078 0.626105 0.122778
0.221046 0.688583 0.120108
0.0310415 0.501034 0.161363
0.0335319 0.56354 0.158317
0.0306471 0.626066 0.161149
0.0334098 0.688541 0.158264
0.0959961 0.501039 0.158446
0.0933708 0.56356 0.161082
0.0960198 0.626062 0.158363
0.0930491 0.688619 0.161205
0.155949 0.501104 0.161279
0.158648 0.563599 0.15837
0.155675 0.626134 0.161174
0.158402 0.688559 0.158249
0.221069 0.501129 0.158249
0.218379 0.563643 0.161205
0.22095 0.626108 0.158291
0.218034 0.688576 0.161175
0.0333255 0.501048 0.196515
0.0305867 0.563546 0.199494
0.0334703 0.62605 0.196554
0.0304976 0.688552 0.19943
0.0934233 0.501088 0.199639
0.0959314 0.563586 0.196549
0.0930308 0.62608 0.199365
0.0956358 0.688549 0.196518
0.158418 0.501119 0.196521
0.155705 0.563597 0.199489
0.158421 0.626083 0.196481
0.155397 0.688581 0.199467
0.218461 0.501141 0.199559
0.220866 0.56359 0.196523
0.218123 0.626097 0.199393
0.220755 0.688556 0.196444
0.0308435 0.501038 0.237807
0.0332274 0.56352 0.234664
0.0305371 0.626031 0.237666
0.0332264 0.68852 0.234667
0.0956794 0.501128 0.234629
0.093136 0.563606 0.237731
0.0956767 0.626084 0.234663
0.092903 0.688519 0.237654
0.155926 0.501146 0.237876
0.158201 0.563629 0.23479
0.155515 0.62609 0.237615
0.158191 0.688516 0.234666
0.220645 0.501129 0.234689
0.218317 0.563621 0.237626
0.220792 0.62609 0.234588
0.217903 0.68853 0.237594
0.0337775 0.533702 0.0260706
0.0305156 0.593344 0.0260865
0.0335898 0.658795 0.0261479
0.0301079 0.718331 0.0261481
0.0929939 0.530767 0.0260611
0.0960612 0.59634 0.0260796
0.0927862 0.65589 0.0261033
0.0961737 0.721539 0.0261454
0.158757 0.533718 0.026119
0.155555 0.593483 0.026092
0.158624 0.658906 0.0260862
0.155245 0.718423 0.0261126
0.218414 0.530723 0.0260851
0.221292 0.596465 0.0260871
0.21805 0.655805 0.0260773
0.221134 0.721434 0.0260964
0.0302291 0.530417 0.064328
0.033887 0.59667 0.0643112
0.0300348 0.655618 0.0643493
0.0338426 0.72191 0.064362
0.0964452 0.534537 0.0643211
0.0926583 0.592978 0.0643099
0.0964254 0.659428 0.0643253
0.0923711 0.717909 0.0643483
0.155313 0.530557 0.0643303
0.159034 0.596851 0.064295
0.155106 0.655672 0.0643024
0.158837 0.722094 0.0643214
0.22167 0.534388 0.0643239
0.217905 0.593105 0.0642924
0.221389 0.659439 0.0643136
0.217495 0.71806 0.064324
0.034181 0.534817 0.102582
0.0301048 0.592957 0.102558
0.0340236 0.659704 0.102516
0.0297642 0.717926 0.102584
0.0926882 0.530397 0.102555
0.0966861 0.597243 0.102541
0.0925452 0.655389 0.102556
0.0965861 0.722353 0.102548
0.159175 0.534835 0.102562
0.155053 0.593032 0.102518
0.159106 0.65981 0.102519
0.154759 0.717982 0.102557
0.217734 0.530401 0.102521
0.221787 0.59721 0.102514
0.217578 0.655555 0.102518
0.221477 0.722313 0.102533
0.0301138 0.530309 0.140824
0.0342325 0.597495 0.140774
0.0299887 0.655406 0.140736
0.0341518 0.72253 0.140798
0.0968679 0.534899 0.140803
0.0924703 0.592857 0.14076
0.0964657 0.659969 0.140749
0.0921703 0.717849 0.140769
0.155131 0.530398 0.140787
0.159285 0.597538 0.140748
0.155076 0.655424 0.140754
0.159101 0.722619 0.140758
0.221824 0.535101 0.140755
0.217467 0.593003 0.140732
0.22158 0.660085 0.140739
0.217199 0.717863 0.140751
0.0343148 0.535123 0.179029
0.0298773 0.592847 0.178984
0.0341936 0.660011 0.178978
0.029576 0.717716 0.178968
0.0925045 0.530403 0.179061
0.0967271 0.59743 0.178976
0.0922751 0.655383 0.178975
0.0965135 0.722697 0.179033
0.159303 0.53516 0.179012
0.154904 0.592904 0.178983
0.159047 0.660175 0.178955
0.154674 0.717709 0.178975
0.217528 0.530391 0.178989
0.221695 0.597643 0.178964
0.21727 0.655318 0.178934
0.221404 0.722617 0.17898
0.0298134 0.530191 0.217222
0.0340521 0.597642 0.217192
0.0296342 0.655348 0.217175
0.0338475 0.722639 0.21718
0.0967744 0.535266 0.217239
0.0922386 0.592882 0.21718
0.0965593 0.660072 0.217198
0.0920112 0.717644 0.217211
0.154904 0.530339 0.217261
0.159232 0.597615 0.21721
0.154758 0.655281 0.217154
0.158989 0.722624 0.217217
0.221796 0.535132 0.217214
0.217312 0.592831 0.217161
0.221526 0.660114 0.217139
0.217055 0.717663 0.217171
5.58286e-04 0.658524 0.084742
7.3846e-04 0.592908 0.0822802
0.0631544 0.530058 0.00616784
0.0629792 0.596144 0.00784623
0.0630465 0.655309 0.00627224
0.0627972 0.721287 0.00804395
0.12559 0.533835 0.00786411
0.125592 0.592684 0.00625181
0.125438 0.658559 0.00791896
0.125472 0.717819 0.00616388
0.188256 0.530239 0.00630355
0.18812 0.59625 0.0079192
0.188091 0.655204 0.00629759
0.187871 0.721362 0.00800181
8.59159e-04 0.530203 0.0441472
6.25057e-04 0.655087 0.0441708
6.68577e-04 0.596156 0.0464096
0.063245 0.533552 0.0463948
0.0632963 0.592751 0.0441955
0.0630968 0.658671 0.0464263
0.0631146 0.71748 0.0441543
0.125784 0.530158 0.0441816
0.125691 0.596094 0.0463148
0.12573 0.655051 0.0441436
0.125476 0.721329 0.0464745
0.188308 0.533699 0.0463073
0.188405 0.592551 0.0441724
0.188167 0.658642 0.0463311
0.188172 0.717461 0.0440999
5.33315e-04 0.6584 0.161272
6.18447e-04 0.530705 0.196786
4.85272e-04 0.658633 0.00790655
0.0632928 0.530581 0.0822423
0.063185 0.595851 0.084639
0.0631817 0.655046 0.0823085
0.0630271 0.721357 0.0848571
0.125795 0.533322 0.0846711
0.125805 0.592808 0.0822209
0.125608 0.658552 0.0846878
0.12554 0.717557 0.0822086
0.188363 0.53046 0.0822202
0.18829 0.59586 0.0847443
0.188211 0.655208 0.0822189
0.18797 0.721389 0.0847862
3.78096e-04 0.658355 0.237751
4.49687e-04 0.718107 0.158602
0.0633148 0.533386 0.122993
0.063259 0.59304 0.120459
0.0631672 0.658445 0.12297
0.0630658 0.717938 0.120387
0.125851 0.530644 0.120531
0.125729 0.595991 0.123027
0.125727 0.65544 0.120545
0.125523 0.721103 0.123118
0.188373 0.533477 0.122995
0.188233 0.592976 0.120361
0.188156 0.658584 0.122981
0.188019 0.717941 0.120407
7.21595e-04 0.533256 0.161351
4.25653e-04 0.655649 0.19676
4.32282e-04 0.593126 0.235034
0.0633098 0.530688 0.158733
0.0631824 0.595907 0.161293
0.063106 0.655601 0.158599
0.0629895 0.720879 0.161368
0.125745 0.533369 0.161336
0.125768 0.593189 0.158602
0.125536 0.658514 0.161214
0.125459 0.718058 0.158623
0.188329 0.530716 0.158643
0.188194 0.59597 0.161239
0.188137 0.655544 0.158623
0.187967 0.720842 0.161302
7.80386e-04 0.533233 0.0847452
5.52357e-04 0.533702 0.00791963
6.60962e-04 0.592659 0.00612003
6.08929e-04 0.655504 0.120473
0.063103 0.533351 0.199559
0.0630457 0.593034 0.196793
0.0630096 0.658407 0.199562
0.0628353 0.718189 0.196834
0.125728 0.530634 0.196873
0.125624 0.595981 0.199561
0.12547 0.655614 0.196806
0.125373 0.720913 0.19959
0.188182 0.533286 0.199491
0.188108 0.593131 0.196822
0.187992 0.658476 0.199402
0.187851 0.718112 0.196792
0.0630464 0.530713 0.23498
0.0629386 0.595685 0.237738
0.0628302 0.655567 0.235043
0.0627952 0.720892 0.237715
0.125524 0.533361 0.237754
0.125458 0.5932 0.235005
0.125407 0.658392 0.237784
0.125344 0.718102 0.235076
0.188152 0.530815 0.235013
0.187992 0.595873 0.237783
0.187927 0.655574 0.23501
0.187778 0.720917 0.237792
5.55322e-04 0.595963 0.199524
3.0145e-04 0.718033 0.235038
4.47561e-04 0.717654 0.00614503
7.39672e-04 0.595889 0.123011
8.36893e-04 0.530526 0.120456
5.51678e-04 0.717569 0.0822654
4.30896e-04 0.721171 0.0464953
5.11979e-04 0.721053 0.123142
6.57357e-04 0.593059 0.158566
4.35043e-04 0.533198 0.23777
2.90508e-04 0.720879 0.199516
0.0330874 0.501059 0.272856
0.0307141 0.56356 0.275886
0.0331058 0.626022 0.272851
0.0303776 0.68852 0.275809
0.093303 0.501157 0.276009
0.0955887 0.563656 0.272883
0.0929755 0.626138 0.275863
0.0954687 0.688561 0.272833
0.158199 0.501156 0.272858
0.15553 0.563665 0.275943
0.158159 0.626126 0.272871
0.155398 0.688583 0.275894
0.218254 0.501185 0.276087
0.220671 0.563655 0.272884
0.217991 0.62612 0.275844
0.220535 0.68855 0.27281
0.031028 0.501187 0.314212
0.0326656 0.563606 0.311104
0.0306817 0.626063 0.314086
0.0327908 0.688485 0.310943
0.0951351 0.501166 0.311023
0.0934181 0.563693 0.314181
0.0951588 0.626101 0.311138
0.0930277 0.688528 0.314111
0.156156 0.501175 0.314286
0.157716 0.563631 0.311036
0.155819 0.626108 0.314121
0.157822 0.688552 0.310975
0.220209 0.501178 0.311029
0.218513 0.563668 0.314156
0.220307 0.62609 0.311063
0.217992 0.688574 0.31407
0.0324939 0.501186 0.349256
0.0307008 0.563684 0.352325
0.0325209 0.626098 0.349308
0.0305083 0.688552 0.352305
0.0934932 0.501156 0.352333
0.0950934 0.56369 0.349385
0.0932036 0.626139 0.352351
0.0952861 0.688554 0.349285
0.157501 0.501136 0.349282
0.155865 0.563591 0.352276
0.157597 0.626064 0.349339
0.155518 0.688632 0.352244
0.218517 0.501152 0.352316
0.220186 0.563661 0.349328
0.218367 0.626099 0.352283
0.220272 0.688559 0.349297
0.0312709 0.501111 0.390426
0.0324452 0.563661 0.387632
0.0305879 0.626095 0.390414
0.0324426 0.688574 0.387594
0.0947116 0.501139 0.387593
0.0935538 0.563675 0.39037
0.0951464 0.626163 0.387665
0.0928601 0.688691 0.39034
0.156338 0.501156 0.390593
0.157428 0.563693 0.387566
0.155525 0.626234 0.390328
0.157579 0.688676 0.387465
0.219759 0.501171 0.387544
0.218386 0.563686 0.390408
0.21994 0.626192 0.387654
0.217864 0.688615 0.390352
0.0315975 0.501196 0.425956
0.0310676 0.563582 0.428493
0.0322323 0.626135 0.425981
0.0302635 0.688638 0.428435
0.0940133 0.501105 0.428612
0.094483 0.563742 0.425895
0.0930687 0.626209 0.42848
0.094674 0.688703 0.425978
0.156565 0.501158 0.425853
0.155907 0.563668 0.42857
0.157361 0.626234 0.425902
0.155474 0.688705 0.428549
0.218939 0.501157 0.428786
0.219446 0.563712 0.425935
0.217814 0.626175 0.428454
0.219827 0.68874 0.425973
0.0316494 0.501072 0.466533
0.0319032 0.563571 0.464429
0.0310303 0.626071 0.466411
0.0317267 0.68863 0.464446
0.0938257 0.501109 0.464322
0.0936344 0.563622 0.466474
0.0942964 0.626181 0.464469
0.093121 0.688679 0.466583
0.156496 0.50105 0.466655
0.156628 0.563725 0.46431
0.155768 0.626177 0.466606
0.156804 0.688677 0.464395
0.218903 0.501111 0.464261
0.218489 0.563672 0.46668
0.219261 0.626221 0.464342
0.218114 0.68863 0.466499
0.0340381 0.535255 0.255397
0.0296087 0.592762 0.255393
0.0337822 0.660122 0.25539
0.0296204 0.717588 0.255379
0.092152 0.530248 0.255424
0.0965046 0.597791 0.25538
0.0920634 0.655341 0.255384
0.096288 0.722655 0.25539
0.159225 0.535309 0.255435
0.154613 0.592909 0.255425
0.159074 0.660149 0.255413
0.15452 0.717533 0.255422
0.217197 0.530331 0.255435
0.221695 0.597685 0.255374
0.217089 0.655307 0.255356
0.221473 0.722657 0.255349
0.0296536 0.530274 0.293589
0.0340988 0.597648 0.293611
0.0294371 0.655165 0.293574
0.033762 0.722641 0.293586
0.0965012 0.53546 0.293623
0.0921023 0.592822 0.293613
0.0963998 0.660267 0.293601
0.0920484 0.717597 0.293608
0.154689 0.530251 0.293612
0.159139 0.597836 0.293611
0.154536 0.655252 0.293603
0.158752 0.722694 0.293597
0.221703 0.535379 0.293635
0.217149 0.592831 0.293597
0.221508 0.660156 0.293607
0.216948 0.717686 0.293573
0.034066 0.535443 0.3318
0.0293445 0.592822 0.331797
0.0338664 0.660189 0.331803
0.0293527 0.717616 0.331789
0.0919146 0.530479 0.331785
0.096668 0.597816 0.331836
0.0919212 0.655314 0.331826
0.0960927 0.722517 0.331815
0.159118 0.535396 0.331788
0.154545 0.592755 0.331797
0.158814 0.660188 0.331804
0.154388 0.717703 0.331775
0.217008 0.530325 0.331806
0.221642 0.597725 0.331811
0.216955 0.655211 0.331796
0.221389 0.722739 0.331787
0.0294576 0.53037 0.369935
0.0338913 0.597627 0.370013
0.0291995 0.655406 0.37001
0.0335656 0.722645 0.370024
0.0965036 0.535183 0.36996
0.0918529 0.593008 0.370022
0.0961932 0.660138 0.370026
0.0919345 0.717835 0.369985
0.15457 0.53032 0.369978
0.159072 0.597611 0.369985
0.154283 0.655413 0.369965
0.158594 0.722783 0.370001
0.221556 0.53526 0.369981
0.216841 0.592999 0.369995
0.221476 0.660042 0.36999
0.216806 0.717784 0.369997
0.0342473 0.534902 0.408137
0.0292072 0.593082 0.408195
0.033595 0.659922 0.408197
0.0292447 0.717991 0.408202
0.0919429 0.530601 0.408129
0.0965648 0.597588 0.408178
0.0916423 0.655737 0.408186
0.0959202 0.722489 0.408223
0.159008 0.535198 0.408174
0.154227 0.593123 0.408179
0.15887 0.660088 0.40818
0.154262 0.717903 0.408211
0.216868 0.530502 0.408197
0.221438 0.597482 0.408169
0.216533 0.655688 0.408208
0.220973 0.72245 0.408249
0.0292208 0.530814 0.446379
0.0338407 0.596976 0.446393
0.0289809 0.655846 0.446397
0.0333396 0.722021 0.44645
0.0964748 0.53485 0.446337
0.0920305 0.593376 0.446396
0.0962445 0.659665 0.446429
0.0918715 0.71831 0.446483
0.154219 0.53065 0.446398
0.158594 0.597358 0.446411
0.154117 0.655773 0.446438
0.158171 0.722287 0.446463
0.221348 0.535034 0.446415
0.216749 0.59321 0.446444
0.221236 0.65967 0.446438
0.216823 0.718359 0.446498
0.0337561 0.534228 0.484618
0.029735 0.593681 0.484619
0.0335517 0.659239 0.484652
0.0294115 0.718532 0.484723
0.0914189 0.531125 0.484598
0.0953667 0.596795 0.484678
0.0914302 0.656199 0.484706
0.0952432 0.721793 0.484766
0.158049 0.534476 0.484608
0.154356 0.593494 0.484703
0.157854 0.659327 0.484738
0.154236 0.718646 0.484793
0.21635 0.531014 0.484631
0.220177 0.597009 0.484663
0.216333 0.656153 0.484698
0.219822 0.721617 0.484785
9.23358e-05 0.718219 0.311476
1.23151e-04 0.658076 0.314175
0.0629625 0.533096 0.275939
0.0628922 0.593295 0.273175
0.062761 0.658307 0.27594
0.0627353 0.718202 0.273324
0.125413 0.530786 0.273216
0.12536 0.595874 0.275965
0.125296 0.655788 0.273217
0.125199 0.720792 0.275933
0.187975 0.53344 0.275969
0.187931 0.593214 0.273202
0.187852 0.658351 0.276036
0.187786 0.718218 0.273225
0.249942 0.532376 0.467026
4.46489e-04 0.530755 0.27317
0.0628733 0.531248 0.311363
0.0628473 0.595478 0.314201
0.0627592 0.655936 0.311415
0.062608 0.720652 0.314134
0.125356 0.532924 0.314153
0.125408 0.593683 0.311372
0.125228 0.65806 0.31415
0.125205 0.718254 0.31148
0.187982 0.53134 0.311343
0.187913 0.595403 0.314221
0.187793 0.656032 0.311414
0.187676 0.720675 0.314174
2.37632e-04 0.65559 0.273202
2.25038e-04 0.595532 0.352456
0.0628125 0.532956 0.352321
0.0627228 0.59368 0.349533
0.0626332 0.65801 0.352392
0.0625996 0.718309 0.349707
0.125353 0.531248 0.349505
0.12532 0.595457 0.352446
0.125223 0.656038 0.349556
0.125118 0.720718 0.352353
0.187895 0.532931 0.352372
0.187838 0.593613 0.349518
0.187711 0.658019 0.35236
0.187702 0.718376 0.349593
0.249942 0.656222 0.425974
1.08573e-04 0.594101 0.464429
3.2108e-04 0.531202 0.349472
0.062863 0.531462 0.387551
0.0627285 0.595561 0.390612
0.0625843 0.655947 0.387758
0.062481 0.720606 0.390539
0.125343 0.532656 0.390492
0.125355 0.593766 0.387652
0.125092 0.658217 0.390702
0.12507 0.71868 0.387846
0.187827 0.531529 0.38775
0.187666 0.595538 0.390684
0.187671 0.656127 0.387687
0.187651 0.720646 0.39052
1.08355e-04 0.59362 0.387734
0.249941 0.594215 0.464465
0.0627576 0.532475 0.428781
0.0626279 0.593875 0.425919
0.0624685 0.657966 0.428818
0.0623896 0.718795 0.426119
0.125217 0.531806 0.425818
0.12521 0.595457 0.428808
0.12501 0.656308 0.425852
0.12499 0.720591 0.428738
0.187585 0.532384 0.428742
0.187566 0.593935 0.425932
0.187481 0.658211 0.428931
0.187444 0.718923 0.426157
2.49248e-04 0.532767 0.390547
0.0627928 0.531808 0.46396
0.0627077 0.595047 0.466743
0.0625082 0.656607 0.464111
0.0624666 0.720277 0.46684
0.125059 0.532212 0.466966
0.125073 0.594331 0.464417
0.12487 0.657768 0.466986
0.124904 0.719049 0.464528
0.187507 0.531913 0.464095
0.1875 0.595213 0.466834
0.187296 0.656655 0.464304
0.187347 0.720223 0.466854
0.24973 0.719219 0.464616
0.249884 0.657762 0.467061
0.249988 0.720672 0.428843
1.53212e-04 0.720933 0.275898
3.46353e-04 0.532908 0.314138
1.06598e-04 0.655895 0.349617
3.38338e-04 0.593625 0.311408
1.88173e-04 0.531834 0.425809
3.64274e-04 0.595802 0.275964
8.42411e-05 0.53211 0.466982
7.69576e-05 0.595242 0.428784
8.02136e-05 0.657583 0.467103
0.028076 0.501042 0.542575
0.0319986 0.563634 0.541581
0.0278702 0.626127 0.542623
0.0321544 0.688632 0.541681
0.0950657 0.501175 0.541419
0.0907143 0.563578 0.54263
0.0948592 0.626161 0.541629
0.0901916 0.688572 0.54274
0.153232 0.50099 0.542683
0.15752 0.563606 0.541536
0.153228 0.626028 0.542743
0.157443 0.688643 0.541689
0.219806 0.501147 0.541538
0.215659 0.563599 0.542625
0.21986 0.626139 0.541603
0.215578 0.688608 0.542745
0.0301008 0.501033 0.580191
0.0291923 0.563502 0.580733
0.0300756 0.626074 0.580364
0.0288792 0.688467 0.580786
0.0920951 0.501005 0.580627
0.0927287 0.563627 0.580278
0.0918845 0.626075 0.580736
0.0926641 0.68859 0.580413
0.154874 0.501042 0.580161
0.154443 0.563542 0.580819
0.155213 0.626152 0.580275
0.154252 0.688568 0.580948
0.216985 0.500961 0.580681
0.217354 0.563588 0.580286
0.216946 0.626146 0.580815
0.217297 0.68873 0.580409
0.0294371 0.50094 0.619303
0.0292923 0.563385 0.619176
0.0292573 0.625898 0.619478
0.0293447 0.688436 0.619399
0.0920423 0.50097 0.619137
0.0920987 0.563532 0.619367
0.0918264 0.626031 0.619424
0.091863 0.688418 0.619644
0.154427 0.500916 0.619379
0.15411 0.563498 0.619292
0.15437 0.625969 0.619549
0.154328 0.688506 0.619519
0.216706 0.500931 0.619325
0.216869 0.563482 0.619477
0.216432 0.626066 0.619503
0.21689 0.688578 0.619673
0.0296009 0.500933 0.658121
0.0292803 0.563419 0.658219
0.0294877 0.625906 0.658133
0.0293962 0.68841 0.658337
0.0920133 0.501002 0.65804
0.0919522 0.563437 0.658179
0.0921645 0.625865 0.658293
0.0920366 0.688499 0.658322
0.154361 0.500831 0.658156
0.154569 0.563352 0.658336
0.154332 0.625893 0.658326
0.154447 0.688511 0.658345
0.216976 0.500787 0.658232
0.216836 0.563359 0.658209
0.21698 0.625997 0.658401
0.216669 0.688537 0.658357
0.0289163 0.500917 0.697061
0.0293651 0.563387 0.697005
0.0295611 0.625883 0.697104
0.0297393 0.688383 0.69715
0.0920774 0.500934 0.696894
0.0918072 0.563283 0.697064
0.0917819 0.625795 0.697174
0.0920355 0.688393 0.697226
0.154541 0.500761 0.697002
0.154451 0.563342 0.697014
0.154559 0.625901 0.697084
0.154482 0.688445 0.697145
0.217087 0.500844 0.696958
0.217071 0.563423 0.696993
0.217053 0.62599 0.697081
0.217114 0.688531 0.697163
0.0293473 0.500886 0.735736
0.0293958 0.563355 0.735762
0.0294751 0.625893 0.735874
0.0296063 0.688451 0.73591
0.0918065 0.500907 0.735838
0.0920415 0.563296 0.73576
0.0920537 0.625779 0.735913
0.0921381 0.688322 0.736004
0.154398 0.50078 0.735809
0.154477 0.563252 0.735825
0.154619 0.625841 0.735882
0.154526 0.6885 0.735925
0.216949 0.500754 0.735716
0.217038 0.563346 0.735769
0.216924 0.625966 0.735796
0.216773 0.688501 0.735903
0.0292967 0.531341 0.522923
0.0322552 0.596222 0.522901
0.029122 0.656318 0.523008
0.0322503 0.721056 0.52302
0.0953947 0.53369 0.522914
0.0920365 0.593878 0.523
0.0949762 0.658756 0.523025
0.0918077 0.718731 0.523094
0.154105 0.53114 0.522909
0.1571 0.596091 0.522992
0.154021 0.656308 0.523042
0.156936 0.721129 0.523129
0.220061 0.533658 0.522916
0.216947 0.593864 0.522945
0.219968 0.658689 0.522981
0.2169 0.718902 0.523099
0.0316112 0.532878 0.561289
0.0297244 0.594405 0.561345
0.0315458 0.65793 0.561374
0.0296924 0.719333 0.56147
0.0922999 0.531782 0.56129
0.093932 0.595563 0.561331
0.0921985 0.656795 0.561452
0.0938502 0.720366 0.561456
0.156937 0.533139 0.56128
0.15507 0.594069 0.561399
0.156623 0.658063 0.561385
0.154633 0.719169 0.561536
0.216849 0.531794 0.561343
0.218784 0.595459 0.561362
0.216915 0.656762 0.561444
0.218817 0.720539 0.56151
0.0293079 0.532087 0.599895
0.0297092 0.594954 0.599978
0.0292416 0.657058 0.600055
0.0297456 0.719789 0.600126
0.0924464 0.532395 0.59992
0.0919534 0.594729 0.600004
0.0924907 0.657483 0.600092
0.0917832 0.71961 0.600162
0.154174 0.531946 0.599965
0.154648 0.595081 0.600037
0.154164 0.657148 0.60014
0.154794 0.719998 0.600195
0.217303 0.532396 0.600003
0.216637 0.594779 0.600056
0.217145 0.65748 0.600189
0.216676 0.719657 0.600249
0.0300459 0.53229 0.638718
0.0295878 0.594422 0.638778
0.029786 0.657283 0.63885
0.0297258 0.719682 0.638948
0.0920442 0.532303 0.63875
0.0922428 0.594661 0.638851
0.092199 0.657228 0.638958
0.0922688 0.719821 0.63899
0.154894 0.532221 0.638819
0.154565 0.594503 0.638888
0.154677 0.657177 0.638969
0.154481 0.719814 0.639013
0.216802 0.532093 0.63883
0.21721 0.594783 0.638897
0.216924 0.657126 0.638998
0.216937 0.719952 0.638999
0.0295307 0.532093 0.677575
0.0296327 0.594641 0.677627
0.0296887 0.657068 0.677658
0.0298144 0.719669 0.677774
0.0922751 0.532175 0.677568
0.0921433 0.594626 0.677674
0.0920174 0.657117 0.677757
0.0921131 0.71961 0.677832
0.154496 0.53206 0.677674
0.154596 0.594598 0.677706
0.154476 0.657232 0.677765
0.154593 0.719689 0.67779
0.217088 0.532061 0.677607
0.216931 0.594642 0.677675
0.216924 0.65733 0.677782
0.217014 0.719701 0.677798
0.0295543 0.532186 0.71638
0.029462 0.594741 0.716455
0.0297254 0.6571 0.716528
0.0296386 0.71954 0.716575
0.0921598 0.532069 0.7164
0.0920071 0.594553 0.71647
0.0920717 0.657085 0.716592
0.0921582 0.719656 0.716594
0.154723 0.532049 0.716448
0.154541 0.59463 0.716481
0.15461 0.657191 0.716514
0.154661 0.719752 0.716558
0.21712 0.532051 0.716364
0.217031 0.594661 0.716412
0.217096 0.657298 0.71649
0.217106 0.719808 0.716554
0.187091 0.53435 0.505088
0.248941 0.592594 0.541476
0.248901 0.720246 0.580345
0.248723 0.53214 0.579179
0.0620867 0.717374 0.502991
0.0615912 0.53026 0.541234
0.0615874 0.596895 0.542772
0.0615391 0.654939 0.541357
0.0614811 0.722447 0.542934
0.124465 0.534614 0.54301
0.124119 0.592553 0.541545
0.124148 0.659642 0.543177
0.124022 0.71743 0.541608
0.186611 0.53015 0.54118
0.186772 0.596951 0.5428
0.186514 0.655151 0.541263
0.186601 0.722057 0.543046
0.248841 0.719994 0.619575
0.248814 0.532205 0.619501
0.249078 0.719996 0.697109
0.248653 0.657312 0.579394
0.0616104 0.53267 0.580044
0.0613693 0.594204 0.579354
0.0615892 0.657827 0.580228
0.0613694 0.71899 0.579482
0.12405 0.531866 0.579188
0.124157 0.595291 0.579969
0.123991 0.656901 0.579347
0.124012 0.720424 0.580325
0.186539 0.532535 0.580304
0.186452 0.59455 0.579496
0.186509 0.657846 0.580304
0.186253 0.719461 0.579567
0.249005 0.532132 0.735702
0.124661 0.596788 0.504914
0.248852 0.657403 0.658406
0.248865 0.657075 0.61968
0.0616367 0.532249 0.619008
0.0614795 0.594697 0.619402
0.0614295 0.65722 0.619401
0.061541 0.719679 0.619612
0.12412 0.532333 0.619522
0.124008 0.594969 0.619379
0.124087 0.657126 0.619598
0.123967 0.719666 0.619435
0.186276 0.532458 0.619124
0.186426 0.594457 0.619508
0.186397 0.657607 0.619467
0.186414 0.7196 0.619647
0.249029 0.656967 0.697084
0.249045 0.719688 0.735897
0.0954255 0.563633 0.502841
0.157878 0.501122 0.50264
0.0616011 0.532396 0.658262
0.0615021 0.594661 0.658189
0.0616497 0.656925 0.658207
0.0616713 0.719941 0.658326
0.124139 0.53213 0.658031
0.124157 0.594525 0.658227
0.124061 0.657263 0.658366
0.124076 0.719937 0.658406
0.186506 0.531973 0.658323
0.186541 0.594739 0.658168
0.186419 0.657159 0.658391
0.186497 0.719804 0.658367
0.157902 0.626154 0.502924
0.24895 0.532124 0.658104
0.248868 0.5946 0.658185
0.249015 0.659555 0.543094
0.0614411 0.531997 0.697041
0.0615491 0.594451 0.697119
0.0615819 0.657383 0.697082
0.0617023 0.71969 0.697256
0.124148 0.532127 0.697111
0.12401 0.594619 0.697137
0.123874 0.657029 0.697142
0.124108 0.719614 0.697135
0.18651 0.532163 0.696992
0.186536 0.594729 0.69714
0.186516 0.657239 0.697161
0.186519 0.719717 0.697175
0.095768 0.688659 0.502884
0.248923 0.657218 0.735776
0.248681 0.595116 0.619315
0.248953 0.531986 0.697001
0.0614185 0.531976 0.735698
0.0614509 0.594728 0.735854
0.0615412 0.656983 0.736006
0.0616363 0.71976 0.735846
0.124109 0.532075 0.735798
0.124126 0.594553 0.735914
0.124135 0.65715 0.735854
0.124064 0.719771 0.735953
0.186636 0.532064 0.73581
0.186569 0.594396 0.735788
0.186543 0.6573 0.735828
0.186534 0.719766 0.735961
0.062238 0.659452 0.505176
0.220444 0.56369 0.502756
0.216387 0.501149 0.504543
0.187096 0.592667 0.502911
0.153585 0.688583 0.504664
0.24887 0.595206 0.580212
0.220475 0.688642 0.503002
0.124678 0.530256 0.502548
0.0328731 0.626209 0.502821
0.248839 0.717661 0.541585
0.124499 0.654917 0.50273
0.0914696 0.626141 0.504555
0.186884 0.717394 0.503128
0.0622711 0.592725 0.502952
0.187015 0.659485 0.505084
0.249407 0.722063 0.504922
0.249058 0.534617 0.543148
0.216256 0.626175 0.50456
0.0326669 0.501137 0.502799
0.124603 0.722046 0.505003
0.0294146 0.563597 0.504513
0.0917961 0.501019 0.504491
0.153945 0.563612 0.504608
0.0287664 0.688522 0.504518
0.0624209 0.533871 0.505161
0.248971 0.594863 0.696967
0.248912 0.594697 0.7358
0.248943 0.719697 0.658402
0.249486 0.654988 0.502681
0.249586 0.596889 0.504782
0.249567 0.530145 0.502537
0.0290569 0.500834 0.774668
0.0290781 0.56326 0.77471
0.0291552 0.6258 0.774718
0.0295464 0.688443 0.774825
0.092195 0.500872 0.774612
0.0922325 0.563301 0.774644
0.0918466 0.625802 0.774717
0.0921331 0.688388 0.774716
0.154831 0.500791 0.774626
0.154431 0.56326 0.774624
0.154579 0.625859 0.774589
0.154635 0.688526 0.77466
0.217144 0.500786 0.774521
0.21699 0.563408 0.774593
0.217003 0.625998 0.774692
0.216782 0.688572 0.774677
0.0299281 0.500824 0.813404
0.0298839 0.563429 0.813485
0.0299716 0.625952 0.813457
0.0295897 0.688493 0.813486
0.0922405 0.50083 0.813305
0.0922027 0.56337 0.813402
0.0922212 0.625972 0.813404
0.092325 0.688523 0.813398
0.15502 0.500817 0.813359
0.154924 0.563338 0.813393
0.154843 0.625939 0.81334
0.154636 0.6886 0.813463
0.217161 0.500715 0.813379
0.217328 0.563383 0.813422
0.217168 0.625996 0.813426
0.217378 0.688572 0.813472
0.029659 0.500862 0.852183
0.0302137 0.563425 0.852122
0.0301142 0.625976 0.852173
0.0300138 0.688458 0.852278
0.0928174 0.500819 0.852151
0.09258 0.56331 0.852217
0.0923287 0.625938 0.852152
0.0925942 0.688587 0.85221
0.155258 0.500817 0.85219
0.155098 0.563371 0.852151
0.155177 0.625971 0.852184
0.154894 0.68859 0.852234
0.21712 0.500788 0.85223
0.217528 0.563434 0.8522
0.217303 0.626104 0.852096
0.217115 0.688624 0.852186
0.0306947 0.500812 0.890935
0.0308047 0.563404 0.891105
0.0304868 0.625919 0.890976
0.0302286 0.688437 0.89115
0.0931059 0.500767 0.891104
0.0929986 0.563342 0.890944
0.0931434 0.625981 0.890956
0.0927824 0.688562 0.890973
0.155057 0.500827 0.890991
0.155318 0.563385 0.891023
0.155204 0.625955 0.89092
0.155165 0.688545 0.891085
0.21773 0.500847 0.891074
0.217674 0.5634 0.890947
0.217363 0.625927 0.891077
0.217472 0.688433 0.891086
0.030193 0.500776 0.92987
0.0306826 0.563355 0.929572
0.0303475 0.625943 0.929873
0.0302397 0.688447 0.929693
0.0931842 0.500769 0.929665
0.0926542 0.563372 0.929881
0.0927938 0.625925 0.929649
0.0927756 0.688424 0.929983
0.155482 0.50083 0.929963
0.155348 0.563339 0.929702
0.155332 0.625891 0.929959
0.155298 0.688402 0.929738
0.218033 0.500829 0.929759
0.21777 0.563407 0.930051
0.217692 0.625912 0.929848
0.217793 0.688425 0.9301
0.030888 0.500697 0.968072
0.0311216 0.563368 0.96884
0.0306344 0.625845 0.968132
0.0310649 0.688465 0.969131
0.0935524 0.500838 0.968901
0.093309 0.563274 0.968204
0.09368 0.625822 0.968969
0.0933163 0.688298 0.968383
0.155882 0.500785 0.968235
0.156066 0.563301 0.969001
0.155803 0.625776 0.968302
0.15611 0.688461 0.969013
0.21883 0.500883 0.969089
0.218494 0.563305 0.968234
0.218688 0.625831 0.969058
0.218204 0.688266 0.968316
0.0307491 0.531179 0.987752
0.0326874 0.595657 0.987769
0.0307106 0.656271 0.987828
0.0326688 0.721024 0.987922
0.0953029 0.533078 0.987772
0.0932865 0.593697 0.987759
0.0952148 0.65813 0.987842
0.0929612 0.718844 0.987881
0.155841 0.531246 0.987834
0.157761 0.595562 0.98785
0.155576 0.656311 0.987835
0.15779 0.720967 0.987867
0.220295 0.533249 0.987845
0.218396 0.593683 0.987809
0.220375 0.658132 0.987868
0.218107 0.718736 0.987846
0.0295812 0.53206 0.755211
0.0296249 0.59446 0.755249
0.0294301 0.657257 0.755333
0.0296128 0.719699 0.755365
0.0920957 0.532135 0.755226
0.0924001 0.594396 0.755255
0.0922701 0.657013 0.755336
0.0921149 0.719716 0.75536
0.154713 0.532031 0.75524
0.154798 0.594563 0.75525
0.15465 0.657161 0.755298
0.154657 0.719832 0.755344
0.217176 0.532143 0.755145
0.217038 0.594746 0.755202
0.217006 0.657105 0.755265
0.216991 0.719878 0.755338
0.0297639 0.532103 0.794072
0.0298085 0.594594 0.794078
0.0295955 0.657127 0.79411
0.0293483 0.719809 0.79411
0.0924043 0.5322 0.794026
0.0923084 0.594519 0.794045
0.0922738 0.657157 0.794085
0.0922086 0.719865 0.794151
0.15497 0.532073 0.794021
0.154839 0.594642 0.793993
0.154822 0.65728 0.794056
0.154818 0.719787 0.794111
0.217316 0.532051 0.793973
0.217163 0.594637 0.794004
0.217048 0.657173 0.794028
0.217242 0.719877 0.794075
0.0301673 0.532028 0.832813
0.0301934 0.594633 0.832858
0.029992 0.657251 0.832878
0.0297966 0.719718 0.83291
0.0925443 0.532124 0.832786
0.0925546 0.594588 0.83276
0.0926138 0.65715 0.832782
0.0924333 0.719788 0.83283
0.155213 0.532052 0.832754
0.15511 0.594685 0.832761
0.15508 0.657238 0.832808
0.155067 0.719818 0.832863
0.217444 0.531972 0.832848
0.217376 0.594751 0.832836
0.217623 0.657365 0.832825
0.217548 0.719955 0.832879
0.0304615 0.532089 0.871616
0.0305323 0.594563 0.871573
0.0304399 0.657259 0.871627
0.03008 0.71964 0.8717
0.0929401 0.531937 0.871599
0.0931139 0.594592 0.871592
0.0930541 0.65732 0.871633
0.0929992 0.720026 0.871646
0.155345 0.532222 0.871594
0.155218 0.594562 0.87155
0.155456 0.657219 0.871606
0.155303 0.71975 0.871633
0.217837 0.532038 0.871657
0.217823 0.59487 0.871575
0.21783 0.657173 0.871629
0.217836 0.719761 0.871689
0.0305644 0.531891 0.910342
0.0306792 0.594883 0.910347
0.0305341 0.656964 0.91038
0.0306131 0.719888 0.91049
0.0933206 0.532219 0.91039
0.0932344 0.594498 0.910348
0.0933909 0.65749 0.910394
0.0929376 0.719694 0.910478
0.155572 0.532006 0.910438
0.15595 0.594843 0.910412
0.155396 0.656965 0.910435
0.155542 0.719903 0.910459
0.21822 0.532297 0.910481
0.218036 0.594549 0.910465
0.218005 0.657227 0.910563
0.217851 0.719499 0.910596
0.0308855 0.532405 0.949107
0.0304069 0.594292 0.949073
0.030992 0.657551 0.949196
0.0302418 0.719298 0.949272
0.0928815 0.53179 0.949143
0.0934315 0.594961 0.949176
0.0927137 0.656889 0.94922
0.093438 0.719971 0.9493
0.155988 0.532386 0.949219
0.155252 0.594383 0.949253
0.155703 0.657525 0.94925
0.155009 0.719313 0.949288
0.217904 0.531802 0.949262
0.218285 0.594918 0.949281
0.21771 0.656789 0.949293
0.218356 0.719976 0.949309
0.249481 0.719565 0.852361
0.0614343 0.532324 0.774666
0.0614336 0.594455 0.774569
0.0615 0.657178 0.774649
0.0614744 0.719652 0.77477
0.124281 0.531903 0.774651
0.124187 0.594526 0.774675
0.124114 0.657288 0.774852
0.124008 0.719665 0.774751
0.186757 0.532116 0.77457
0.186631 0.59455 0.774645
0.186598 0.657128 0.774676
0.186576 0.719943 0.774797
0.249788 0.531999 0.891125
1.0946e-04 0.594538 0.929624
6.01677e-05 0.5323 0.929802
0.0618023 0.53191 0.813399
0.0618481 0.594868 0.813398
0.0617778 0.657288 0.813527
0.0616066 0.719808 0.813531
0.124476 0.532109 0.813421
0.124419 0.594647 0.813298
0.124432 0.657252 0.813445
0.124316 0.720157 0.813487
0.18707 0.532085 0.813399
0.186906 0.594622 0.813474
0.186843 0.657306 0.813457
0.186845 0.719755 0.813366
0.24888 0.594855 0.774594
0.249148 0.657084 0.813471
0.248928 0.532054 0.774568
0.062031 0.531976 0.852113
0.0622388 0.594531 0.852222
0.0622769 0.657382 0.852215
0.0619137 0.719966 0.852263
0.124719 0.532103 0.852069
0.124561 0.594544 0.85207
0.124527 0.65733 0.852132
0.124542 0.719868 0.852113
0.187148 0.532159 0.852207
0.18708 0.594611 0.852236
0.187042 0.657385 0.852094
0.18703 0.720093 0.852295
0.249034 0.71973 0.774715
0.249078 0.531977 0.813477
0.249156 0.719831 0.813599
0.0626248 0.531847 0.891021
0.0626778 0.594897 0.890911
0.0625149 0.657115 0.891059
0.0622508 0.71991 0.890987
0.125083 0.532033 0.891037
0.125165 0.594653 0.891041
0.12508 0.657305 0.890982
0.124826 0.720023 0.891114
0.187293 0.532134 0.89112
0.18732 0.594385 0.8909
0.187338 0.657414 0.891157
0.187291 0.719827 0.891064
0.249354 0.531878 0.852338
0.248939 0.657394 0.774714
0.0626255 0.531749 0.929635
0.0625924 0.594788 0.929889
0.0625169 0.65724 0.929695
0.0624426 0.719807 0.930106
0.125145 0.532226 0.92998
0.125068 0.59463 0.929722
0.124958 0.657051 0.929901
0.124964 0.719568 0.929759
0.187624 0.532029 0.929761
0.187459 0.594528 0.930005
0.187428 0.657168 0.929782
0.187285 0.719803 0.930138
1.49566e-04 0.594394 0.969821
4.08015e-04 0.532146 0.969022
0.0625087 0.531902 0.969829
0.062703 0.594706 0.968972
0.0625742 0.656816 0.969991
0.0626862 0.719774 0.969057
0.125368 0.532141 0.968995
0.125165 0.594297 0.970003
0.125337 0.657189 0.969054
0.125026 0.719529 0.970167
0.187697 0.531794 0.969981
0.187854 0.594491 0.969056
0.187525 0.656801 0.970049
0.187736 0.719749 0.969024
0.249098 0.595026 0.813492
3.19268e-04 0.657351 0.969014
0.249401 0.657482 0.852237
0.24939 0.594949 0.852179
0.249613 0.719684 0.891182
0.24968 0.59492 0.891092
2.61514e-05 0.594445 0.890919
4.3577e-05 0.532399 0.890979
0.24959 0.6569 0.891047
0.249965 0.657145 0.93014
2.54301e-05 0.657086 0.929918
0.249959 0.594729 0.929826
0.0297989 0.750987 0.00779894
0.033422 0.813536 0.00597445
0.0294214 0.876081 0.0079412
0.0339045 0.938751 0.00595868
0.0959104 0.750976 0.00611267
0.0919167 0.813566 0.0078968
0.0960587 0.876199 0.0061264
0.091646 0.938727 0.00824861
0.154816 0.751067 0.00776904
0.158488 0.813617 0.00602587
0.154123 0.876174 0.00792979
0.158889 0.938734 0.00590895
0.221081 0.750938 0.00605769
0.216991 0.813581 0.00789926
0.220947 0.876136 0.00597352
0.216613 0.938641 0.00823126
0.0337288 0.750893 0.0440239
0.0296639 0.813483 0.0464562
0.0339203 0.876041 0.0439677
0.0302665 0.938569 0.0471596
0.0924803 0.750952 0.0462474
0.0962915 0.813473 0.0438691
0.091978 0.876078 0.0467532
0.0974536 0.938683 0.043962
0.158983 0.750976 0.0439934
0.154347 0.813598 0.0464586
0.158954 0.876128 0.0439124
0.155298 0.938579 0.0471407
0.217465 0.750959 0.0462272
0.221325 0.813512 0.0438893
0.216795 0.876034 0.046663
0.222388 0.938634 0.0437499
0.0301118 0.750949 0.0846896
0.03366 0.813409 0.0819896
0.0307391 0.87602 0.0853173
0.0354943 0.938599 0.0822538
0.0963998 0.750985 0.0819607
0.0922312 0.813499 0.0848267
0.0970612 0.876029 0.0818784
0.0941818 0.938507 0.0855439
0.155059 0.751024 0.0846741
0.158748 0.813532 0.0818857
0.155825 0.876086 0.0853655
0.160513 0.93857 0.0822663
0.221519 0.750988 0.0819398
0.217246 0.813484 0.0848576
0.222314 0.876092 0.0818828
0.219231 0.938515 0.0854173
0.033566 0.750986 0.120131
0.0300001 0.813481 0.123211
0.0339349 0.876001 0.120103
0.0323135 0.938515 0.123854
0.0928174 0.751042 0.123019
0.09548 0.813438 0.120016
0.0938364 0.87597 0.123585
0.0974861 0.938505 0.120441
0.158513 0.751059 0.120031
0.1551 0.813466 0.123275
0.158985 0.875995 0.120082
0.157393 0.938486 0.123804
0.217926 0.750993 0.122982
0.220483 0.813405 0.119966
0.21889 0.875979 0.123605
0.222425 0.938502 0.120423
0.0304082 0.751052 0.161328
0.032979 0.813457 0.158146
0.0316214 0.876029 0.161978
0.0347972 0.938505 0.158502
0.0958214 0.751031 0.158253
0.0927651 0.813468 0.161518
0.0961575 0.875973 0.158154
0.0953029 0.938485 0.16194
0.155399 0.75103 0.161265
0.157919 0.813411 0.158176
0.156752 0.875953 0.162021
0.15982 0.938462 0.158603
0.220711 0.750991 0.158205
0.217602 0.813415 0.161437
0.22133 0.875897 0.158194
0.220247 0.938452 0.161923
0.0331577 0.751015 0.196342
0.0301289 0.813442 0.199737
0.0335392 0.875928 0.19626
0.0328667 0.938477 0.200104
0.0930248 0.751026 0.199645
0.0951644 0.813396 0.196329
0.0943508 0.875961 0.200128
0.0973632 0.938434 0.196706
0.158186 0.750988 0.196431
0.155167 0.813391 0.199735
0.158545 0.875882 0.196343
0.157758 0.938447 0.200164
0.217988 0.751003 0.19955
0.220252 0.813412 0.196324
0.219389 0.875969 0.200198
0.222283 0.938474 0.196609
0.0304012 0.750998 0.237748
0.0326697 0.813417 0.234416
0.0315608 0.875909 0.238249
0.0347407 0.938426 0.23478
0.0957468 0.750969 0.234529
0.0925868 0.813347 0.237952
0.0962225 0.875825 0.234575
0.0951868 0.938343 0.238297
0.155433 0.750984 0.237812
0.157671 0.813319 0.23447
0.156582 0.87588 0.238311
0.159829 0.938356 0.234731
0.220688 0.751001 0.234559
0.217692 0.813393 0.237891
0.22126 0.875826 0.234527
0.220332 0.938337 0.238257
0.0333176 0.78424 0.0261887
0.0324778 0.843068 0.026231
0.029813 0.909545 0.0262455
0.0346151 0.967629 0.0263931
0.0927884 0.780821 0.0261835
0.0931102 0.846802 0.026264
0.0960342 0.905456 0.0263326
0.0932236 0.972544 0.0263176
0.158357 0.784438 0.0261885
0.157488 0.843158 0.0262499
0.154729 0.909659 0.0262357
0.159473 0.967617 0.0263403
0.217863 0.780792 0.0261669
0.218288 0.846842 0.0262257
0.221065 0.905311 0.0262622
0.218239 0.972668 0.0262127
0.029961 0.780403 0.0644276
0.0300101 0.847164 0.0644831
0.0351004 0.904865 0.0646147
0.0314605 0.972836 0.064653
0.0961438 0.78475 0.0644046
0.0954512 0.84253 0.0644834
0.0928639 0.910341 0.0645505
0.0981464 0.967611 0.0646573
0.154932 0.780462 0.0644131
0.155071 0.847391 0.0644756
0.160054 0.904821 0.064573
0.156407 0.972711 0.0645956
0.221001 0.784718 0.0643792
0.220555 0.842501 0.0645021
0.217958 0.910213 0.0644619
0.223121 0.967582 0.0645411
0.0338166 0.784996 0.102652
0.0336131 0.842139 0.102743
0.0312125 0.910294 0.102859
0.0358586 0.967572 0.102899
0.0923376 0.780189 0.102627
0.0920886 0.84759 0.102684
0.0988551 0.904712 0.102838
0.0941663 0.972694 0.102875
0.158958 0.785198 0.102633
0.158677 0.842174 0.10274
0.156155 0.91037 0.102827
0.160867 0.967568 0.102853
0.21733 0.780156 0.10259
0.21721 0.847632 0.102644
0.223958 0.904827 0.102808
0.219061 0.972669 0.102796
0.0297116 0.7801 0.140861
0.029174 0.847657 0.140969
0.0368029 0.904501 0.141038
0.0315548 0.972967 0.141058
0.096401 0.785228 0.140834
0.0963464 0.842022 0.140921
0.0937171 0.91042 0.141003
0.0984105 0.967608 0.141079
0.154812 0.780023 0.140834
0.154206 0.847683 0.140956
0.161741 0.90455 0.141061
0.156611 0.97282 0.141067
0.221385 0.785146 0.1408
0.221279 0.841888 0.140895
0.21866 0.910373 0.141033
0.223431 0.967542 0.141034
0.0339535 0.78537 0.179026
0.033894 0.841848 0.179092
0.0312672 0.910544 0.179189
0.0359196 0.967463 0.179211
0.0921549 0.779861 0.179052
0.0915865 0.847648 0.179132
0.0993481 0.904499 0.179188
0.0939749 0.97283 0.179267
0.158829 0.785161 0.17905
0.158989 0.841773 0.179125
0.156294 0.910447 0.179242
0.160952 0.967426 0.179249
0.217222 0.779916 0.179026
0.216612 0.847609 0.179149
0.224392 0.904455 0.179197
0.218954 0.972942 0.179213
0.0295026 0.779775 0.217202
0.0289114 0.847702 0.217286
0.0367141 0.904419 0.217319
0.0315331 0.972872 0.217409
0.096322 0.785246 0.217277
0.0963512 0.841737 0.217299
0.0937022 0.910243 0.217398
0.0983959 0.96729 0.217424
0.154601 0.779826 0.217254
0.153948 0.847649 0.217326
0.161885 0.904404 0.217377
0.156494 0.972807 0.217413
0.221465 0.78527 0.217218
0.221442 0.841735 0.217304
0.218823 0.910411 0.217386
0.223619 0.967361 0.217375
1.57624e-04 0.842592 0.0847224
0.0628259 0.780129 0.00638609
0.0626791 0.846922 0.00664548
0.0624265 0.905112 0.00821632
0.062754 0.972324 0.00610911
0.125234 0.78411 0.00791452
0.125052 0.842595 0.00771048
0.125013 0.909784 0.00629504
0.125089 0.967316 0.00819505
0.187846 0.78009 0.00642423
0.187615 0.846971 0.00675906
0.187366 0.905096 0.00821025
0.187618 0.972262 0.00613631
8.97214e-05 0.842852 0.00772041
0.00241717 0.971963 0.0442206
0.0628446 0.78406 0.0464103
0.0626255 0.8425 0.0462139
0.062726 0.909398 0.044051
0.0648976 0.967354 0.0467114
0.125516 0.779819 0.0443428
0.125201 0.846938 0.0446674
0.125229 0.904791 0.0466992
0.127324 0.971958 0.0442323
0.187798 0.784261 0.0463419
0.187564 0.842344 0.0461907
0.187778 0.909477 0.0440172
0.189981 0.967538 0.0465714
2.25448e-04 0.904856 0.0466993
3.62059e-04 0.783964 0.0848016
0.0025389 0.909087 0.0822006
0.00273474 0.967769 0.0849553
0.0629917 0.780023 0.0824402
0.0627382 0.846482 0.0825906
0.0651374 0.905223 0.0852231
0.0651598 0.971328 0.0823776
0.125434 0.784055 0.0848569
0.12519 0.842543 0.0847506
0.127522 0.908954 0.0821858
0.127651 0.967658 0.0848147
0.187919 0.779985 0.0824127
0.187779 0.846673 0.0825611
0.190186 0.905127 0.0850953
0.190121 0.971274 0.0822622
2.28559e-04 0.783439 0.2377
0.00272422 0.905814 0.123547
0.00267642 0.970847 0.120538
0.0628539 0.783555 0.123108
0.0625048 0.843057 0.12325
0.0652023 0.908431 0.120257
0.0651684 0.968121 0.123186
0.125431 0.780417 0.120533
0.125202 0.845856 0.12055
0.127776 0.905717 0.123511
0.127711 0.970736 0.120526
0.187937 0.783508 0.123083
0.187596 0.843172 0.123198
0.190236 0.908342 0.120235
0.190166 0.968123 0.123199
0.00279579 0.90816 0.158384
0.00273098 0.968315 0.161414
0.0629084 0.780582 0.158734
0.0627211 0.845798 0.15858
0.0653425 0.906033 0.161742
0.065201 0.970387 0.158716
0.125366 0.783526 0.161245
0.125059 0.843327 0.161594
0.127887 0.907965 0.158389
0.127729 0.968324 0.161447
0.187913 0.780606 0.158824
0.187712 0.845687 0.158645
0.190369 0.905886 0.161835
0.190223 0.970436 0.158668
3.94931e-04 0.780401 0.120587
0.00279291 0.906158 0.199929
0.00277431 0.970397 0.196933
0.0627667 0.783323 0.199538
0.0624749 0.843421 0.199795
0.065413 0.907993 0.19652
0.0652271 0.968359 0.199623
0.125305 0.780678 0.196982
0.125139 0.845589 0.196711
0.127852 0.906044 0.19999
0.127746 0.970449 0.196896
0.187805 0.783298 0.199519
0.187523 0.84347 0.199827
0.19044 0.907896 0.196559
0.190264 0.968291 0.199662
4.90512e-04 0.780024 0.0443093
0.00280485 0.90806 0.234674
0.00264599 0.968381 0.237736
0.0627227 0.780587 0.235147
0.0625614 0.845675 0.234923
0.0652587 0.905897 0.238179
0.0651541 0.970312 0.234994
0.125263 0.783286 0.23777
0.124943 0.843122 0.238016
0.127849 0.907988 0.234705
0.127751 0.968241 0.237812
0.187798 0.780613 0.235098
0.18761 0.845548 0.234912
0.190393 0.905914 0.238199
0.190303 0.970278 0.234939
1.81067e-04 0.846872 0.0446447
1.81662e-04 0.784083 0.00798629
1.63106e-04 0.967341 0.008155
8.78918e-05 0.90967 0.00627973
9.73521e-05 0.845694 0.196671
3.52613e-04 0.783596 0.161337
1.44441e-04 0.846021 0.120624
2.81709e-04 0.780653 0.19685
0.033004 0.750945 0.272708
0.0298557 0.813308 0.276123
0.033513 0.87578 0.272626
0.0324247 0.938328 0.27645
0.0927849 0.750973 0.275981
0.0951341 0.813322 0.272717
0.0940063 0.875864 0.276484
0.097155 0.938331 0.272946
0.158075 0.750966 0.272732
0.155002 0.813388 0.276114
0.158692 0.875795 0.272637
0.157693 0.938294 0.276478
0.217819 0.750995 0.275917
0.220263 0.813325 0.272665
0.219221 0.875803 0.276398
0.222367 0.93825 0.272969
0.0302204 0.750912 0.314137
0.0323053 0.813237 0.310853
0.0314489 0.875809 0.314691
0.0342113 0.938301 0.311075
0.0952523 0.75093 0.310996
0.0922895 0.813349 0.314281
0.0956714 0.875748 0.31082
0.0951566 0.938225 0.314545
0.155358 0.751015 0.314113
0.157526 0.813347 0.310869
0.156644 0.875849 0.31473
0.159412 0.938264 0.311092
0.220386 0.750977 0.310967
0.217609 0.813319 0.31423
0.220985 0.875752 0.310834
0.220691 0.938271 0.314577
0.0326131 0.750906 0.349208
0.029879 0.813308 0.352444
0.0328886 0.875674 0.348946
0.0328217 0.938256 0.352668
0.0927553 0.751021 0.352331
0.0946812 0.813313 0.349141
0.0940949 0.875792 0.35283
0.0962633 0.938241 0.349212
0.157685 0.751003 0.349159
0.155144 0.813397 0.352466
0.158123 0.875751 0.348959
0.158099 0.938254 0.352803
0.217809 0.750997 0.352332
0.21976 0.813243 0.349115
0.219539 0.875799 0.352811
0.221775 0.938311 0.349179
0.0303217 0.751041 0.390524
0.0315266 0.813327 0.387421
0.0325434 0.875857 0.390969
0.0327243 0.938195 0.387138
0.0948366 0.751024 0.387477
0.0931301 0.813409 0.390649
0.094514 0.87582 0.387129
0.0963307 0.938324 0.390864
0.155664 0.751069 0.390662
0.156554 0.813403 0.387498
0.157452 0.875882 0.39108
0.157869 0.938302 0.387237
0.220091 0.751044 0.387534
0.218109 0.813404 0.390634
0.219864 0.875782 0.387106
0.221176 0.938251 0.390845
0.0320122 0.751023 0.425846
0.0307577 0.813499 0.428686
0.0304721 0.875809 0.42562
0.0339485 0.938472 0.429008
0.0931169 0.751092 0.428616
0.0934735 0.813442 0.425966
0.0945731 0.876015 0.428897
0.0931373 0.938494 0.42538
0.157175 0.751148 0.425911
0.15574 0.813561 0.428748
0.155562 0.875885 0.425533
0.158908 0.938461 0.429049
0.218064 0.751201 0.42865
0.218498 0.813519 0.425957
0.219374 0.876006 0.428978
0.218239 0.938377 0.425361
0.0308989 0.75111 0.466556
0.0311562 0.813454 0.464321
0.031447 0.875935 0.466632
0.0297793 0.938386 0.464052
0.0941688 0.751153 0.464461
0.0933442 0.813612 0.466714
0.0930754 0.876058 0.464181
0.0945756 0.938663 0.466843
0.155823 0.751134 0.466612
0.156095 0.813567 0.464409
0.156204 0.876095 0.466725
0.154657 0.938431 0.464063
0.21902 0.751169 0.464507
0.2182 0.81366 0.466863
0.21794 0.876004 0.464163
0.219957 0.938576 0.466938
0.249946 0.781679 0.426249
0.0337112 0.78529 0.255404
0.0338628 0.841647 0.255453
0.0310349 0.910312 0.255532
0.0358758 0.967354 0.255566
0.0920419 0.779829 0.25544
0.0913276 0.847526 0.255534
0.0993276 0.904407 0.255541
0.0938813 0.972692 0.255566
0.158892 0.785252 0.255448
0.15887 0.841718 0.25545
0.156342 0.910387 0.255542
0.160948 0.96714 0.25556
0.217092 0.77985 0.255394
0.216568 0.847554 0.255489
0.224511 0.904435 0.255502
0.218979 0.972597 0.255562
0.029374 0.779677 0.293601
0.0286145 0.847489 0.29368
0.0366229 0.90427 0.293691
0.0311264 0.97275 0.293712
0.0961354 0.785127 0.293631
0.0964972 0.841653 0.293663
0.0936191 0.910356 0.293691
0.0983322 0.967228 0.29372
0.154563 0.779821 0.293603
0.153793 0.847584 0.293702
0.161783 0.904244 0.293711
0.156315 0.97274 0.293746
0.221561 0.785151 0.293589
0.221524 0.841759 0.293628
0.218732 0.910179 0.293675
0.223642 0.967213 0.293694
0.033412 0.784993 0.331822
0.0337729 0.841463 0.331825
0.03075 0.910273 0.331804
0.0358233 0.967321 0.331844
0.0919849 0.779749 0.331798
0.0909847 0.847518 0.331872
0.0991606 0.904267 0.331855
0.0935897 0.972569 0.331901
0.158716 0.785242 0.331804
0.159075 0.841696 0.331831
0.155823 0.91033 0.331877
0.160963 0.967169 0.331895
0.217027 0.77987 0.331814
0.216172 0.847363 0.331881
0.224384 0.904196 0.33186
0.218821 0.972752 0.331877
0.0292658 0.779781 0.370013
0.0285413 0.847596 0.370082
0.0363834 0.904222 0.369926
0.0310181 0.972707 0.369968
0.096256 0.785196 0.370037
0.0964379 0.841649 0.369994
0.0930462 0.910265 0.369963
0.0984644 0.967181 0.370028
0.154432 0.779843 0.370042
0.153683 0.847522 0.3701
0.161511 0.904113 0.370033
0.156175 0.972837 0.370023
0.221285 0.78507 0.370052
0.221553 0.841608 0.369992
0.218083 0.910395 0.369978
0.223539 0.967291 0.370036
0.0336317 0.784928 0.408275
0.0338408 0.841951 0.408171
0.0297983 0.910217 0.408158
0.0359466 0.966994 0.408098
0.091718 0.780122 0.408228
0.0912203 0.847229 0.408278
0.0974349 0.904316 0.408153
0.0932994 0.972879 0.408129
0.158656 0.785058 0.408297
0.1588 0.841908 0.408223
0.154652 0.910346 0.408194
0.160937 0.967028 0.408161
0.216918 0.780131 0.408291
0.216253 0.847248 0.408296
0.2227 0.904229 0.408167
0.218529 0.972821 0.408141
0.0290965 0.780431 0.446467
0.0288529 0.846682 0.44648
0.0334412 0.904553 0.44634
0.0297728 0.972471 0.446333
0.0959061 0.784533 0.446526
0.0958278 0.842568 0.446433
0.0910958 0.90975 0.446393
0.0969845 0.96713 0.446321
0.154056 0.780548 0.446521
0.153931 0.846858 0.446495
0.158546 0.904591 0.44636
0.155054 0.972375 0.4464
0.220885 0.78465 0.446585
0.220696 0.842391 0.446491
0.216124 0.909759 0.446441
0.221809 0.96708 0.446367
0.032589 0.784145 0.484765
0.0323611 0.84279 0.48471
0.0286403 0.908758 0.48461
0.0325898 0.967595 0.484606
0.091542 0.780929 0.484833
0.0914286 0.846484 0.484772
0.0949454 0.905247 0.484626
0.0911606 0.971639 0.484634
0.157527 0.784028 0.484854
0.157236 0.84291 0.484751
0.15342 0.908879 0.484678
0.157332 0.967576 0.484645
0.216169 0.780875 0.484874
0.216332 0.846513 0.484792
0.219939 0.905136 0.484671
0.216349 0.971533 0.4847
0.24979 0.844667 0.425982
0.00260804 0.905802 0.276339
0.00251277 0.970279 0.273153
0.0625657 0.783387 0.275865
0.0622804 0.843145 0.27623
0.0652277 0.907926 0.272851
0.0650508 0.968128 0.276042
0.125189 0.780501 0.273367
0.125051 0.845604 0.273083
0.127799 0.905819 0.276321
0.12762 0.970227 0.273173
0.187719 0.783398 0.275927
0.187403 0.843268 0.276143
0.190416 0.907865 0.272849
0.19025 0.968091 0.276046
0.0023993 0.907698 0.310964
0.00244055 0.968435 0.314244
0.0624712 0.78067 0.311544
0.0622846 0.845488 0.311223
0.0650544 0.906048 0.314517
0.0649467 0.969843 0.311295
0.125087 0.783282 0.31403
0.124764 0.843352 0.314494
0.127622 0.907735 0.311044
0.127552 0.968265 0.314277
0.187724 0.780742 0.311515
0.187555 0.845506 0.311202
0.190379 0.906183 0.314583
0.190198 0.969806 0.311292
0.00240037 0.90614 0.352697
0.00233449 0.969686 0.349281
0.0624011 0.783141 0.352277
0.0620989 0.843484 0.352698
0.0648069 0.907304 0.349083
0.0648188 0.968792 0.35244
0.125078 0.780788 0.349724
0.124874 0.845319 0.349351
0.127599 0.906303 0.352803
0.127512 0.969548 0.34941
0.187578 0.783177 0.352339
0.187354 0.843587 0.352714
0.190153 0.907338 0.349093
0.190091 0.968807 0.35248
0.249757 0.908089 0.429054
0.00225771 0.906426 0.387308
0.00236238 0.969566 0.390574
0.0623934 0.781212 0.387927
0.0624078 0.844578 0.387566
0.0646494 0.907295 0.390807
0.0648067 0.968673 0.387469
0.125067 0.782639 0.390555
0.124721 0.844511 0.390838
0.127252 0.906554 0.387297
0.127427 0.969789 0.390663
0.187578 0.781322 0.387981
0.187542 0.844791 0.387604
0.189796 0.907163 0.39078
0.189936 0.96864 0.387533
0.249625 0.84505 0.466951
0.249628 0.7827 0.467184
0.0021365 0.967586 0.425618
0.06246 0.782504 0.428861
0.0621703 0.845092 0.42888
0.0623714 0.905842 0.425826
0.0646208 0.971529 0.428777
0.124863 0.781635 0.426081
0.124775 0.844357 0.425916
0.124745 0.908219 0.428943
0.127246 0.967806 0.425741
0.187461 0.782712 0.428873
0.187176 0.845118 0.428903
0.187433 0.905931 0.425736
0.189747 0.971436 0.428696
9.21532e-05 0.780431 0.273338
0.0624006 0.781894 0.464517
0.0622375 0.844677 0.464389
0.0620124 0.908051 0.466925
0.0620651 0.968192 0.464188
0.124865 0.782632 0.467027
0.124602 0.844988 0.466862
0.124443 0.906647 0.464079
0.124489 0.971587 0.466884
0.18721 0.781961 0.464551
0.187119 0.844865 0.464498
0.186911 0.908238 0.466982
0.187197 0.967794 0.464437
0.249846 0.844172 0.390792
0.249539 0.971723 0.466776
0.24946 0.906385 0.464105
0.249893 0.843348 0.314468
0.153562 0.938504 0.504599
0.216646 0.751057 0.581037
0.186964 0.784616 0.50517
0.0275268 0.751 0.542769
0.0321806 0.813465 0.541685
0.0273924 0.875964 0.542752
0.0319316 0.938336 0.541596
0.0950521 0.751089 0.541743
0.0900408 0.813537 0.542838
0.0948923 0.876029 0.5416
0.0899463 0.938588 0.542747
0.153131 0.751134 0.542895
0.157226 0.813641 0.541615
0.152845 0.876072 0.542756
0.157098 0.938396 0.541458
0.219707 0.751199 0.541661
0.21556 0.813616 0.542901
0.219564 0.87606 0.541677
0.215417 0.938404 0.542845
0.0294914 0.813501 0.580965
0.0299037 0.875934 0.580482
0.0293651 0.938484 0.580781
0.092495 0.8136 0.580586
0.0917911 0.876054 0.580845
0.0923403 0.938472 0.580238
0.154139 0.813568 0.580959
0.1551 0.876043 0.580357
0.154266 0.938502 0.58083
0.217589 0.813602 0.580416
0.216774 0.876089 0.580974
0.217429 0.93841 0.580354
0.0293727 0.813527 0.61957
0.0293978 0.876034 0.619635
0.0293123 0.93852 0.619489
0.0919071 0.813557 0.619684
0.0918107 0.876104 0.619485
0.0917865 0.938531 0.619458
0.154283 0.813573 0.619559
0.154095 0.876072 0.619621
0.15429 0.938487 0.619497
0.216677 0.813575 0.619738
0.216795 0.875992 0.619497
0.216752 0.938413 0.619588
0.0296397 0.813502 0.658416
0.0295351 0.876075 0.658342
0.029494 0.938578 0.658281
0.124222 0.971918 0.5028
0.0919175 0.813513 0.658318
0.091794 0.876087 0.658466
0.0921733 0.938511 0.658295
0.0328599 0.875909 0.502731
0.154487 0.813601 0.65843
0.154824 0.876105 0.658352
0.154668 0.938581 0.658434
0.217072 0.813607 0.65837
0.21706 0.876091 0.658418
0.217152 0.938585 0.658321
0.0296642 0.750933 0.697197
0.0295458 0.813506 0.697086
0.0295068 0.876115 0.697209
0.0292106 0.938628 0.697158
0.0921062 0.81355 0.697288
0.0918838 0.876143 0.69723
0.0920572 0.938563 0.697185
0.248698 0.96996 0.579379
0.154449 0.813662 0.697128
0.15469 0.876188 0.697234
0.154478 0.938702 0.697104
0.217096 0.813567 0.69724
0.21714 0.876156 0.69717
0.217405 0.938678 0.697141
0.0296451 0.750934 0.73595
0.0297274 0.813501 0.735978
0.0296273 0.876075 0.735953
0.0294152 0.93862 0.735917
0.092064 0.750998 0.735935
0.0918321 0.81365 0.736086
0.0919398 0.876213 0.735998
0.092007 0.938716 0.736053
0.154443 0.751082 0.735845
0.154489 0.813666 0.735997
0.154419 0.876206 0.73598
0.154543 0.938684 0.736
0.217057 0.751024 0.735958
0.217148 0.813607 0.735971
0.217245 0.876197 0.735898
0.217246 0.93871 0.735838
0.0292221 0.781086 0.523068
0.0293186 0.845992 0.523081
0.0320827 0.90589 0.522974
0.0287818 0.970611 0.522978
0.0944127 0.78359 0.523156
0.0942289 0.843531 0.523108
0.0915066 0.908728 0.523031
0.0943714 0.968115 0.522933
0.154246 0.781168 0.523191
0.154149 0.846068 0.523087
0.157005 0.905897 0.522979
0.154272 0.971024 0.522951
0.219612 0.783775 0.523117
0.219362 0.843556 0.52313
0.216704 0.908507 0.523066
0.219586 0.967914 0.52299
0.0314856 0.782846 0.561507
0.0313818 0.844145 0.561496
0.0296016 0.907667 0.561464
0.0311959 0.969024 0.561358
0.0920135 0.781735 0.56155
0.0922228 0.845382 0.561515
0.0936857 0.906704 0.561385
0.0921849 0.970458 0.561333
0.156384 0.783196 0.561521
0.15623 0.844172 0.561454
0.154505 0.907852 0.561417
0.15638 0.96883 0.561335
0.217312 0.781533 0.561588
0.217002 0.845513 0.56155
0.218909 0.906639 0.56144
0.216941 0.970398 0.561382
0.0294237 0.782126 0.600203
0.0292539 0.844917 0.600224
0.0299779 0.907022 0.600162
0.0292167 0.969918 0.600046
0.0921885 0.782514 0.600221
0.0922073 0.844756 0.600188
0.0918216 0.907485 0.600087
0.0923126 0.969478 0.600052
0.154242 0.782259 0.600225
0.154326 0.845018 0.600201
0.154807 0.907078 0.600126
0.154341 0.969826 0.600067
0.216995 0.782632 0.60024
0.217053 0.844644 0.600193
0.2167 0.907447 0.600125
0.217164 0.969437 0.600062
0.029692 0.782356 0.639011
0.0298526 0.844705 0.639046
0.0294306 0.907289 0.638967
0.0298001 0.969738 0.638913
0.0921567 0.782195 0.639021
0.092217 0.844962 0.63902
0.0922877 0.907265 0.638958
0.0921867 0.969891 0.638892
0.154861 0.782321 0.639066
0.154781 0.844788 0.639069
0.154719 0.907375 0.639013
0.154891 0.969634 0.638945
0.216966 0.782292 0.639047
0.216988 0.844959 0.639001
0.217293 0.907193 0.638982
0.217092 0.969772 0.638917
0.0296852 0.782151 0.677805
0.0296549 0.844859 0.677787
0.0296936 0.907378 0.677768
0.0296241 0.969857 0.677724
0.092336 0.782302 0.677844
0.0922238 0.844784 0.677844
0.0921604 0.907363 0.677808
0.0923435 0.969815 0.677787
0.154614 0.782272 0.677829
0.154655 0.844895 0.677835
0.1547 0.907377 0.677779
0.154706 0.969931 0.677776
0.217242 0.782375 0.677837
0.217307 0.844784 0.677829
0.217331 0.90725 0.677795
0.217371 0.969837 0.677742
0.0296468 0.782214 0.716581
0.0298388 0.84471 0.716543
0.0295111 0.907413 0.716568
0.0295211 0.969749 0.716543
0.0921294 0.782361 0.716657
0.0921248 0.844748 0.716633
0.0922687 0.907481 0.716621
0.091992 0.969802 0.716576
0.154783 0.782418 0.716576
0.154582 0.844918 0.716622
0.15478 0.907479 0.716594
0.154766 0.96979 0.71656
0.217144 0.782298 0.716597
0.217058 0.844913 0.716597
0.217487 0.907466 0.716562
0.217545 0.969912 0.716522
0.248968 0.969672 0.619579
0.0283954 0.938427 0.504542
0.0615818 0.967803 0.505016
0.124246 0.905184 0.505062
0.0304321 0.751008 0.580435
0.0911836 0.751069 0.504684
0.186996 0.967423 0.504877
0.249363 0.971887 0.502844
0.249009 0.906838 0.580186
0.154453 0.751055 0.619616
0.0613453 0.779584 0.541628
0.0613147 0.847258 0.541725
0.0613032 0.904714 0.543006
0.061159 0.972128 0.541427
0.123958 0.784772 0.54306
0.123935 0.842503 0.542883
0.123759 0.909644 0.541466
0.12404 0.967341 0.542825
0.186515 0.7803 0.541645
0.18641 0.846968 0.541642
0.186432 0.905062 0.542949
0.18644 0.971754 0.541426
0.248986 0.842764 0.543008
0.0616257 0.782866 0.580416
0.0614533 0.844413 0.580284
0.0612776 0.907549 0.579381
0.0614335 0.969479 0.580132
0.123711 0.78174 0.579499
0.123849 0.845302 0.579514
0.123882 0.906886 0.580221
0.123814 0.969924 0.579324
0.18648 0.782793 0.580351
0.186363 0.844453 0.580292
0.186276 0.907557 0.57937
0.186504 0.969318 0.580165
0.248965 0.909381 0.541485
0.248978 0.844783 0.619645
0.0294225 0.750921 0.658333
0.0614808 0.782181 0.619492
0.0614437 0.844914 0.61944
0.0615272 0.907418 0.619642
0.0614022 0.969586 0.619191
0.124062 0.782222 0.619725
0.123982 0.844869 0.619603
0.123969 0.907195 0.619397
0.124093 0.969774 0.619605
0.186384 0.78232 0.619545
0.186346 0.844806 0.61953
0.186491 0.907096 0.619605
0.1865 0.969649 0.619318
0.217042 0.751058 0.658505
0.249053 0.967194 0.542964
0.248967 0.907156 0.619294
0.248814 0.781937 0.579675
0.0615927 0.782003 0.658374
0.0616523 0.844792 0.658399
0.0615274 0.907507 0.658187
0.0616157 0.969632 0.65833
0.124065 0.782382 0.658369
0.124043 0.844916 0.658499
0.124106 0.9072 0.658431
0.124116 0.969635 0.658353
0.186631 0.782433 0.65855
0.186694 0.844804 0.658436
0.186792 0.907366 0.658366
0.186677 0.969991 0.658416
0.0918589 0.751008 0.658393
0.249292 0.779797 0.502845
0.154464 0.751106 0.658367
0.0292793 0.750945 0.619539
0.0617006 0.782335 0.697174
0.0616187 0.844822 0.69713
0.0615056 0.907585 0.697269
0.0614834 0.969666 0.697136
0.124088 0.78226 0.697283
0.124083 0.844981 0.697224
0.124095 0.907447 0.697201
0.124108 0.969901 0.69726
0.186547 0.782373 0.697179
0.186614 0.844861 0.697231
0.186602 0.907629 0.697153
0.186699 0.969819 0.697202
0.248968 0.784724 0.543156
0.249104 0.782371 0.735935
0.0919709 0.751004 0.619469
0.0615725 0.782354 0.736086
0.0614793 0.844925 0.73601
0.0614498 0.907511 0.735906
0.0614416 0.969842 0.736005
0.123979 0.782339 0.735947
0.123937 0.844945 0.736028
0.12407 0.907404 0.73603
0.124138 0.969847 0.735903
0.186561 0.782289 0.73602
0.186611 0.844893 0.735998
0.186717 0.907373 0.735932
0.186761 0.970036 0.735937
0.248833 0.782293 0.619629
0.0952524 0.813579 0.502933
0.0950563 0.938527 0.502566
0.0331009 0.751048 0.502895
0.21588 0.876008 0.504728
0.062041 0.784555 0.504953
0.0916709 0.750996 0.580921
0.153387 0.813501 0.50474
0.215984 0.751101 0.504714
0.0909133 0.8761 0.504708
0.0286072 0.81344 0.504745
0.155164 0.751173 0.580472
0.220409 0.938346 0.502641
0.216632 0.751088 0.619459
0.248833 0.845241 0.579557
0.124349 0.779942 0.503144
0.158087 0.751116 0.50303
0.0618919 0.842475 0.50495
0.124303 0.847045 0.50308
0.186793 0.842423 0.504952
0.15787 0.876002 0.502771
0.249408 0.969815 0.697094
0.220417 0.813617 0.502891
0.18671 0.909435 0.502901
0.0616534 0.909487 0.502811
0.249095 0.7822 0.697266
0.21698 0.751024 0.697104
0.092182 0.750941 0.697248
0.154556 0.751031 0.69711
0.249166 0.96994 0.658177
0.249331 0.907259 0.697235
0.249056 0.782364 0.658328
0.249286 0.904812 0.505067
0.249181 0.844719 0.735938
0.249251 0.90727 0.658348
0.249141 0.844843 0.697271
0.249136 0.844799 0.658304
0.249276 0.847272 0.503076
0.249396 0.907422 0.735917
0.249564 0.969869 0.735849
0.0292089 0.751029 0.774725
0.028773 0.813516 0.774764
0.0290238 0.876073 0.774769
0.0290378 0.938631 0.774778
0.0918825 0.751054 0.774787
0.0922362 0.813677 0.774748
0.0917872 0.876272 0.77483
0.0918456 0.938829 0.774772
0.154358 0.751155 0.774729
0.154552 0.813742 0.774722
0.154582 0.87624 0.7748
0.154627 0.938735 0.774728
0.217023 0.751141 0.774796
0.217088 0.813678 0.774756
0.217088 0.876221 0.774713
0.217108 0.938662 0.774798
0.0294544 0.751051 0.813509
0.0289365 0.813623 0.81356
0.0289853 0.876159 0.813633
0.0291856 0.938749 0.81356
0.0921203 0.751178 0.813528
0.0920329 0.813718 0.813499
0.0920912 0.87626 0.813498
0.0920668 0.938867 0.813525
0.154778 0.751173 0.813493
0.154576 0.813739 0.813497
0.154646 0.876286 0.81355
0.15488 0.938839 0.813524
0.217037 0.751184 0.813475
0.217202 0.813724 0.813491
0.2174 0.876226 0.813647
0.217611 0.938745 0.81363
0.0292533 0.750929 0.852339
0.0290676 0.813471 0.852408
0.0299469 0.876101 0.852388
0.0296375 0.93882 0.852318
0.0925109 0.751132 0.852126
0.0920021 0.813615 0.852346
0.0920322 0.876256 0.852246
0.0919103 0.938853 0.852262
0.15488 0.751176 0.852217
0.154962 0.813724 0.852228
0.154936 0.876209 0.852309
0.155105 0.938675 0.852291
0.217649 0.751104 0.85225
0.217659 0.813603 0.852352
0.217647 0.876032 0.852332
0.217608 0.938611 0.852275
0.0298761 0.813578 0.891142
0.0300219 0.87622 0.891118
0.0301272 0.938735 0.891325
0.0923822 0.81357 0.891046
0.0924382 0.876211 0.891127
0.0923539 0.93885 0.891064
0.155086 0.813652 0.891133
0.154835 0.876234 0.891033
0.154992 0.938788 0.891157
0.217305 0.813585 0.891128
0.217771 0.876131 0.89116
0.217612 0.938669 0.890993
0.030097 0.813562 0.929745
0.0299746 0.876124 0.930137
0.0300748 0.938656 0.929888
0.092617 0.813603 0.930029
0.0927142 0.876207 0.929765
0.0923198 0.938835 0.930122
0.155369 0.813622 0.929769
0.154907 0.876248 0.930051
0.155063 0.938728 0.929746
0.217636 0.813481 0.930102
0.217862 0.876123 0.929765
0.217603 0.938587 0.930172
0.0312104 0.813551 0.96918
0.0305107 0.876139 0.968358
0.030862 0.938654 0.969461
0.0928892 0.81352 0.968259
0.0933243 0.876207 0.969257
0.0928653 0.938871 0.968237
0.156042 0.8136 0.969158
0.155171 0.876173 0.968299
0.155546 0.938687 0.969343
0.217735 0.813559 0.968183
0.218464 0.876093 0.969235
0.217832 0.938635 0.968304
0.0305169 0.781298 0.987902
0.0307945 0.845991 0.987922
0.0323526 0.906136 0.988004
0.0300255 0.971576 0.988039
0.0948877 0.783593 0.987939
0.0944901 0.843704 0.987995
0.0927006 0.90886 0.987994
0.095158 0.968622 0.988003
0.155664 0.781383 0.987869
0.155864 0.846109 0.987931
0.157455 0.906225 0.987989
0.15496 0.971629 0.987967
0.219896 0.783713 0.987914
0.219369 0.843699 0.987942
0.217688 0.908666 0.987957
0.220204 0.968351 0.988029
0.029789 0.782237 0.755408
0.0297301 0.844773 0.755427
0.0295578 0.907431 0.755377
0.0294513 0.969904 0.755363
0.092092 0.782379 0.755425
0.0921538 0.845042 0.755447
0.0920582 0.907384 0.755388
0.0921842 0.970101 0.755378
0.15455 0.78235 0.75534
0.154588 0.845015 0.755381
0.154728 0.907446 0.755397
0.154886 0.969999 0.755332
0.217224 0.78237 0.755386
0.21734 0.84494 0.755361
0.217345 0.907445 0.755341
0.217667 0.969781 0.755325
0.0295388 0.782247 0.794166
0.0295601 0.844831 0.794169
0.0295809 0.90729 0.794176
0.029306 0.969951 0.794151
0.0921164 0.78241 0.794153
0.0921897 0.844999 0.794155
0.0920592 0.907599 0.794162
0.0921649 0.970057 0.794185
0.154793 0.782505 0.794154
0.154932 0.845062 0.794156
0.155015 0.90755 0.794172
0.155032 0.970097 0.794135
0.217293 0.782443 0.794117
0.217236 0.845115 0.79416
0.217486 0.907373 0.794181
0.21763 0.969834 0.794176
0.0296867 0.782252 0.832949
0.0297961 0.844781 0.832999
0.0296052 0.907446 0.832998
0.0294027 0.970088 0.832954
0.0922786 0.78254 0.832889
0.0924527 0.845027 0.832924
0.0922917 0.907504 0.832894
0.0923167 0.970099 0.832897
0.154961 0.782535 0.832893
0.154897 0.84506 0.832916
0.155 0.907464 0.832922
0.155204 0.970042 0.832932
0.217549 0.782464 0.832971
0.217536 0.844772 0.832966
0.217678 0.907348 0.832997
0.217711 0.969818 0.83294
0.0301742 0.782194 0.871752
0.0300875 0.844766 0.871783
0.0299174 0.907659 0.87179
0.0296934 0.969932 0.871772
0.092541 0.782224 0.87168
0.0925244 0.844934 0.871696
0.0926695 0.90747 0.871676
0.0925265 0.970203 0.871648
0.155194 0.782555 0.871648
0.155176 0.845003 0.871668
0.155013 0.907569 0.871684
0.155356 0.969939 0.871691
0.217712 0.782375 0.87173
0.217651 0.844928 0.87173
0.217834 0.907282 0.871686
0.217881 0.969901 0.871658
0.030202 0.782057 0.910549
0.0302498 0.845127 0.910555
0.0304399 0.907313 0.910582
0.0299903 0.970241 0.91059
0.0930838 0.782549 0.910502
0.0929209 0.844728 0.910465
0.0924992 0.907803 0.91049
0.0927374 0.969904 0.910413
0.155272 0.782166 0.910473
0.155035 0.84522 0.910465
0.155468 0.907419 0.910474
0.155245 0.970226 0.910501
0.217939 0.782525 0.91058
0.217898 0.844735 0.910527
0.218 0.907641 0.910498
0.217963 0.9697 0.910506
0.0307962 0.782672 0.949316
0.0306063 0.844545 0.949331
0.0300402 0.907812 0.94941
0.0305598 0.96943 0.949464
0.09261 0.782048 0.949292
0.0926737 0.845305 0.949303
0.0930472 0.907153 0.94933
0.0923175 0.970637 0.949281
0.155539 0.782691 0.949308
0.155501 0.844672 0.949288
0.154936 0.907941 0.949302
0.1554 0.969459 0.949328
0.217663 0.782039 0.949295
0.217538 0.845306 0.949276
0.218035 0.907013 0.949365
0.217357 0.970464 0.949373
0.249839 0.844544 0.929975
0.24917 0.782329 0.813599
0.249591 0.782607 0.85246
0.0304781 0.750934 0.968288
0.0614914 0.782348 0.774796
0.0614249 0.844609 0.774827
0.0614153 0.907535 0.774704
0.0612683 0.970018 0.774748
0.124134 0.782381 0.774826
0.124129 0.844977 0.774862
0.124021 0.907554 0.774744
0.124102 0.970015 0.774796
0.186552 0.782353 0.774689
0.186696 0.844995 0.774681
0.186741 0.90742 0.774762
0.186801 0.969831 0.774649
0.155683 0.750943 0.968228
0.249815 0.969939 0.891135
0.0613837 0.782689 0.813532
0.0612967 0.844885 0.813521
0.0613476 0.90732 0.813631
0.0613329 0.970143 0.813528
0.124188 0.782295 0.813523
0.124204 0.844969 0.81347
0.124194 0.907773 0.813569
0.124272 0.970302 0.813617
0.186824 0.7825 0.813597
0.186842 0.845094 0.813638
0.186893 0.907581 0.81354
0.187014 0.970253 0.813508
0.093587 0.751001 0.969085
0.249761 0.907488 0.970231
0.249807 0.907132 0.852228
0.249429 0.907301 0.813575
0.0615983 0.782132 0.852248
0.0617362 0.844565 0.852334
0.0617512 0.907827 0.852337
0.0614614 0.97017 0.852303
0.124306 0.782662 0.852241
0.12423 0.844892 0.85236
0.124277 0.907667 0.852249
0.124358 0.969927 0.852227
0.186991 0.782394 0.85227
0.187013 0.844947 0.852215
0.187103 0.907252 0.852396
0.1872 0.969914 0.852236
0.249094 0.844933 0.774672
0.249699 0.844727 0.852433
0.155024 0.750959 0.930059
0.0620368 0.782072 0.891195
0.0620234 0.845034 0.891188
0.0620442 0.907335 0.891042
0.0617944 0.970457 0.891134
0.124704 0.782421 0.890989
0.124608 0.844892 0.891057
0.1245 0.907621 0.891175
0.124607 0.969979 0.891013
0.187159 0.78215 0.891096
0.187138 0.845152 0.891161
0.18718 0.907463 0.891054
0.187146 0.970219 0.891211
0.249823 0.907732 0.929983
0.249281 0.907373 0.774764
0.21803 0.750914 0.929833
0.249106 0.782372 0.774685
0.062446 0.782283 0.929838
0.0622834 0.844942 0.929773
0.0621237 0.907243 0.930193
0.0619793 0.970294 0.929821
0.124898 0.78251 0.930088
0.12474 0.844926 0.929922
0.12456 0.907803 0.929686
0.124493 0.970003 0.930091
0.18726 0.781977 0.92982
0.187213 0.845157 0.929722
0.187181 0.907364 0.930028
0.187126 0.969927 0.929831
0.0929895 0.750997 0.929806
0.24944 0.969766 0.7747
0.249696 0.970177 0.813627
0.062463 0.781914 0.970074
0.062492 0.845036 0.969993
0.0625182 0.90733 0.969196
0.0620874 0.970107 0.970284
0.125074 0.782553 0.969164
0.124854 0.844379 0.969324
0.12466 0.907659 0.970157
0.124693 0.970074 0.968982
0.187512 0.781885 0.96998
0.187329 0.845317 0.969817
0.187316 0.907158 0.969059
0.186975 0.969872 0.970202
0.2177 0.751031 0.891197
0.0926786 0.751083 0.891154
0.155006 0.75107 0.890969
0.0300234 0.75092 0.891028
0.218766 0.751004 0.969144
0.0303935 0.751009 0.930098
0.249782 0.970023 0.969074
0.249229 0.844989 0.813506
0.249762 0.969833 0.852244
0.249664 0.844722 0.891096
0.249969 0.782413 0.929952
0.249759 0.907602 0.891043
0.249535 0.969799 0.930234
0.249658 0.782567 0.891161
0.249905 0.844458 0.969359
3.8008e-05 0.782623 0.969171
0.28019 0.00118332 0.0086287
0.286517 0.0637378 0.00600319
0.281121 0.126175 0.0085516
0.287021 0.188509 0.00583062
0.347696 0.0012698 0.00584771
0.343417 0.0637938 0.00858414
0.349465 0.126098 0.00601668
0.343814 0.188558 0.00858314
0.405093 0.00124831 0.00871211
0.411449 0.0637404 0.0060227
0.40614 0.126162 0.00860101
0.411851 0.188451 0.00597532
0.472667 0.00133629 0.00573787
0.468713 0.0638313 0.00875119
0.474253 0.126153 0.00598627
0.4688 0.188566 0.00862558
0.285542 0.00107632 0.0441329
0.281599 0.0635773 0.0472139
0.285515 0.126127 0.0443436
0.281801 0.188632 0.0470871
0.343843 0.00103806 0.0472051
0.347997 0.0635716 0.0443646
0.344103 0.126039 0.0471298
0.348209 0.188506 0.0443217
0.410765 0.00120446 0.0441846
0.406724 0.0636158 0.0472628
0.410536 0.126016 0.0443521
0.406656 0.1885 0.0471365
0.468939 0.00118006 0.047243
0.473051 0.0636237 0.0441952
0.469252 0.126032 0.047223
0.473244 0.188466 0.0442843
0.28193 9.61097e-04 0.0853981
0.285295 0.0635063 0.0825168
0.282149 0.126069 0.0853053
0.285437 0.188541 0.0824989
0.347776 0.00101474 0.0823215
0.344537 0.0635682 0.0852988
0.347876 0.126054 0.0825681
0.344915 0.188583 0.0852636
0.407061 0.00106935 0.0854705
0.410368 0.0635419 0.082499
0.407387 0.126049 0.0853602
0.41053 0.188478 0.0824675
0.472896 0.0011265 0.0823187
0.469699 0.0635507 0.0853817
0.472828 0.126029 0.0824992
0.469862 0.188579 0.0853854
0.285 9.83399e-04 0.120627
0.282383 0.0635536 0.123591
0.285413 0.126062 0.120745
0.282484 0.188579 0.123521
0.344816 9.87494e-04 0.123577
0.347758 0.0635051 0.120679
0.345005 0.12608 0.123518
0.348037 0.18852 0.12066
0.41016 0.00101898 0.12048
0.407414 0.063524 0.123592
0.410383 0.126048 0.120662
0.407552 0.188546 0.123503
0.469849 0.00107303 0.123702
0.472856 0.0635677 0.120623
0.470008 0.126041 0.123512
0.473043 0.18857 0.120523
0.282817 9.62798e-04 0.161783
0.285025 0.0635015 0.158874
0.282619 0.126039 0.161873
0.285499 0.188593 0.158883
0.347544 9.80705e-04 0.158681
0.34529 0.0634985 0.161723
0.347775 0.125999 0.158864
0.345176 0.188551 0.161764
0.407781 0.00102325 0.161792
0.410086 0.0634838 0.158711
0.40762 0.12604 0.161783
0.410457 0.188563 0.15879
0.47265 0.0010681 0.1587
0.470211 0.0635591 0.161874
0.472809 0.12607 0.158801
0.470075 0.188537 0.16175
0.28498 9.10587e-04 0.196959
0.28287 0.063425 0.199997
0.285283 0.126006 0.197042
0.282802 0.188607 0.200061
0.345462 9.13539e-04 0.199998
0.347677 0.0634633 0.196891
0.345288 0.126015 0.199986
0.347887 0.188556 0.197013
0.410029 9.41507e-04 0.196871
0.407757 0.0634797 0.199995
0.410146 0.126035 0.196996
0.407701 0.188569 0.200012
0.4704 9.93488e-04 0.200044
0.472679 0.0635092 0.196882
0.470197 0.126052 0.199945
0.472779 0.188566 0.196952
0.282785 7.83631e-04 0.238208
0.284942 0.0633282 0.235099
0.282908 0.125902 0.238126
0.285349 0.188468 0.235111
0.347482 8.60683e-04 0.234848
0.345366 0.0633464 0.238098
0.347679 0.125885 0.235176
0.345213 0.188436 0.238159
0.407962 8.8858e-04 0.238229
0.409929 0.0633943 0.235041
0.407843 0.125916 0.238165
0.410249 0.188495 0.235124
0.472543 9.45181e-04 0.23492
0.470233 0.0634611 0.238154
0.472642 0.125939 0.235122
0.470171 0.188446 0.238164
0.281715 0.0350366 0.026404
0.285441 0.0929703 0.0264355
0.28212 0.160035 0.0263829
0.285623 0.21785 0.0262946
0.347909 0.0302301 0.0264577
0.344557 0.0974689 0.0264432
0.347879 0.155351 0.0264306
0.34484 0.222243 0.0263515
0.406686 0.0351323 0.0264527
0.410329 0.0928594 0.0264869
0.407143 0.159808 0.0264373
0.410461 0.217622 0.026359
0.472934 0.030181 0.0264363
0.469566 0.0975363 0.0264314
0.472933 0.155327 0.0264203
0.469753 0.222247 0.0263259
0.285767 0.0301621 0.0646549
0.281846 0.0975342 0.0646492
0.285826 0.155516 0.0646337
0.282108 0.222465 0.0645948
0.344358 0.0350106 0.0646773
0.348122 0.0929485 0.0646605
0.3446 0.159951 0.0646478
0.348339 0.217954 0.064576
0.410711 0.0302974 0.0646867
0.407024 0.0975599 0.0646677
0.41082 0.155315 0.0646251
0.407149 0.222389 0.0645794
0.469359 0.0352558 0.0646473
0.473218 0.0927799 0.064661
0.469558 0.160014 0.0646646
0.473487 0.21779 0.0645828
0.281645 0.0350914 0.102878
0.285839 0.0929297 0.102896
0.28198 0.159986 0.102895
0.286065 0.217778 0.102826
0.348358 0.0303071 0.102849
0.344408 0.0974187 0.102898
0.348559 0.155463 0.102847
0.344616 0.222583 0.102808
0.406892 0.0351615 0.102865
0.410844 0.0928204 0.102884
0.406894 0.160048 0.102861
0.411231 0.217775 0.102794
0.473471 0.0302199 0.102867
0.469545 0.0975578 0.10287
0.473685 0.155338 0.102817
0.469578 0.222704 0.102819
0.28597 0.0302984 0.141082
0.281758 0.0975484 0.141137
0.286271 0.155338 0.141131
0.282087 0.22276 0.141061
0.344161 0.0351041 0.141019
0.348606 0.0928784 0.141075
0.344248 0.160017 0.141098
0.348745 0.217648 0.141013
0.411089 0.0301262 0.141024
0.406741 0.0976795 0.14108
0.411276 0.155312 0.141055
0.406987 0.222639 0.141037
0.469272 0.035303 0.141065
0.473626 0.0927924 0.141086
0.469332 0.160188 0.141027
0.473755 0.21762 0.141026
0.281787 0.0350538 0.17927
0.286229 0.0926863 0.179313
0.281894 0.160158 0.17932
0.286556 0.217742 0.179287
0.348811 0.030147 0.179215
0.344259 0.0975207 0.179282
0.348906 0.155342 0.179308
0.344456 0.222711 0.179257
0.406723 0.0350923 0.179202
0.411248 0.0927158 0.179247
0.406718 0.160219 0.179268
0.411264 0.217641 0.179239
0.473786 0.0300996 0.179223
0.469387 0.0977365 0.179241
0.473748 0.155318 0.179238
0.469438 0.222663 0.179216
0.286302 0.0300188 0.217455
0.281744 0.0975318 0.217478
0.286469 0.155355 0.217484
0.281852 0.222865 0.217472
0.344227 0.035104 0.217342
0.34879 0.0926262 0.217449
0.34439 0.160073 0.217469
0.348994 0.217618 0.217434
0.411302 0.0300103 0.217403
0.40673 0.0975599 0.217427
0.411227 0.155203 0.217459
0.406777 0.222865 0.217428
0.469209 0.0351937 0.217375
0.473796 0.0926786 0.217401
0.469253 0.160093 0.217431
0.473833 0.217665 0.217402
0.252536 0.0351177 0.00635318
0.252848 0.0919717 0.0083222
0.252782 0.160139 0.00639678
0.25308 0.216867 0.00809773
0.315043 0.0298789 0.00841295
0.315147 0.0977102 0.00641509
0.315439 0.154307 0.00821765
0.315334 0.222426 0.0063708
0.377415 0.0352416 0.00637135
0.377828 0.0919753 0.00838355
0.377682 0.160031 0.00649816
0.378005 0.216817 0.00819547
0.440063 0.029967 0.00840405
0.440071 0.0976254 0.00650595
0.440422 0.154369 0.00816428
0.440188 0.222501 0.00627389
0.252655 0.0299942 0.0466191
0.252549 0.0965294 0.0442587
0.252717 0.155096 0.0464829
0.25286 0.221817 0.0441621
0.315131 0.0340338 0.0442602
0.315078 0.092607 0.0465545
0.315147 0.15907 0.0443908
0.315364 0.217401 0.0464827
0.37765 0.029966 0.0466165
0.377483 0.0964809 0.0444159
0.377672 0.154901 0.04653
0.377742 0.221688 0.0443231
0.440114 0.0342508 0.0442796
0.44021 0.0926499 0.0465449
0.44026 0.158984 0.0442888
0.440459 0.217359 0.0464511
0.252578 0.0336251 0.0823981
0.25275 0.0928956 0.0849048
0.25284 0.158622 0.0823562
0.25291 0.217861 0.0847895
0.315191 0.0302714 0.0849771
0.315144 0.0962051 0.0825
0.315346 0.155484 0.0848927
0.315409 0.221129 0.0824496
0.37767 0.0336297 0.0824617
0.377791 0.092888 0.0848045
0.377838 0.158482 0.0824246
0.377973 0.217941 0.0847759
0.440285 0.0304373 0.0849799
0.440251 0.0960119 0.0825108
0.440369 0.15546 0.0848925
0.440416 0.221035 0.0823252
0.25268 0.0304874 0.123224
0.252797 0.0959714 0.120612
0.252973 0.155521 0.123274
0.253083 0.221177 0.120619
0.31516 0.0333202 0.120589
0.315311 0.0931263 0.123256
0.315393 0.158575 0.120619
0.315535 0.217848 0.123096
0.377797 0.0304878 0.123187
0.377835 0.0958812 0.120606
0.377915 0.155559 0.12322
0.378107 0.221141 0.120509
0.440308 0.033459 0.120586
0.440373 0.0930401 0.123178
0.440496 0.158473 0.120471
0.440491 0.217929 0.123169
0.252805 0.0330129 0.158746
0.252845 0.0932382 0.161528
0.252998 0.158393 0.158701
0.253176 0.218116 0.16145
0.315378 0.0307267 0.161418
0.315333 0.0957205 0.158789
0.315477 0.155585 0.161588
0.315616 0.221079 0.158686
0.377794 0.0331276 0.15865
0.377877 0.0931817 0.161448
0.377963 0.158408 0.158718
0.377988 0.217988 0.161348
0.440402 0.03082 0.161419
0.440374 0.0957391 0.158732
0.440401 0.155552 0.161459
0.440527 0.221031 0.158756
0.252923 0.030752 0.199706
0.252978 0.0955745 0.196938
0.253062 0.155674 0.199718
0.253152 0.220872 0.196841
0.315419 0.0328706 0.196772
0.315402 0.093265 0.199764
0.315447 0.158325 0.196934
0.315583 0.21824 0.199742
0.377934 0.03076 0.199596
0.377937 0.0956376 0.196879
0.377964 0.155685 0.199689
0.378022 0.220905 0.196867
0.440411 0.0330778 0.19679
0.440451 0.0933016 0.199598
0.440454 0.158245 0.196849
0.440502 0.218079 0.199589
0.252855 0.0327829 0.235053
0.252905 0.0932337 0.237907
0.253032 0.158033 0.235095
0.253065 0.217986 0.237897
0.315452 0.0307249 0.237804
0.315404 0.0952833 0.235039
0.315505 0.155697 0.237895
0.315606 0.22089 0.235004
0.377909 0.0327534 0.23493
0.377888 0.0931814 0.237852
0.377925 0.158003 0.23509
0.377952 0.217982 0.237841
0.440398 0.0308036 0.237777
0.440371 0.0955333 0.234968
0.44043 0.155626 0.237838
0.440539 0.220734 0.235001
0.285001 7.45369e-04 0.273138
0.282891 0.0632679 0.276302
0.285059 0.125806 0.273318
0.282854 0.188323 0.276439
0.345391 8.38612e-04 0.276322
0.347376 0.0633127 0.273117
0.345316 0.125827 0.276331
0.347638 0.18834 0.273225
0.410007 9.00158e-04 0.27315
0.407864 0.0633851 0.276366
0.410168 0.12584 0.273252
0.407784 0.188347 0.276354
0.470133 8.3232e-04 0.276393
0.472504 0.0633442 0.273235
0.470328 0.125837 0.276286
0.472493 0.188407 0.27323
0.283106 7.67375e-04 0.314547
0.284424 0.0632107 0.311218
0.283075 0.125705 0.314567
0.284714 0.188345 0.311297
0.347125 7.91097e-04 0.311294
0.34558 0.0632457 0.314395
0.347099 0.125767 0.311282
0.345492 0.188325 0.314517
0.40799 7.7496e-04 0.31448
0.409754 0.063294 0.311329
0.408008 0.125786 0.31456
0.409763 0.188336 0.311329
0.472145 7.27598e-04 0.311339
0.470425 0.0632179 0.314466
0.472243 0.125785 0.311376
0.470414 0.188378 0.314487
0.284046 7.15108e-04 0.34938
0.283386 0.0631652 0.352642
0.283912 0.125696 0.34933
0.283552 0.188248 0.352566
0.345736 7.08592e-04 0.352625
0.346545 0.0632175 0.349496
0.345898 0.125712 0.352537
0.346434 0.188247 0.349292
0.408967 7.09532e-04 0.349452
0.408249 0.0632005 0.352598
0.409 0.125748 0.349316
0.408343 0.188296 0.352649
0.470693 6.7663e-04 0.352707
0.471624 0.0632551 0.349467
0.470822 0.125746 0.352601
0.47164 0.188306 0.349395
0.283845 6.86947e-04 0.390745
0.283006 0.063236 0.387324
0.284085 0.125784 0.390681
0.283019 0.188302 0.387282
0.345722 7.50484e-04 0.387432
0.346304 0.06326 0.390725
0.345403 0.125775 0.387349
0.346772 0.188296 0.390665
0.408958 7.1835e-04 0.390654
0.408065 0.0632282 0.387425
0.409011 0.125734 0.390724
0.407774 0.188375 0.387338
0.470529 7.0057e-04 0.38731
0.471309 0.0631802 0.390692
0.470343 0.125763 0.387416
0.471417 0.188312 0.390663
0.281064 9.54589e-04 0.42543
0.286226 0.0633196 0.428901
0.281176 0.125965 0.425498
0.286488 0.188344 0.428805
0.348155 9.21734e-04 0.429025
0.343429 0.063469 0.425613
0.348812 0.125847 0.428907
0.343655 0.188426 0.425489
0.406119 9.40101e-04 0.42566
0.411161 0.0632954 0.428931
0.405937 0.125983 0.425597
0.411334 0.188397 0.428934
0.47302 8.4328e-04 0.428933
0.468487 0.0634063 0.425515
0.473601 0.125876 0.428933
0.468345 0.188544 0.425496
0.283491 0.00100553 0.467134
0.278707 0.0634455 0.463969
0.283815 0.125957 0.467002
0.278506 0.188335 0.464089
0.341526 8.55435e-04 0.463995
0.346266 0.0634504 0.467092
0.341087 0.125925 0.464153
0.346634 0.188403 0.467207
0.408293 9.54225e-04 0.467064
0.403546 0.0634229 0.464128
0.408845 0.126005 0.467139
0.403361 0.188598 0.464179
0.466495 9.0112e-04 0.464062
0.47112 0.0634706 0.467161
0.465867 0.126026 0.464042
0.47144 0.188479 0.467116
0.281772 0.0349443 0.255584
0.286253 0.0924946 0.255643
0.281916 0.160057 0.255657
0.286502 0.217398 0.25563
0.348844 0.0299444 0.255513
0.344236 0.097545 0.25559
0.348763 0.155071 0.255624
0.344395 0.222628 0.255592
0.40663 0.0351818 0.25557
0.411299 0.0925296 0.255582
0.406809 0.160064 0.255618
0.411335 0.217492 0.255609
0.473691 0.0299806 0.255573
0.469121 0.0975083 0.255594
0.473783 0.155065 0.255613
0.469216 0.222683 0.255588
0.286243 0.029862 0.293725
0.281505 0.0976451 0.293785
0.286322 0.15487 0.293808
0.281733 0.222763 0.29378
0.343983 0.0350569 0.293705
0.348845 0.0924468 0.29372
0.34426 0.160131 0.293762
0.348815 0.217432 0.293758
0.411124 0.029885 0.293753
0.406573 0.0975812 0.293785
0.41139 0.15496 0.293793
0.406715 0.222658 0.293762
0.468945 0.0349588 0.29377
0.473809 0.0924079 0.293768
0.469281 0.160051 0.293763
0.473771 0.217499 0.293769
0.281425 0.0350789 0.331893
0.286182 0.0922385 0.331893
0.281593 0.16015 0.331903
0.28637 0.217379 0.331902
0.348572 0.0298217 0.331925
0.343967 0.0974298 0.331889
0.348775 0.154804 0.331866
0.344064 0.222792 0.331903
0.406379 0.0349179 0.331918
0.41112 0.0923079 0.331919
0.406532 0.160136 0.33192
0.411156 0.217424 0.33194
0.473561 0.0297991 0.33193
0.468949 0.0974943 0.331917
0.473731 0.154905 0.331896
0.468957 0.222665 0.331944
0.285914 0.0296468 0.370069
0.28137 0.0976098 0.370016
0.286046 0.154696 0.37002
0.281621 0.222778 0.369995
0.343827 0.0350755 0.370098
0.348513 0.0923737 0.370083
0.343945 0.160083 0.370006
0.34866 0.21724 0.370041
0.410974 0.0297774 0.370054
0.406482 0.0975607 0.37006
0.411117 0.154724 0.370058
0.406378 0.222944 0.370069
0.468768 0.0350838 0.370029
0.47344 0.0923227 0.370072
0.468811 0.160048 0.370021
0.473526 0.217277 0.370072
0.281543 0.0352393 0.408168
0.285763 0.0923022 0.408176
0.281646 0.16038 0.408144
0.285944 0.217331 0.408151
0.348221 0.0298065 0.40825
0.344114 0.0978054 0.408193
0.348466 0.154765 0.408175
0.344081 0.222854 0.40814
0.406339 0.03515 0.408199
0.410835 0.0922654 0.408236
0.406582 0.160338 0.40819
0.410852 0.21733 0.408222
0.473188 0.0297324 0.408188
0.468957 0.0977159 0.408193
0.473028 0.154877 0.408211
0.469048 0.222833 0.408166
0.283871 0.0294924 0.446436
0.28098 0.0975679 0.446357
0.284346 0.154758 0.446416
0.281052 0.222547 0.446353
0.342999 0.0350515 0.446438
0.346679 0.0921309 0.446459
0.343228 0.159925 0.446414
0.346412 0.217001 0.446503
0.409226 0.0296654 0.446463
0.405769 0.0974858 0.446399
0.409074 0.154782 0.44648
0.405976 0.222657 0.446409
0.467943 0.034981 0.446415
0.47141 0.0920764 0.446484
0.46818 0.160154 0.446421
0.471443 0.217097 0.446467
0.27925 0.0342352 0.48471
0.282242 0.0924829 0.484639
0.279044 0.159003 0.48465
0.281988 0.217527 0.484665
0.344891 0.0298608 0.484686
0.341781 0.0964096 0.484761
0.345209 0.154873 0.484722
0.34195 0.221489 0.484734
0.403787 0.0340048 0.484733
0.407446 0.0925801 0.484718
0.403939 0.159068 0.484765
0.407068 0.217782 0.484776
0.469842 0.0297844 0.484715
0.46636 0.0967386 0.484727
0.469672 0.154949 0.484716
0.466725 0.221637 0.484748
0.252856 0.0306085 0.276009
0.252825 0.0951542 0.273128
0.252925 0.155605 0.276114
0.25304 0.220405 0.273211
0.31534 0.0327464 0.273124
0.315426 0.0931867 0.276103
0.315458 0.157923 0.273204
0.315512 0.218093 0.276031
0.377856 0.0307413 0.276016
0.377906 0.0953462 0.273132
0.378007 0.155591 0.27603
0.37792 0.22042 0.273211
0.440347 0.0329789 0.27312
0.440336 0.0931232 0.27607
0.440404 0.157928 0.273216
0.44041 0.218152 0.276066
0.252722 0.0322223 0.311322
0.252726 0.0932805 0.31429
0.252885 0.157448 0.311391
0.252913 0.2184 0.314271
0.315266 0.031 0.314247
0.315326 0.0948802 0.311267
0.315314 0.155944 0.314224
0.315351 0.220133 0.311331
0.377727 0.0325611 0.311303
0.377755 0.093387 0.314247
0.377842 0.157548 0.311286
0.377844 0.218309 0.31421
0.440175 0.0307814 0.314281
0.44028 0.0951266 0.311319
0.440317 0.155814 0.314218
0.440302 0.220238 0.311401
0.25264 0.0313696 0.352402
0.25264 0.0942092 0.349494
0.252721 0.156431 0.352404
0.252812 0.219478 0.349437
0.315131 0.0320421 0.349532
0.315146 0.0938069 0.352386
0.315181 0.156882 0.349478
0.315285 0.218994 0.352437
0.377556 0.0312904 0.352489
0.377655 0.0944564 0.349589
0.377666 0.156356 0.352439
0.377666 0.219338 0.349561
0.440036 0.0320067 0.349422
0.440082 0.0938577 0.352359
0.440142 0.157026 0.349457
0.440163 0.218839 0.352449
0.25244 0.0312099 0.387766
0.252554 0.0946928 0.390528
0.252578 0.15618 0.387748
0.252717 0.219822 0.390526
0.31493 0.0319715 0.390596
0.315021 0.0937688 0.387726
0.315106 0.157269 0.390509
0.315125 0.21845 0.387733
0.377501 0.0312233 0.387718
0.37757 0.0947085 0.390562
0.37757 0.155977 0.387812
0.37753 0.22009 0.390577
0.439867 0.032103 0.390595
0.439966 0.0936025 0.38777
0.439893 0.157266 0.390521
0.43999 0.218622 0.387747
0.252337 0.034321 0.428413
0.252826 0.0918708 0.426123
0.252547 0.159305 0.428482
0.252814 0.216706 0.426094
0.314951 0.0295246 0.426105
0.315 0.0970518 0.428494
0.315338 0.154269 0.426075
0.315125 0.222085 0.428384
0.377376 0.0343071 0.428531
0.37772 0.091697 0.426133
0.37744 0.159509 0.428465
0.377686 0.216769 0.42624
0.439961 0.0294848 0.426045
0.439878 0.0968374 0.428482
0.440111 0.154177 0.426235
0.439911 0.222313 0.428378
0.312132 0.03455 0.466746
0.31228 0.0920277 0.464672
0.312332 0.159884 0.466786
0.312326 0.216743 0.464823
0.374702 0.0297707 0.464522
0.374701 0.0973446 0.466655
0.374875 0.154412 0.464454
0.374783 0.222566 0.466526
0.43706 0.0346038 0.466845
0.437157 0.0920799 0.464606
0.437023 0.159993 0.466741
0.437266 0.217108 0.464781
0.499731 0.222376 0.466634
0.499608 0.0298311 0.464505
0.499656 0.15455 0.464662
0.499482 0.0972639 0.466715
0.374648 0.155543 0.505027
0.311952 0.217815 0.504727
0.407983 8.38258e-04 0.502665
0.282074 0.125858 0.502688
0.437123 0.21797 0.504827
0.277549 8.21788e-04 0.542734
0.281955 0.0632495 0.54139
0.277643 0.125821 0.54273
0.28172 0.188314 0.541467
0.344928 8.38089e-04 0.541348
0.340696 0.0632967 0.542711
0.345036 0.125807 0.541496
0.340486 0.188414 0.542782
0.403118 8.80485e-04 0.5428
0.407335 0.0633064 0.541502
0.402997 0.125923 0.54273
0.4073 0.188426 0.541581
0.469749 7.55391e-04 0.541382
0.465564 0.0634135 0.542783
0.469696 0.125955 0.541311
0.465574 0.188529 0.542759
0.279621 8.46768e-04 0.580225
0.27948 0.0633251 0.580709
0.279706 0.125732 0.580159
0.279365 0.188241 0.580684
0.341857 8.62588e-04 0.580843
0.342201 0.0633146 0.580267
0.341959 0.125849 0.58073
0.342312 0.188325 0.580263
0.404838 8.46754e-04 0.580226
0.404521 0.0633552 0.580789
0.404813 0.125753 0.580276
0.404499 0.188386 0.58073
0.466986 7.59039e-04 0.580801
0.467377 0.0633213 0.58014
0.466922 0.125981 0.580833
0.467292 0.188421 0.580188
0.279184 0.00100716 0.619513
0.279324 0.0633968 0.619275
0.279345 0.125834 0.619394
0.279473 0.188226 0.619223
0.47023 0.188514 0.502666
0.341918 8.4872e-04 0.61922
0.341843 0.0633849 0.619342
0.341817 0.125887 0.619329
0.341649 0.188402 0.619421
0.404385 8.55373e-04 0.61935
0.404404 0.0632811 0.61929
0.404181 0.125899 0.619401
0.404271 0.188439 0.619232
0.467108 8.49936e-04 0.619352
0.467032 0.0634406 0.619328
0.466825 0.125896 0.619194
0.466865 0.188458 0.619417
0.279807 9.62848e-04 0.658224
0.279766 0.0634397 0.658204
0.279402 0.125884 0.658121
0.279677 0.188315 0.658149
0.342013 8.38096e-04 0.658105
0.342103 0.0633475 0.658218
0.341954 0.125896 0.658098
0.342076 0.188452 0.658108
0.404689 8.66469e-04 0.658095
0.404304 0.0633542 0.658032
0.404538 0.125924 0.658044
0.404518 0.18847 0.658051
0.466905 9.65409e-04 0.658081
0.467114 0.0634189 0.657998
0.466802 0.12586 0.658054
0.467183 0.18839 0.658017
0.28001 9.73972e-04 0.697042
0.279926 0.0635738 0.697104
0.280133 0.126016 0.696985
0.280111 0.188402 0.696964
0.34205 9.64776e-04 0.697044
0.342389 0.0634766 0.696981
0.342544 0.125944 0.696967
0.342449 0.188472 0.696827
0.404553 9.65087e-04 0.696897
0.404825 0.0634535 0.697023
0.40466 0.125963 0.696875
0.404662 0.188497 0.696862
0.466971 0.0010744 0.697014
0.466875 0.0634789 0.697049
0.467274 0.125931 0.696851
0.466802 0.188436 0.696855
0.279916 0.00101198 0.735963
0.280029 0.0636012 0.735856
0.279817 0.126081 0.735938
0.280023 0.188498 0.735771
0.342504 9.3163e-04 0.735889
0.342457 0.0634667 0.735803
0.34275 0.126083 0.735843
0.342402 0.188619 0.735786
0.40465 9.36771e-04 0.735889
0.404658 0.0635424 0.735865
0.404639 0.1261 0.735815
0.405127 0.188564 0.735745
0.466731 0.00100212 0.735839
0.467021 0.0635546 0.735875
0.467105 0.126114 0.735759
0.467061 0.188535 0.73566
0.282032 0.0304108 0.522916
0.279402 0.0959614 0.522969
0.282387 0.155622 0.522965
0.279447 0.220952 0.52297
0.341962 0.033321 0.522992
0.344525 0.0930026 0.522959
0.341663 0.158458 0.523014
0.34402 0.218183 0.522998
0.406958 0.0305622 0.522993
0.40434 0.095924 0.52306
0.407121 0.15574 0.523007
0.404442 0.220899 0.523044
0.466458 0.0336174 0.522966
0.469438 0.0929909 0.522953
0.466713 0.158737 0.522965
0.469484 0.218378 0.522978
0.279406 0.0327117 0.561311
0.281247 0.0936976 0.561268
0.279484 0.157654 0.56132
0.281119 0.218758 0.561282
0.343801 0.0313174 0.561297
0.342134 0.0951678 0.561331
0.343922 0.156353 0.561318
0.342275 0.220306 0.56135
0.404637 0.0327504 0.561389
0.406161 0.0938435 0.561303
0.404543 0.157666 0.561368
0.406189 0.218994 0.561305
0.468892 0.0311388 0.561331
0.467203 0.0954774 0.561339
0.468893 0.156423 0.561312
0.466962 0.22035 0.561348
0.279603 0.0320034 0.600001
0.279202 0.0948109 0.59996
0.27974 0.156803 0.59994
0.279156 0.219743 0.599942
0.34172 0.0323478 0.600003
0.342136 0.0944418 0.599948
0.341739 0.157264 0.599965
0.342142 0.219222 0.599944
0.404655 0.0318233 0.599943
0.404284 0.0947831 0.599985
0.404701 0.156854 0.599974
0.404264 0.219869 0.59995
0.46677 0.0323224 0.599977
0.467065 0.0944569 0.599947
0.466725 0.157524 0.600001
0.467368 0.219496 0.599942
0.279827 0.0323861 0.638872
0.27987 0.094434 0.638791
0.279638 0.157011 0.638752
0.279658 0.219463 0.638717
0.342225 0.0321617 0.638752
0.342052 0.0946112 0.638774
0.342145 0.157178 0.638797
0.341984 0.219675 0.638717
0.404502 0.0319957 0.638709
0.40456 0.094583 0.638739
0.404496 0.157322 0.638754
0.404791 0.219701 0.638736
0.467288 0.0321388 0.638733
0.467124 0.0947446 0.6387
0.467235 0.157004 0.638714
0.466927 0.219774 0.638749
0.279942 0.0322759 0.677668
0.279743 0.0947462 0.677636
0.279999 0.157281 0.677601
0.279738 0.2196 0.677552
0.342281 0.0320325 0.677587
0.342441 0.0946608 0.677584
0.34233 0.157187 0.677554
0.342305 0.219783 0.677511
0.404783 0.0322321 0.67751
0.404659 0.0945887 0.677524
0.404795 0.157297 0.677496
0.404688 0.219661 0.677503
0.467205 0.0322851 0.677571
0.467404 0.094521 0.677522
0.467216 0.157138 0.677496
0.467218 0.219666 0.677468
0.280106 0.0321969 0.716499
0.280487 0.0948935 0.716468
0.280152 0.157213 0.716429
0.280251 0.219755 0.716365
0.342678 0.0322313 0.71643
0.3426 0.0947416 0.716374
0.34265 0.157296 0.716381
0.342588 0.219692 0.716309
0.404957 0.0320648 0.716374
0.404932 0.0949005 0.716367
0.405033 0.157262 0.716364
0.405002 0.219883 0.716299
0.467106 0.0323432 0.716443
0.467225 0.0947756 0.716374
0.467318 0.157355 0.716312
0.467301 0.219615 0.716234
0.499573 0.221549 0.503078
0.470156 0.0634019 0.502598
0.499384 0.0302496 0.50494
0.311985 0.0930001 0.504832
0.282984 7.74227e-04 0.502537
0.374451 0.03011 0.504892
0.279055 0.0634005 0.50475
0.345366 0.0633273 0.502722
0.436906 0.0927646 0.504949
0.407769 0.125948 0.502805
0.498745 0.0949491 0.579309
0.498942 0.0318035 0.580172
0.498836 0.219794 0.579261
0.49916 0.219515 0.696839
0.31151 0.0297985 0.542902
0.311407 0.0968186 0.54143
0.311492 0.154896 0.54298
0.311307 0.221953 0.541609
0.374133 0.0343611 0.541537
0.374092 0.0923717 0.5428
0.373968 0.159551 0.541362
0.373992 0.217581 0.542721
0.436709 0.0298985 0.542897
0.436476 0.0969986 0.541549
0.436607 0.155104 0.542934
0.43658 0.221885 0.541514
0.499 0.157054 0.580136
0.499127 0.156931 0.658035
0.311213 0.0322006 0.579308
0.311429 0.0944888 0.580037
0.311331 0.157106 0.579203
0.311475 0.219407 0.579949
0.373834 0.0320205 0.580149
0.373781 0.0946636 0.5794
0.373991 0.156911 0.580174
0.373888 0.219814 0.579355
0.436462 0.0323207 0.579336
0.436464 0.0943302 0.579895
0.43635 0.157284 0.579354
0.436446 0.219514 0.5801
0.499033 0.0946174 0.619381
0.499123 0.217492 0.542923
0.499253 0.157423 0.735787
0.499006 0.0321914 0.619245
0.311508 0.0322733 0.619422
0.311477 0.0946551 0.619092
0.311554 0.157122 0.619363
0.311432 0.219767 0.619148
0.374011 0.0320543 0.619101
0.373974 0.094687 0.619389
0.37382 0.157342 0.6192
0.373962 0.219756 0.619386
0.436638 0.0322262 0.619378
0.436322 0.0946566 0.619286
0.436417 0.157214 0.619436
0.436445 0.21972 0.619102
0.499503 0.155689 0.504867
0.498794 0.0343226 0.541353
0.498981 0.157128 0.619171
0.311709 0.0321178 0.658095
0.311646 0.0947419 0.658248
0.311649 0.157109 0.658141
0.311607 0.21957 0.658167
0.374126 0.0318277 0.658174
0.374103 0.0949365 0.657963
0.374055 0.157126 0.658132
0.374117 0.219756 0.657998
0.436613 0.032458 0.658021
0.43655 0.0944341 0.658081
0.436618 0.157361 0.658076
0.436632 0.219507 0.658174
0.499174 0.1575 0.696933
0.498875 0.0323732 0.735901
0.49911 0.219944 0.735693
0.311934 0.0324085 0.6971
0.312088 0.0947542 0.696936
0.312132 0.157053 0.697051
0.311978 0.219613 0.696855
0.374377 0.0322712 0.69681
0.37453 0.0946647 0.697011
0.374407 0.15723 0.696965
0.374375 0.219867 0.696918
0.436745 0.0321932 0.696882
0.436799 0.0947849 0.696875
0.436729 0.157051 0.696893
0.436723 0.219829 0.696854
0.49901 0.219666 0.619485
0.312123 0.0321982 0.735868
0.312246 0.0949212 0.735791
0.312165 0.157123 0.73578
0.312122 0.219935 0.735821
0.374547 0.0324358 0.735822
0.374501 0.0946457 0.735775
0.374555 0.157689 0.735775
0.374536 0.219538 0.735692
0.436676 0.0322527 0.735779
0.436732 0.0950492 0.735728
0.436971 0.157122 0.735794
0.436954 0.219858 0.735582
0.466248 9.33537e-04 0.504886
0.404086 0.188512 0.504815
0.499325 0.0965127 0.502892
0.312015 0.158718 0.502786
0.345275 0.188344 0.502703
0.37439 0.221472 0.503188
0.341155 8.2533e-04 0.504778
0.466558 0.12601 0.504932
0.403804 0.0634299 0.504838
0.279254 0.188301 0.504757
0.341793 0.125897 0.504891
0.312022 0.0341994 0.502926
0.374621 0.096729 0.502977
0.436963 0.159189 0.502912
0.499077 0.219837 0.657984
0.436826 0.0343248 0.502807
0.499017 0.0947456 0.735853
0.499065 0.0321273 0.697033
0.498976 0.0925752 0.542881
0.49916 0.0945377 0.697027
0.498949 0.159471 0.541425
0.499115 0.0948252 0.657878
0.499067 0.0319701 0.658117
0.280326 9.72065e-04 0.774735
0.280783 0.0635944 0.774818
0.280419 0.126095 0.774668
0.280641 0.188539 0.774604
0.34235 0.00100568 0.77479
0.342197 0.0634398 0.774639
0.342485 0.126048 0.77464
0.342457 0.188627 0.774595
0.404646 9.87963e-04 0.774806
0.404432 0.0635402 0.774711
0.404765 0.126128 0.774631
0.404742 0.188663 0.774528
0.466436 9.25027e-04 0.774725
0.466786 0.0635726 0.774627
0.466763 0.126185 0.774701
0.467107 0.188648 0.774606
0.280273 9.50144e-04 0.813602
0.280522 0.063593 0.813509
0.280825 0.126083 0.813437
0.280493 0.188581 0.813417
0.342566 8.75503e-04 0.81353
0.342626 0.0634874 0.813519
0.342737 0.126155 0.813446
0.342466 0.188711 0.813371
0.404778 9.82484e-04 0.813473
0.404716 0.0636186 0.813485
0.404652 0.12615 0.813445
0.405254 0.18864 0.813448
0.467061 9.76579e-04 0.813504
0.466707 0.0636267 0.813473
0.467309 0.126143 0.813498
0.46669 0.188678 0.813421
0.280917 9.13172e-04 0.852362
0.280629 0.0636282 0.852321
0.280379 0.126151 0.852393
0.279717 0.188597 0.852142
0.342422 0.00103408 0.852356
0.34284 0.0634848 0.852379
0.342665 0.126116 0.8523
0.342696 0.18872 0.852278
0.405077 0.00112249 0.852478
0.404942 0.0636068 0.852438
0.405182 0.126043 0.85244
0.405037 0.188508 0.852238
0.466855 0.00109013 0.852356
0.467212 0.0636202 0.852372
0.46705 0.126081 0.852279
0.467146 0.188612 0.852274
0.279803 0.00110757 0.891144
0.27975 0.06354 0.891268
0.279765 0.126039 0.891113
0.280079 0.188452 0.891212
0.342694 0.00107832 0.891375
0.342509 0.0635877 0.891106
0.342874 0.126112 0.891355
0.342592 0.188536 0.891044
0.405033 0.00105871 0.891276
0.404728 0.0636066 0.891393
0.40487 0.126143 0.891266
0.40506 0.188541 0.891203
0.467129 0.00104299 0.891457
0.467204 0.0636069 0.891247
0.467206 0.126109 0.891321
0.467252 0.18854 0.891116
0.279683 0.00113447 0.930227
0.279953 0.0635837 0.929768
0.280087 0.125985 0.93029
0.280145 0.188425 0.929784
0.342463 0.00114815 0.929964
0.34272 0.0635624 0.930307
0.342487 0.126057 0.929787
0.342758 0.188496 0.930354
0.405003 0.00108428 0.930235
0.404807 0.0636489 0.929889
0.405036 0.12613 0.930286
0.404667 0.188634 0.929843
0.467131 0.00112504 0.929915
0.467332 0.0636341 0.930414
0.467207 0.126123 0.929872
0.467401 0.188558 0.930287
0.280442 0.00120765 0.968369
0.279934 0.0634883 0.96967
0.281159 0.125993 0.968223
0.280001 0.188473 0.969561
0.342732 0.00112284 0.969554
0.343275 0.0636996 0.968233
0.342226 0.126039 0.969636
0.343449 0.188534 0.96821
0.405422 0.00121657 0.968435
0.404945 0.0635681 0.969656
0.405908 0.126145 0.968261
0.404733 0.188521 0.96956
0.467684 0.00114534 0.96966
0.467976 0.0637193 0.968312
0.467132 0.126087 0.969726
0.46845 0.188515 0.968175
0.283654 0.0308032 0.988099
0.281028 0.0965739 0.988077
0.283608 0.155476 0.988012
0.281217 0.221489 0.987967
0.343347 0.0342073 0.988083
0.346008 0.093147 0.988099
0.343607 0.158967 0.988114
0.346136 0.217994 0.987994
0.408518 0.0306682 0.988168
0.405839 0.09657 0.988104
0.408576 0.155542 0.988095
0.406061 0.22139 0.988003
0.468222 0.0344012 0.988095
0.470887 0.0931046 0.988143
0.468495 0.159162 0.988074
0.471115 0.217762 0.988
0.2803 0.032345 0.755332
0.280424 0.0947977 0.755291
0.280253 0.157305 0.755197
0.280115 0.219627 0.755148
0.342777 0.0321955 0.755299
0.342802 0.094762 0.755226
0.342673 0.157412 0.75521
0.342699 0.219812 0.755205
0.404931 0.0322419 0.755289
0.404977 0.094804 0.755219
0.404994 0.15728 0.755192
0.405121 0.219956 0.755129
0.466982 0.032169 0.755263
0.467069 0.0948733 0.755206
0.467394 0.157389 0.755171
0.467219 0.21973 0.755083
0.280267 0.0323258 0.794207
0.280532 0.094896 0.794159
0.280464 0.157361 0.794057
0.280051 0.219702 0.793981
0.342675 0.0321061 0.794142
0.342705 0.0947599 0.794044
0.342599 0.157256 0.794013
0.34272 0.219934 0.794006
0.404833 0.0323192 0.794132
0.404916 0.0949237 0.794089
0.405051 0.157414 0.793993
0.405193 0.219961 0.793997
0.467035 0.0323019 0.794093
0.467224 0.0949943 0.794065
0.467313 0.157485 0.794034
0.467429 0.219995 0.793987
0.280342 0.0323262 0.832918
0.2808 0.0949145 0.83289
0.280556 0.157311 0.83285
0.280332 0.22003 0.832775
0.342876 0.0322375 0.832988
0.342801 0.0948609 0.832952
0.342687 0.157417 0.832881
0.342803 0.219931 0.832832
0.405002 0.032299 0.832995
0.404907 0.0950013 0.832987
0.405082 0.157204 0.83288
0.405007 0.219922 0.832809
0.467125 0.0324533 0.832938
0.467274 0.0948503 0.832915
0.467259 0.157391 0.832859
0.467311 0.219702 0.83285
0.280342 0.0323091 0.871731
0.280544 0.0947798 0.871749
0.280306 0.157427 0.871695
0.280332 0.219736 0.871659
0.342732 0.0322904 0.871801
0.342715 0.0949751 0.871781
0.342871 0.157311 0.871695
0.34294 0.219885 0.871601
0.405084 0.0323503 0.871843
0.405081 0.0948175 0.871826
0.405023 0.157349 0.871779
0.405257 0.219699 0.871669
0.467379 0.0322513 0.871863
0.46745 0.0948981 0.871828
0.467532 0.157237 0.871757
0.467528 0.219845 0.871676
0.28034 0.0322218 0.910601
0.280229 0.0951077 0.91058
0.280596 0.156984 0.910541
0.280272 0.219713 0.910469
0.34262 0.0325563 0.910603
0.342862 0.094642 0.910636
0.34272 0.157543 0.910587
0.343055 0.219245 0.910497
0.405291 0.0321774 0.910676
0.404921 0.0949918 0.910689
0.405371 0.157237 0.910648
0.405003 0.22007 0.910485
0.467079 0.0325634 0.910673
0.467849 0.0947945 0.910692
0.467542 0.157466 0.910624
0.467808 0.21957 0.910523
0.279786 0.0329193 0.949406
0.280637 0.0940797 0.949429
0.279905 0.157818 0.949377
0.280756 0.219039 0.949275
0.343181 0.0317871 0.949455
0.342358 0.0955086 0.949431
0.343131 0.156391 0.94943
0.342524 0.220509 0.949335
0.404722 0.0328782 0.949479
0.405608 0.094256 0.949471
0.404821 0.157919 0.949435
0.405628 0.219242 0.949372
0.467974 0.0317624 0.94949
0.467124 0.0956289 0.94947
0.467876 0.156631 0.949472
0.466984 0.220491 0.949321
0.499214 0.0321508 0.929852
0.498685 0.0322101 0.774609
0.498759 0.0949277 0.77454
0.499263 0.0946521 0.930359
0.31217 0.0320676 0.774723
0.312317 0.0948665 0.774663
0.312214 0.157181 0.774486
0.312175 0.220059 0.774614
0.374471 0.0323144 0.774742
0.374495 0.0947604 0.774583
0.374525 0.157315 0.774665
0.374568 0.21986 0.774694
0.436594 0.0322834 0.77473
0.436645 0.0948598 0.774626
0.436842 0.157536 0.774562
0.436826 0.219994 0.774614
0.499656 0.22056 0.968942
0.49938 0.219884 0.930286
0.498914 0.0321369 0.85242
0.498963 0.0944996 0.813477
0.312476 0.032182 0.813642
0.312628 0.0949406 0.813487
0.312429 0.157673 0.813511
0.312138 0.220005 0.81335
0.374568 0.032381 0.813611
0.374439 0.0948054 0.813553
0.374482 0.15759 0.813352
0.374591 0.21968 0.813399
0.436678 0.0321673 0.813519
0.436683 0.0952084 0.813599
0.436863 0.156928 0.813439
0.437019 0.22017 0.813507
0.499489 0.0953964 0.96902
0.499166 0.0320901 0.891357
0.499341 0.15739 0.929991
0.499365 0.157127 0.891268
0.312324 0.0323234 0.852292
0.312456 0.0946546 0.8524
0.312386 0.157539 0.852222
0.312021 0.220481 0.85222
0.374726 0.0323194 0.852485
0.374735 0.0946629 0.852441
0.374845 0.157337 0.852233
0.374938 0.219751 0.852158
0.436965 0.032512 0.852506
0.43702 0.0947728 0.852405
0.437036 0.157246 0.852442
0.437034 0.219767 0.852237
0.49913 0.157289 0.852201
0.499006 0.157143 0.77456
0.312242 0.0324621 0.891282
0.312174 0.094899 0.891403
0.312256 0.157253 0.891098
0.312348 0.21957 0.891035
0.374695 0.0322735 0.891195
0.374647 0.0949289 0.891144
0.374694 0.157366 0.891253
0.374664 0.219688 0.891067
0.436977 0.0324552 0.891217
0.436863 0.0950602 0.891314
0.437062 0.157281 0.891079
0.437071 0.219702 0.89125
0.499049 0.219881 0.774371
0.499158 0.0949377 0.852399
0.498831 0.0323997 0.813487
0.312021 0.0322522 0.930237
0.312109 0.094771 0.929944
0.312129 0.157199 0.930223
0.312389 0.2198 0.929676
0.374624 0.032433 0.929972
0.374558 0.094794 0.93039
0.374655 0.157313 0.929954
0.374562 0.219865 0.93017
0.436906 0.0325215 0.930363
0.437063 0.0947749 0.929897
0.436947 0.157524 0.930426
0.436917 0.219944 0.929745
0.49937 0.219715 0.852255
0.312285 0.0327638 0.968933
0.312108 0.0941808 0.970117
0.312304 0.158037 0.968843
0.312214 0.218999 0.970079
0.374582 0.0320368 0.970344
0.374717 0.0955846 0.969024
0.374545 0.156796 0.970297
0.37486 0.220484 0.968945
0.437224 0.0327359 0.969034
0.436952 0.0943644 0.970297
0.437151 0.158126 0.969058
0.437198 0.219082 0.970111
0.499493 0.0320454 0.970269
0.499249 0.0949154 0.891255
0.499242 0.219636 0.813438
0.499525 0.156586 0.97017
0.499054 0.157798 0.813496
0.499558 0.219896 0.891079
0.250097 0.0951054 0.8523
0.250043 0.157168 0.852212
0.281503 0.250941 0.00840537
0.285702 0.313275 0.00564562
0.28001 0.375886 0.00809822
0.284037 0.438324 0.00595812
0.349391 0.250834 0.00583997
0.343193 0.313467 0.008324
0.347001 0.375891 0.00581662
0.342636 0.438408 0.00777855
0.406241 0.250892 0.0084786
0.410668 0.313241 0.00564838
0.404931 0.375888 0.00818915
0.408827 0.438318 0.00589117
0.474198 0.25078 0.00580323
0.468202 0.31332 0.00843709
0.47159 0.375751 0.00576817
0.467538 0.438254 0.00783037
0.286252 0.2509 0.0442105
0.281958 0.313367 0.0470731
0.285548 0.375814 0.0436975
0.28078 0.438425 0.0464773
0.344232 0.251031 0.0469781
0.349086 0.313386 0.0439832
0.343851 0.37587 0.0468203
0.346754 0.438348 0.0439381
0.411081 0.250884 0.0442188
0.406873 0.313326 0.047176
0.410342 0.375747 0.0436788
0.405677 0.438388 0.0464994
0.4693 0.250971 0.0471144
0.47411 0.313331 0.0438706
0.468735 0.375836 0.0468317
0.471468 0.438283 0.0439198
0.282465 0.25103 0.0853429
0.285968 0.313439 0.0821335
0.282345 0.375922 0.0851834
0.283517 0.438452 0.0818676
0.348206 0.251027 0.0823194
0.34547 0.313413 0.0854317
0.347009 0.37593 0.0818706
0.343779 0.438528 0.0848604
0.407569 0.250958 0.0852734
0.410927 0.313368 0.0822001
0.407354 0.375816 0.0852891
0.408423 0.438357 0.0819391
0.473147 0.250981 0.0823097
0.470291 0.313348 0.085472
0.471998 0.375885 0.0819004
0.46866 0.438472 0.0849425
0.285867 0.251102 0.120545
0.283036 0.313541 0.123679
0.284818 0.376051 0.119972
0.281219 0.438625 0.123183
0.345067 0.251022 0.123611
0.348686 0.313409 0.120337
0.344788 0.37597 0.123538
0.346185 0.438607 0.120069
0.410846 0.251005 0.120544
0.407972 0.313392 0.123683
0.409735 0.375972 0.119993
0.406103 0.438559 0.123187
0.469926 0.251022 0.123653
0.473468 0.313417 0.120293
0.46968 0.375939 0.123628
0.47118 0.438514 0.120024
0.282643 0.251133 0.161928
0.286229 0.313603 0.158533
0.282245 0.376044 0.16182
0.283685 0.438619 0.158225
0.348307 0.251042 0.158692
0.345529 0.313525 0.16188
0.347334 0.376091 0.158165
0.343552 0.438633 0.161425
0.407527 0.251059 0.161862
0.41121 0.31351 0.158523
0.407165 0.376029 0.161831
0.408706 0.438594 0.158153
0.473198 0.250998 0.158673
0.470464 0.313484 0.161886
0.472112 0.37605 0.158218
0.468641 0.43859 0.161511
0.285663 0.25117 0.196879
0.283093 0.31357 0.200204
0.284447 0.376169 0.196353
0.281141 0.438698 0.199779
0.345283 0.251103 0.200037
0.348525 0.313571 0.196702
0.344648 0.376123 0.200032
0.346032 0.438682 0.196375
0.41058 0.251082 0.196816
0.408026 0.313534 0.200172
0.409481 0.376076 0.196278
0.406059 0.438605 0.199755
0.470248 0.251044 0.199999
0.473442 0.313473 0.196672
0.469534 0.376002 0.200092
0.47099 0.438608 0.196348
0.282709 0.250978 0.238342
0.285985 0.313525 0.234814
0.28229 0.376111 0.23829
0.283284 0.4387 0.23455
0.348024 0.251 0.23501
0.345585 0.313476 0.238334
0.346771 0.376154 0.234449
0.343621 0.438705 0.238
0.407591 0.250998 0.238253
0.410864 0.313518 0.234855
0.407044 0.37611 0.238372
0.408249 0.438622 0.234545
0.472982 0.250974 0.235047
0.470547 0.313409 0.238257
0.471601 0.376042 0.234529
0.468368 0.438632 0.237962
0.283398 0.28453 0.0262358
0.281609 0.34204 0.0261195
0.284374 0.40932 0.0261794
0.280967 0.468089 0.0261068
0.34751 0.280133 0.0261631
0.347773 0.34717 0.0261529
0.342768 0.405289 0.0261306
0.346561 0.471517 0.0260805
0.408177 0.28467 0.0262581
0.406444 0.341921 0.0261396
0.409286 0.409484 0.0261732
0.405951 0.468114 0.0260808
0.472215 0.279828 0.0261882
0.472665 0.347193 0.0261391
0.467851 0.40513 0.026136
0.471276 0.471537 0.02611
0.285525 0.279936 0.0644609
0.28681 0.347332 0.0644122
0.27961 0.404732 0.064375
0.284343 0.472268 0.0643292
0.345325 0.285053 0.064468
0.344545 0.34208 0.0644644
0.34739 0.409865 0.0644336
0.343142 0.467991 0.0643582
0.410504 0.279986 0.064485
0.41166 0.347286 0.0644087
0.404605 0.40467 0.0643983
0.409287 0.472078 0.0643891
0.47026 0.285117 0.0644885
0.469528 0.341948 0.0644694
0.472426 0.409778 0.0644829
0.468065 0.467872 0.0643934
0.282462 0.285219 0.102741
0.282293 0.341987 0.102692
0.285054 0.41019 0.102621
0.280401 0.467829 0.102565
0.34836 0.27996 0.102714
0.349659 0.347511 0.102663
0.34188 0.404893 0.102654
0.347028 0.472597 0.102586
0.407486 0.285046 0.102717
0.407222 0.341858 0.102695
0.409887 0.410155 0.102652
0.405416 0.467827 0.102609
0.473242 0.279823 0.10274
0.474478 0.347522 0.102682
0.466753 0.404785 0.102689
0.47188 0.472519 0.102613
0.286147 0.280129 0.140993
0.287085 0.347729 0.140871
0.279397 0.404786 0.14085
0.284523 0.472761 0.140806
0.344914 0.285257 0.140956
0.34484 0.341915 0.140889
0.347498 0.410359 0.140858
0.342752 0.46784 0.140789
0.411085 0.27992 0.140973
0.411995 0.347552 0.140876
0.404296 0.404608 0.140847
0.409483 0.472843 0.140815
0.469942 0.285315 0.140943
0.469636 0.341992 0.140907
0.472342 0.410454 0.14088
0.46767 0.46772 0.140834
0.282306 0.285525 0.179176
0.28225 0.342017 0.179144
0.284953 0.410419 0.17907
0.280339 0.467692 0.179028
0.348736 0.280077 0.179162
0.34946 0.347782 0.179083
0.341846 0.40481 0.179073
0.347124 0.47286 0.179032
0.407411 0.285525 0.179163
0.407273 0.341987 0.179122
0.409805 0.410382 0.179042
0.40503 0.467673 0.179031
0.473482 0.279948 0.179144
0.474324 0.347661 0.179092
0.466679 0.404653 0.179093
0.471901 0.472895 0.179052
0.28622 0.279881 0.217401
0.286841 0.347914 0.217302
0.279218 0.404746 0.217271
0.284511 0.473164 0.217237
0.344666 0.285359 0.217384
0.344704 0.341927 0.217325
0.347337 0.410626 0.217252
0.342538 0.46773 0.217253
0.411027 0.27996 0.217354
0.411723 0.347923 0.217303
0.404134 0.404648 0.217279
0.40934 0.472936 0.217235
0.469656 0.285329 0.217346
0.469669 0.341896 0.217336
0.472016 0.410433 0.217285
0.46744 0.467731 0.217255
0.252851 0.284522 0.00674839
0.250938 0.342171 0.00598225
0.250849 0.467548 0.00644323
0.315575 0.279316 0.00751452
0.313327 0.34701 0.00785374
0.3133 0.404893 0.00613203
0.313305 0.471446 0.00780174
0.377758 0.284579 0.0067438
0.375904 0.342132 0.00602779
0.375641 0.409094 0.00803914
0.375875 0.467567 0.00626744
0.440436 0.279239 0.00744142
0.438201 0.346823 0.00783078
0.43819 0.404815 0.00615235
0.438282 0.471344 0.00777365
0.253113 0.279702 0.0459077
0.253296 0.346684 0.046558
0.251016 0.405127 0.0439054
0.251005 0.47126 0.0463131
0.315573 0.284408 0.0445202
0.315717 0.342079 0.0440147
0.313447 0.408924 0.0467257
0.313665 0.46754 0.0441811
0.378001 0.279734 0.045952
0.378165 0.346595 0.0465442
0.375948 0.405072 0.0439093
0.376029 0.47112 0.0463596
0.440486 0.284364 0.044548
0.440681 0.342101 0.0439716
0.438289 0.408767 0.0468152
0.438515 0.467624 0.0442785
0.253096 0.283765 0.0825006
0.253484 0.343206 0.0820226
0.251119 0.468181 0.0822708
0.315605 0.280377 0.084352
0.315902 0.345797 0.0849249
0.31345 0.405882 0.0818876
0.313489 0.470635 0.0847569
0.378074 0.283713 0.0825092
0.378474 0.343125 0.0819845
0.375848 0.408033 0.0852589
0.376081 0.468155 0.0823441
0.44055 0.280426 0.0844022
0.440826 0.345849 0.0849429
0.438311 0.405836 0.0818952
0.438401 0.470537 0.0847896
0.253235 0.280391 0.122799
0.253479 0.346144 0.123215
0.315703 0.283733 0.120621
0.316167 0.343058 0.120209
0.313375 0.408373 0.123489
0.313472 0.468343 0.120363
0.378256 0.280352 0.122789
0.378489 0.345975 0.123116
0.375883 0.405864 0.120071
0.37601 0.470843 0.123093
0.440598 0.283744 0.120642
0.44101 0.343071 0.120168
0.438294 0.408367 0.123487
0.438461 0.46816 0.12044
0.253267 0.283741 0.158797
0.253664 0.343226 0.158456
0.250736 0.409192 0.0080453
0.315725 0.280414 0.161122
0.316006 0.346021 0.161347
0.313341 0.40582 0.158271
0.313505 0.470854 0.161285
0.378226 0.283714 0.1588
0.378623 0.343126 0.15843
0.375803 0.408555 0.161701
0.375882 0.468216 0.158651
0.440674 0.280381 0.161024
0.440865 0.345998 0.161296
0.438298 0.405877 0.158272
0.438348 0.470789 0.161375
0.253191 0.280695 0.199316
0.253402 0.345901 0.199633
0.315744 0.283808 0.196949
0.316063 0.343297 0.196719
0.313266 0.408387 0.199929
0.313418 0.468337 0.196844
0.378121 0.28065 0.199284
0.378342 0.345977 0.199551
0.375789 0.406032 0.196502
0.375807 0.470911 0.199589
0.440629 0.283561 0.196969
0.440971 0.343162 0.196747
0.43809 0.408389 0.199892
0.438253 0.468208 0.196849
0.253242 0.283459 0.235219
0.253513 0.343314 0.23493
0.315601 0.280611 0.237665
0.315788 0.34581 0.237769
0.313171 0.406216 0.234626
0.313175 0.470616 0.237801
0.378075 0.283539 0.235122
0.378359 0.343402 0.23493
0.375536 0.40831 0.238147
0.375703 0.468456 0.235009
0.440517 0.280465 0.237556
0.440698 0.345781 0.237769
0.438007 0.406048 0.234702
0.438093 0.470732 0.237773
0.251016 0.470941 0.123047
0.250691 0.408267 0.238116
0.250944 0.468294 0.158737
0.250822 0.408276 0.08525
0.250759 0.40607 0.196513
0.250889 0.405854 0.120021
0.250761 0.468538 0.2351
0.250836 0.470848 0.199623
0.250849 0.408507 0.161715
0.285275 0.250899 0.273134
0.283178 0.313449 0.276588
0.284117 0.376137 0.272573
0.281038 0.438682 0.276205
0.3453 0.250924 0.276416
0.348088 0.31345 0.272969
0.344664 0.376029 0.276498
0.345612 0.438659 0.27267
0.41019 0.250919 0.273104
0.408023 0.313462 0.276522
0.409001 0.376127 0.272676
0.406006 0.438628 0.276265
0.470091 0.250929 0.27637
0.473106 0.313421 0.273
0.469406 0.375997 0.276489
0.470468 0.43858 0.272843
0.283092 0.250949 0.314631
0.285054 0.313441 0.311067
0.282471 0.376081 0.314703
0.282607 0.438658 0.311008
0.347287 0.250859 0.311192
0.345923 0.313346 0.314654
0.346063 0.376063 0.310792
0.343728 0.438617 0.314339
0.407861 0.250872 0.314581
0.409991 0.313418 0.311161
0.407315 0.376002 0.314745
0.407618 0.438643 0.310896
0.472244 0.250908 0.311242
0.470718 0.313358 0.314705
0.471109 0.376014 0.310756
0.468477 0.438547 0.314462
0.284016 0.250837 0.349196
0.2836 0.313338 0.352796
0.283435 0.376014 0.348993
0.281121 0.438546 0.352552
0.346057 0.250855 0.35273
0.347098 0.313384 0.349102
0.344896 0.375974 0.352833
0.345134 0.438594 0.349085
0.409061 0.250866 0.349301
0.408608 0.313401 0.352822
0.408283 0.375973 0.34904
0.40596 0.438543 0.352585
0.47086 0.250847 0.352731
0.472027 0.313461 0.349293
0.46985 0.375982 0.352915
0.469865 0.438586 0.349068
0.284461 0.250861 0.390723
0.283094 0.313394 0.387205
0.28321 0.375974 0.391083
0.281902 0.438626 0.387334
0.345209 0.250909 0.387185
0.34714 0.313424 0.390976
0.345006 0.376081 0.387178
0.344131 0.438588 0.390709
0.409414 0.250891 0.390826
0.407826 0.313426 0.387125
0.408218 0.37595 0.39114
0.406745 0.438641 0.387467
0.470307 0.25091 0.387305
0.472142 0.313368 0.390964
0.469582 0.37611 0.387374
0.469051 0.438556 0.390721
0.281166 0.25089 0.425433
0.284931 0.313327 0.429122
0.28033 0.376136 0.425621
0.282118 0.438594 0.428761
0.348703 0.250813 0.429002
0.343116 0.313614 0.425528
0.345389 0.375957 0.42897
0.343372 0.438541 0.426001
0.405812 0.251014 0.425504
0.410014 0.313388 0.429247
0.405312 0.376087 0.42568
0.406754 0.4385 0.428875
0.473785 0.250762 0.42889
0.468107 0.313517 0.425688
0.470568 0.375909 0.429095
0.468475 0.438654 0.426041
0.284274 0.25084 0.467059
0.27927 0.313363 0.464131
0.282911 0.375801 0.466792
0.280461 0.438523 0.464347
0.341094 0.250956 0.464187
0.346275 0.313301 0.467023
0.342323 0.37598 0.464352
0.34429 0.438452 0.466641
0.409209 0.25098 0.467125
0.404097 0.313498 0.464289
0.40744 0.375923 0.466962
0.405568 0.43847 0.464356
0.466291 0.250974 0.464236
0.471083 0.313415 0.466916
0.46758 0.375932 0.464361
0.469354 0.438461 0.466686
0.282188 0.285492 0.255586
0.282265 0.341854 0.255505
0.28479 0.410774 0.25544
0.279848 0.467759 0.255454
0.348786 0.279907 0.255553
0.349137 0.347804 0.255477
0.341385 0.404636 0.25544
0.346766 0.473226 0.255442
0.407036 0.285425 0.255528
0.407032 0.341899 0.255515
0.409735 0.410718 0.255498
0.404896 0.467674 0.255441
0.473489 0.279801 0.255565
0.474096 0.347727 0.255487
0.466381 0.404618 0.255481
0.471701 0.472911 0.255465
0.286101 0.279799 0.29373
0.286658 0.347926 0.293649
0.278951 0.404676 0.293632
0.284299 0.473047 0.293641
0.344501 0.285438 0.293706
0.34454 0.341771 0.293692
0.347093 0.410593 0.293591
0.342266 0.467622 0.293613
0.410931 0.279799 0.293745
0.411544 0.347857 0.293692
0.403863 0.404601 0.293681
0.409337 0.47317 0.293643
0.469351 0.285391 0.29374
0.469305 0.34178 0.293705
0.472161 0.410609 0.293692
0.467171 0.467575 0.293678
0.282099 0.285558 0.331848
0.281915 0.341793 0.331839
0.284522 0.410596 0.331817
0.279597 0.467701 0.331829
0.348342 0.279656 0.331886
0.348969 0.347943 0.331835
0.341287 0.404607 0.331829
0.346707 0.473035 0.331794
0.406884 0.285383 0.331911
0.406696 0.341756 0.331897
0.409578 0.410558 0.331842
0.404532 0.467628 0.331843
0.473473 0.279718 0.331921
0.47394 0.347907 0.331871
0.466081 0.404452 0.331849
0.47143 0.472979 0.331821
0.285497 0.279545 0.370005
0.286165 0.347894 0.370005
0.278875 0.40448 0.370004
0.284103 0.472902 0.369948
0.344794 0.285584 0.370036
0.34397 0.341782 0.370018
0.347083 0.410506 0.369972
0.342036 0.467653 0.369993
0.410413 0.279565 0.370067
0.411068 0.347893 0.370063
0.403802 0.404559 0.370084
0.409139 0.472837 0.370036
0.469877 0.285506 0.370037
0.469026 0.341876 0.370067
0.471888 0.410548 0.369978
0.466828 0.467565 0.370022
0.282949 0.28544 0.408133
0.280471 0.341788 0.40823
0.284444 0.410567 0.408104
0.279456 0.467862 0.408162
0.347055 0.279493 0.408247
0.347282 0.348081 0.408201
0.341365 0.404987 0.408198
0.346481 0.472736 0.408219
0.407929 0.285605 0.408214
0.40561 0.341686 0.408304
0.409194 0.410529 0.408229
0.404122 0.467753 0.408245
0.471787 0.279591 0.408278
0.472345 0.347811 0.40829
0.466448 0.40507 0.408318
0.471603 0.472547 0.408243
0.282444 0.279386 0.446426
0.283076 0.347476 0.446363
0.279104 0.405409 0.44633
0.28374 0.47229 0.44641
0.344986 0.285129 0.446417
0.342223 0.342483 0.446486
0.34624 0.40973 0.446405
0.341606 0.468179 0.446438
0.407517 0.279591 0.446524
0.408227 0.347639 0.446476
0.403781 0.405262 0.446487
0.4086 0.472353 0.446396
0.470157 0.284853 0.446457
0.466927 0.342475 0.446565
0.471003 0.409834 0.446404
0.466509 0.468195 0.446488
0.280905 0.284064 0.484649
0.279716 0.343079 0.484614
0.28305 0.409206 0.484591
0.278924 0.468465 0.484618
0.343344 0.280234 0.484725
0.344557 0.346595 0.484627
0.341256 0.405844 0.484675
0.345474 0.471691 0.484665
0.405623 0.283924 0.484768
0.404204 0.342995 0.484718
0.408012 0.409471 0.484673
0.403891 0.468373 0.484693
0.46792 0.280754 0.484734
0.469893 0.346704 0.48467
0.466426 0.405758 0.484667
0.470415 0.471704 0.484639
0.253115 0.280677 0.275793
0.253254 0.345567 0.275884
0.315604 0.283172 0.273299
0.315791 0.343391 0.273116
0.312977 0.408131 0.276339
0.313122 0.468515 0.273215
0.378022 0.280672 0.275783
0.378125 0.345686 0.275959
0.375466 0.406194 0.27279
0.375606 0.470522 0.275999
0.440401 0.283265 0.273373
0.44068 0.343287 0.273105
0.437879 0.408119 0.276395
0.438011 0.46843 0.273229
0.252945 0.282755 0.311538
0.253242 0.343848 0.311243
0.315404 0.281002 0.313916
0.315611 0.345106 0.314208
0.31295 0.406537 0.31096
0.312941 0.470273 0.314256
0.377821 0.282742 0.311494
0.378061 0.343756 0.31131
0.375313 0.407719 0.314518
0.375505 0.46877 0.311347
0.440303 0.2809 0.314063
0.440478 0.345196 0.314253
0.437836 0.406376 0.311021
0.437899 0.470338 0.314236
0.25277 0.28144 0.352055
0.25304 0.34488 0.352379
0.499885 0.279728 0.465807
0.315328 0.282184 0.34983
0.315497 0.343876 0.349478
0.312819 0.407667 0.352736
0.312838 0.468674 0.349454
0.377649 0.28155 0.352116
0.377841 0.344903 0.352371
0.37532 0.406401 0.349169
0.375335 0.470334 0.352419
0.44036 0.282381 0.349808
0.440381 0.34406 0.349467
0.437662 0.407618 0.352755
0.43775 0.468758 0.349569
0.252739 0.281137 0.388323
0.252712 0.3451 0.387598
0.315129 0.282957 0.389894
0.315113 0.343768 0.390377
0.312845 0.407193 0.387335
0.312703 0.469879 0.390474
0.377723 0.281009 0.38852
0.377628 0.34509 0.387747
0.375274 0.407045 0.390884
0.375284 0.469277 0.387722
0.440067 0.282906 0.389796
0.440147 0.343568 0.390526
0.437728 0.407266 0.387501
0.43768 0.469811 0.390755
0.252343 0.284271 0.42744
0.250066 0.408076 0.425616
0.315236 0.279521 0.427011
0.312735 0.346307 0.426152
0.312446 0.406044 0.428797
0.312698 0.469807 0.425812
0.377321 0.284445 0.427536
0.375246 0.34281 0.428559
0.375045 0.407824 0.425647
0.374949 0.469267 0.428805
0.440144 0.27939 0.427194
0.437794 0.346381 0.426261
0.437315 0.406046 0.428926
0.437552 0.469664 0.425852
0.499976 0.346269 0.464647
0.499864 0.469954 0.464251
0.312561 0.28469 0.465572
0.312414 0.342375 0.466386
0.312343 0.407976 0.464107
0.312367 0.469169 0.466968
0.374923 0.279456 0.465509
0.374857 0.34643 0.46457
0.374731 0.405923 0.467084
0.374961 0.469774 0.464115
0.437513 0.284611 0.465529
0.437185 0.342827 0.466546
0.437378 0.407827 0.464137
0.437182 0.469182 0.466957
0.250277 0.342763 0.428608
0.250395 0.470244 0.352335
0.250422 0.407816 0.314458
0.250328 0.46912 0.387661
0.250276 0.406981 0.390802
0.250504 0.468883 0.311364
0.250571 0.47069 0.275998
0.49971 0.405992 0.466807
0.250052 0.469215 0.428769
0.25043 0.406459 0.349123
0.250581 0.406146 0.272817
0.250003 0.405757 0.46677
0.250017 0.346208 0.464568
0.404598 0.250954 0.658117
0.43715 0.283885 0.504037
0.278418 0.438556 0.504445
0.466866 0.37599 0.504573
0.34521 0.313381 0.502742
0.27752 0.250857 0.542644
0.282088 0.313429 0.54147
0.277616 0.375955 0.542513
0.282 0.438616 0.541578
0.344838 0.250925 0.541474
0.340014 0.313411 0.542672
0.345007 0.376043 0.541484
0.340123 0.438574 0.542599
0.402979 0.25095 0.542747
0.407658 0.313507 0.541405
0.402912 0.375987 0.542683
0.407517 0.438547 0.541555
0.469987 0.250984 0.541542
0.46549 0.313592 0.542645
0.469935 0.37616 0.541612
0.4655 0.438522 0.542581
0.279603 0.313361 0.580611
0.279809 0.375938 0.580122
0.279676 0.438452 0.580638
0.342285 0.313391 0.58028
0.342006 0.375991 0.58057
0.342108 0.438583 0.580179
0.40449 0.313505 0.580676
0.404563 0.375977 0.580086
0.404369 0.438479 0.580687
0.467146 0.313522 0.580237
0.46718 0.375937 0.58064
0.46705 0.438478 0.580347
0.279622 0.313308 0.619126
0.279092 0.375876 0.619305
0.279392 0.438444 0.61919
0.341605 0.313387 0.619355
0.341951 0.375894 0.619135
0.341545 0.438398 0.619377
0.404456 0.313406 0.619112
0.404227 0.375813 0.619308
0.404122 0.438392 0.619253
0.46713 0.313472 0.619263
0.466785 0.375955 0.619188
0.466803 0.438311 0.619372
0.279302 0.313323 0.658124
0.279487 0.375842 0.658042
0.279435 0.438382 0.65808
0.279938 0.25071 0.580171
0.342174 0.31341 0.657907
0.341823 0.375934 0.658098
0.341826 0.438406 0.658001
0.404516 0.31344 0.65807
0.404588 0.375906 0.658013
0.404311 0.438446 0.658147
0.467089 0.313507 0.657948
0.466903 0.37589 0.658041
0.466938 0.438383 0.658092
0.279866 0.250907 0.696813
0.279829 0.31345 0.696831
0.279737 0.376039 0.696848
0.279394 0.438461 0.696864
0.342149 0.251042 0.696862
0.342349 0.313571 0.696844
0.342048 0.376105 0.696789
0.342309 0.43851 0.696914
0.404766 0.25108 0.696857
0.40478 0.313628 0.696889
0.404751 0.376036 0.696815
0.404656 0.438505 0.696876
0.467311 0.251035 0.696806
0.467116 0.313603 0.696846
0.467101 0.376004 0.696789
0.466927 0.438507 0.696816
0.279782 0.250992 0.735765
0.279928 0.313447 0.735751
0.279954 0.375982 0.735691
0.27954 0.43845 0.735779
0.342578 0.251101 0.735744
0.342435 0.313686 0.735673
0.342154 0.376137 0.735768
0.342168 0.438586 0.735801
0.404997 0.251121 0.735625
0.404659 0.31372 0.735578
0.404623 0.376125 0.735678
0.40452 0.438543 0.73569
0.466958 0.251085 0.735623
0.467297 0.313634 0.735639
0.467288 0.376139 0.735595
0.467006 0.438489 0.735612
0.280589 0.280932 0.522896
0.281467 0.345963 0.52288
0.279172 0.406364 0.522891
0.28221 0.471143 0.522882
0.342878 0.283529 0.522963
0.342098 0.34351 0.522951
0.344677 0.408569 0.522914
0.341568 0.468857 0.522945
0.40557 0.280869 0.523028
0.406406 0.346111 0.522899
0.404134 0.406105 0.522941
0.407237 0.471108 0.522977
0.468435 0.28351 0.522999
0.466972 0.343858 0.522966
0.469916 0.408555 0.522948
0.466706 0.468752 0.522954
0.280589 0.282737 0.561283
0.279967 0.343924 0.561246
0.281347 0.407786 0.56124
0.27935 0.469323 0.561305
0.342855 0.281465 0.561316
0.343448 0.345383 0.561272
0.342077 0.40671 0.561214
0.343841 0.470428 0.561279
0.405242 0.283001 0.561254
0.404992 0.34403 0.5612
0.406336 0.407889 0.561248
0.404369 0.469285 0.561308
0.467873 0.281659 0.561311
0.468489 0.345436 0.561304
0.466894 0.406873 0.561338
0.468649 0.470419 0.561299
0.279379 0.281746 0.599908
0.279655 0.344927 0.599859
0.279288 0.406945 0.59988
0.279561 0.469922 0.599933
0.34176 0.282304 0.599947
0.341747 0.344515 0.599906
0.342158 0.40751 0.599881
0.341487 0.469454 0.599939
0.404685 0.28186 0.599923
0.404593 0.345029 0.599876
0.404114 0.406934 0.599918
0.404556 0.469933 0.599962
0.467065 0.282499 0.599896
0.466764 0.344515 0.599873
0.467245 0.407271 0.59991
0.466618 0.469519 0.599973
0.279717 0.281938 0.638709
0.27944 0.344456 0.638664
0.279506 0.407119 0.638681
0.279522 0.46974 0.638737
0.342115 0.282168 0.63868
0.342173 0.344781 0.638695
0.342045 0.406971 0.63872
0.342215 0.469685 0.638741
0.40468 0.282205 0.638689
0.404687 0.344462 0.638665
0.404631 0.40726 0.638715
0.404469 0.469698 0.63881
0.467286 0.282155 0.638709
0.46728 0.344648 0.638639
0.467065 0.4071 0.638693
0.46707 0.469664 0.638764
0.27974 0.2821 0.677495
0.27977 0.344599 0.677485
0.279744 0.407156 0.677481
0.279744 0.469646 0.677544
0.342579 0.28223 0.677445
0.342411 0.344749 0.677459
0.34229 0.407391 0.677484
0.342082 0.469642 0.67756
0.404738 0.282335 0.677495
0.404926 0.344726 0.677456
0.404746 0.407288 0.677444
0.404533 0.469768 0.677552
0.467236 0.282332 0.67745
0.467447 0.344716 0.677418
0.467285 0.407173 0.677425
0.467104 0.469604 0.677503
0.28023 0.282266 0.716291
0.280021 0.344737 0.716237
0.279999 0.407307 0.716296
0.279638 0.469664 0.71633
0.342325 0.282373 0.716252
0.34241 0.344882 0.71627
0.342428 0.407298 0.716306
0.342238 0.469746 0.716379
0.404953 0.28241 0.716238
0.404955 0.344992 0.716246
0.404871 0.407251 0.716254
0.404658 0.469839 0.716345
0.467285 0.282316 0.716233
0.467457 0.344891 0.716231
0.467279 0.407314 0.716216
0.467357 0.469581 0.716245
0.374462 0.34637 0.504562
0.49893 0.282308 0.579589
0.499114 0.284571 0.542319
0.499014 0.344648 0.579955
0.498834 0.407145 0.579094
0.311329 0.279619 0.542085
0.311504 0.347233 0.542595
0.311344 0.404979 0.541296
0.31152 0.472212 0.542969
0.373884 0.284461 0.542017
0.373872 0.342218 0.541637
0.37405 0.409735 0.542812
0.373895 0.467382 0.541298
0.436583 0.279893 0.542146
0.436646 0.34733 0.542517
0.436492 0.404811 0.54126
0.436616 0.472039 0.542895
0.499393 0.344879 0.735621
0.499014 0.467475 0.541474
0.499126 0.407289 0.696821
0.498998 0.342629 0.541656
0.311371 0.282199 0.579795
0.311374 0.344523 0.579359
0.31153 0.407332 0.579972
0.311137 0.469847 0.579234
0.373898 0.282074 0.579719
0.373888 0.344777 0.57983
0.373743 0.407199 0.57923
0.373833 0.469916 0.580152
0.436312 0.282382 0.579648
0.436283 0.344641 0.579414
0.436343 0.407297 0.580192
0.43614 0.46947 0.579212
0.499453 0.407342 0.735553
0.498879 0.469636 0.580009
0.49905 0.407094 0.619333
0.345406 0.438551 0.502861
0.311392 0.28179 0.619276
0.311481 0.34494 0.619346
0.311384 0.407004 0.619206
0.311368 0.469888 0.6194
0.373898 0.282311 0.619226
0.373906 0.344437 0.619195
0.373832 0.407023 0.619443
0.373777 0.469631 0.619244
0.436577 0.282119 0.619218
0.436558 0.344606 0.619291
0.436276 0.40727 0.619151
0.436326 0.469526 0.619504
0.499191 0.40958 0.543036
0.437043 0.342923 0.503133
0.49917 0.282252 0.658015
0.469963 0.438504 0.502731
0.311518 0.282245 0.658048
0.311514 0.344609 0.65802
0.311495 0.407138 0.657997
0.311475 0.469554 0.657919
0.374213 0.282056 0.657927
0.374155 0.344692 0.658068
0.374051 0.407065 0.657913
0.373945 0.469775 0.658154
0.4366 0.282459 0.658061
0.43664 0.344567 0.657947
0.436626 0.406966 0.658004
0.436506 0.469929 0.658183
0.498979 0.344914 0.619204
0.374429 0.405099 0.502699
0.499334 0.469439 0.735652
0.436934 0.467707 0.502675
0.311933 0.282397 0.696743
0.311846 0.344633 0.696805
0.311795 0.407505 0.696814
0.31159 0.469784 0.697065
0.374376 0.282161 0.696935
0.374344 0.344854 0.696824
0.37434 0.407351 0.696958
0.374075 0.469846 0.69691
0.436783 0.282355 0.696925
0.436827 0.344708 0.696819
0.436752 0.407283 0.69678
0.436502 0.469984 0.69687
0.499266 0.344727 0.69678
0.499162 0.469537 0.696844
0.498755 0.469392 0.61918
0.311951 0.467388 0.502691
0.312066 0.282467 0.735642
0.311864 0.344676 0.735584
0.311775 0.407483 0.735895
0.311633 0.469671 0.735724
0.374428 0.282314 0.73552
0.374308 0.345025 0.735576
0.374278 0.407133 0.735653
0.374161 0.469871 0.735868
0.436799 0.282518 0.735586
0.436822 0.344763 0.735583
0.43674 0.40733 0.735663
0.436617 0.469773 0.735673
0.404027 0.438456 0.504688
0.407518 0.37598 0.502735
0.312031 0.409417 0.504998
0.374656 0.471542 0.505047
0.40783 0.25091 0.502948
0.437059 0.408816 0.505127
0.312107 0.284097 0.503886
0.470014 0.31357 0.502924
0.466942 0.251011 0.580702
0.49906 0.469527 0.658092
0.279348 0.313468 0.504583
0.466783 0.251001 0.658089
0.499244 0.344663 0.658028
0.28288 0.250879 0.50275
0.341544 0.375926 0.504668
0.279335 0.250783 0.658028
0.404262 0.313409 0.504738
0.341997 0.250931 0.657999
0.466916 0.251047 0.504718
0.341625 0.250922 0.504843
0.342038 0.250852 0.619161
0.279021 0.250712 0.619361
0.282933 0.376071 0.502762
0.342044 0.250856 0.58072
0.46696 0.250976 0.619243
0.404862 0.250907 0.580144
0.404269 0.250961 0.619364
0.374622 0.280304 0.504047
0.312127 0.342623 0.503163
0.499123 0.282215 0.619309
0.499528 0.471264 0.504998
0.49915 0.407156 0.657943
0.499337 0.282214 0.735593
0.499463 0.405443 0.502775
0.499616 0.280923 0.503759
0.499258 0.282472 0.696847
0.499669 0.346156 0.504545
0.279738 0.250939 0.774537
0.279645 0.313469 0.774567
0.279337 0.375978 0.774498
0.279337 0.438436 0.774489
0.342546 0.25119 0.774583
0.342444 0.313731 0.774527
0.342637 0.376123 0.77464
0.3422 0.438586 0.774668
0.40466 0.251194 0.774526
0.404788 0.313748 0.77445
0.404843 0.376229 0.774567
0.404748 0.438688 0.774575
0.46722 0.251171 0.774463
0.467036 0.313655 0.774369
0.467144 0.376139 0.77449
0.467324 0.438495 0.774569
0.279658 0.251083 0.813262
0.279631 0.313468 0.813245
0.279331 0.375971 0.81337
0.279369 0.438493 0.813432
0.342644 0.251206 0.813386
0.342453 0.313715 0.813255
0.342445 0.376067 0.81333
0.342251 0.438565 0.813414
0.404776 0.251159 0.813342
0.405187 0.313679 0.813402
0.405021 0.376213 0.813272
0.404799 0.438617 0.813389
0.467587 0.251198 0.813424
0.466977 0.313613 0.813268
0.467534 0.376109 0.813302
0.467669 0.43849 0.813407
0.279677 0.251066 0.852311
0.279763 0.313556 0.852107
0.280244 0.376032 0.852242
0.27989 0.4385 0.852187
0.342726 0.251176 0.852211
0.342799 0.313611 0.852278
0.342409 0.376067 0.852061
0.342565 0.43868 0.852123
0.405128 0.251128 0.852313
0.404979 0.313746 0.852136
0.404921 0.376153 0.852113
0.405111 0.438574 0.852152
0.467544 0.251116 0.852212
0.467652 0.313591 0.852206
0.4674 0.376082 0.852175
0.467536 0.43843 0.852164
0.280175 0.313465 0.891195
0.280151 0.375964 0.890991
0.280129 0.438493 0.891046
0.342433 0.313571 0.890893
0.342717 0.376047 0.890921
0.342529 0.4385 0.890861
0.40523 0.313528 0.891037
0.405246 0.37594 0.89096
0.405503 0.438424 0.890979
0.467675 0.313426 0.890915
0.46799 0.375968 0.891096
0.467797 0.438426 0.890827
0.280326 0.313454 0.929689
0.280612 0.375961 0.929979
0.280695 0.438445 0.929723
0.343054 0.31354 0.929962
0.342713 0.375981 0.929659
0.343031 0.438483 0.929911
0.404932 0.313536 0.929604
0.405448 0.37592 0.929887
0.405571 0.438416 0.92959
0.467948 0.313381 0.930071
0.467952 0.375853 0.929532
0.467673 0.438314 0.929864
0.280536 0.313378 0.96933
0.280894 0.375845 0.968102
0.281154 0.438433 0.969008
0.34368 0.313371 0.968083
0.343653 0.37595 0.969211
0.343432 0.438404 0.96813
0.467483 0.250938 0.969543
0.405519 0.313452 0.969274
0.405626 0.375802 0.968098
0.406454 0.438315 0.969045
0.468603 0.313326 0.967964
0.468428 0.375792 0.969099
0.468383 0.438213 0.96812
0.283009 0.280404 0.987837
0.283164 0.346147 0.987846
0.280926 0.405899 0.98784
0.282871 0.470775 0.987809
0.344557 0.28377 0.987863
0.343314 0.343325 0.987815
0.345589 0.408557 0.987835
0.343721 0.468636 0.987756
0.407799 0.280434 0.987816
0.407956 0.346218 0.987841
0.405833 0.405874 0.987826
0.407866 0.470867 0.987747
0.469425 0.283785 0.98786
0.468265 0.342969 0.987767
0.470398 0.408433 0.987804
0.468468 0.468445 0.98779
0.280179 0.282165 0.75512
0.280002 0.344677 0.755109
0.279707 0.407087 0.755164
0.279737 0.469787 0.755148
0.342749 0.282508 0.755112
0.342519 0.344963 0.755177
0.342633 0.407317 0.755227
0.342272 0.469827 0.755241
0.405038 0.282377 0.755052
0.404968 0.344977 0.755081
0.404941 0.407512 0.755154
0.404875 0.469813 0.755213
0.467348 0.282309 0.754999
0.46748 0.345103 0.755011
0.467575 0.407332 0.755073
0.467449 0.469558 0.755099
0.279886 0.282229 0.793925
0.279711 0.344806 0.79396
0.279717 0.407268 0.793946
0.279742 0.469677 0.79397
0.342534 0.282387 0.793936
0.342592 0.344902 0.793962
0.342404 0.40734 0.794002
0.342261 0.469704 0.79405
0.405292 0.282445 0.793931
0.405196 0.344788 0.793931
0.4053 0.407457 0.793972
0.40526 0.469873 0.793954
0.4675 0.282422 0.793895
0.467832 0.344803 0.793905
0.467587 0.40742 0.793997
0.467464 0.469561 0.79398
0.280422 0.282125 0.832712
0.280033 0.344753 0.832745
0.280025 0.407168 0.83283
0.279779 0.469777 0.832855
0.342616 0.282465 0.832797
0.342605 0.344705 0.832712
0.342615 0.407144 0.832706
0.342574 0.469837 0.832765
0.405217 0.282232 0.832772
0.405282 0.345069 0.832741
0.405238 0.407402 0.832755
0.405331 0.469908 0.832802
0.467617 0.282432 0.832786
0.46771 0.344798 0.832767
0.467855 0.407338 0.832802
0.467813 0.469705 0.832749
0.280202 0.282373 0.871677
0.280369 0.344574 0.871591
0.280339 0.407192 0.871604
0.280279 0.469717 0.871608
0.342869 0.282198 0.871603
0.342731 0.344946 0.871503
0.342824 0.407238 0.87147
0.342845 0.469759 0.871512
0.40522 0.282455 0.871596
0.405299 0.344788 0.871595
0.405543 0.407304 0.871538
0.405422 0.469647 0.871565
0.467756 0.282148 0.871609
0.467977 0.344878 0.871576
0.468219 0.407093 0.871579
0.46809 0.469791 0.871555
0.280417 0.281967 0.910486
0.280532 0.344824 0.910448
0.280551 0.407117 0.91042
0.280613 0.469856 0.910393
0.342812 0.282452 0.910395
0.34288 0.344608 0.910338
0.343144 0.407447 0.910348
0.342973 0.469506 0.910298
0.405368 0.282079 0.910387
0.405383 0.344815 0.910342
0.405448 0.407001 0.910352
0.405599 0.469848 0.910324
0.467768 0.282265 0.910437
0.468041 0.344277 0.910386
0.46842 0.407305 0.910308
0.468308 0.469366 0.910317
0.280538 0.282686 0.94921
0.280358 0.34403 0.949231
0.280936 0.407632 0.949215
0.28059 0.469428 0.949147
0.343146 0.281575 0.949189
0.34337 0.345071 0.949196
0.342984 0.40674 0.949191
0.343489 0.470058 0.949081
0.405218 0.282851 0.949197
0.405241 0.34416 0.949145
0.405953 0.407451 0.949118
0.405519 0.469288 0.949081
0.468104 0.281476 0.949226
0.468274 0.345172 0.949156
0.467944 0.406612 0.949095
0.468631 0.469846 0.949122
0.499476 0.282689 0.813294
0.404887 0.251051 0.930086
0.499563 0.344663 0.813457
0.342666 0.250967 0.969502
0.311919 0.282312 0.774578
0.311723 0.344925 0.774692
0.311739 0.406979 0.774529
0.311643 0.469728 0.774556
0.374493 0.28268 0.774587
0.374613 0.344969 0.774638
0.37443 0.407393 0.774677
0.37413 0.469973 0.774687
0.436762 0.282317 0.774476
0.436888 0.344947 0.774511
0.436941 0.407352 0.77446
0.436978 0.469964 0.774499
0.28029 0.250934 0.891096
0.250166 0.281436 0.969689
0.49914 0.282267 0.774343
0.312056 0.282384 0.813239
0.311849 0.344927 0.813246
0.311602 0.407337 0.813312
0.311556 0.469761 0.813541
0.374565 0.282728 0.813321
0.374665 0.344816 0.813345
0.374482 0.407368 0.813369
0.374473 0.469646 0.813378
0.437079 0.282071 0.813423
0.437201 0.345176 0.813333
0.437167 0.407466 0.813447
0.437117 0.46983 0.81341
0.499656 0.282352 0.852232
0.499351 0.407285 0.774576
0.342559 0.251045 0.929611
0.499765 0.407193 0.813476
0.311807 0.282283 0.85232
0.312063 0.344437 0.85205
0.312166 0.407427 0.85207
0.311964 0.469969 0.852113
0.374809 0.282631 0.852114
0.37466 0.344976 0.852178
0.374605 0.407441 0.852129
0.374682 0.47002 0.852093
0.437049 0.28239 0.852207
0.437122 0.344943 0.852222
0.437235 0.407281 0.852308
0.437322 0.469651 0.852257
0.467373 0.25094 0.89109
0.40484 0.251041 0.890937
0.499851 0.344743 0.890957
0.499659 0.344808 0.852074
0.31228 0.282241 0.891063
0.31221 0.344914 0.890982
0.3123 0.407193 0.890928
0.312361 0.469507 0.890928
0.374669 0.282439 0.891119
0.374671 0.344713 0.890988
0.374751 0.407147 0.890943
0.374854 0.469611 0.891056
0.437179 0.282331 0.89103
0.437373 0.344918 0.890994
0.437411 0.40691 0.890984
0.437439 0.469955 0.890955
0.4674 0.251022 0.929711
0.281309 0.250906 0.968047
0.499751 0.469586 0.813154
0.312418 0.282236 0.929881
0.312527 0.344626 0.929999
0.312693 0.407082 0.9298
0.312623 0.469774 0.929868
0.374786 0.282271 0.929757
0.374975 0.344868 0.929603
0.375018 0.407244 0.929926
0.375166 0.469644 0.929599
0.437024 0.282346 0.929964
0.437348 0.344629 0.929828
0.437583 0.407003 0.929474
0.437705 0.469722 0.929778
0.2501 0.344715 0.929885
0.499373 0.469748 0.774584
0.312609 0.282574 0.969203
0.312724 0.34439 0.969005
0.312705 0.40715 0.969941
0.312982 0.469749 0.969142
0.37501 0.281547 0.969539
0.375034 0.344745 0.96996
0.375377 0.407303 0.968879
0.375353 0.469341 0.969748
0.437521 0.282857 0.969129
0.437607 0.344309 0.969028
0.437637 0.406747 0.9698
0.438027 0.469778 0.969011
0.342648 0.251009 0.891244
0.406396 0.250971 0.9681
0.499202 0.344952 0.774395
0.280229 0.250897 0.93002
0.499922 0.407194 0.85216
0.499899 0.2815 0.969633
0.250389 0.406921 0.969059
0.499813 0.469651 0.852066
0.250344 0.469514 0.969869
0.49979 0.282193 0.929639
0.250083 0.407099 0.93002
0.250238 0.469364 0.929792
0.25016 0.344806 0.970045
0.249992 0.282176 0.929949
0.499644 0.282025 0.891072
0.499984 0.344579 0.929689
0.280334 0.500873 0.00763056
0.283878 0.563314 0.00603367
0.280426 0.625856 0.00762023
0.283667 0.688367 0.00613755
0.346445 0.500829 0.00594901
0.343028 0.563362 0.00755533
0.346279 0.625796 0.00606307
0.342902 0.688352 0.007624
0.4054 0.500879 0.0076263
0.408802 0.56328 0.00603846
0.405453 0.62581 0.00755684
0.408714 0.688306 0.00608949
0.471453 0.500724 0.00598319
0.467994 0.563324 0.00760524
0.471091 0.625752 0.00607479
0.467835 0.688359 0.00757247
0.284225 0.500866 0.0439338
0.280579 0.563373 0.0461766
0.284258 0.625852 0.0440222
0.280325 0.688434 0.0461411
0.34326 0.500896 0.0462086
0.346708 0.563326 0.0440922
0.342995 0.625868 0.0460261
0.346602 0.688337 0.0440236
0.408929 0.500816 0.0440641
0.405664 0.56336 0.0461485
0.409032 0.625808 0.0439408
0.405406 0.68839 0.0461222
0.468265 0.500852 0.0462815
0.471588 0.563331 0.0440175
0.468003 0.625856 0.0460788
0.471439 0.688318 0.0440233
0.281151 0.500984 0.0846697
0.283717 0.56341 0.0820955
0.280752 0.625996 0.0844541
0.28387 0.68849 0.0820245
0.346182 0.500984 0.0820485
0.343504 0.56352 0.0845004
0.346172 0.625995 0.0820395
0.342979 0.688492 0.0845095
0.406101 0.500947 0.0846466
0.408626 0.563427 0.0820342
0.405687 0.625962 0.0844689
0.408874 0.68843 0.0820396
0.471112 0.500898 0.0821101
0.468454 0.563468 0.0845496
0.471237 0.625907 0.0820721
0.468049 0.688439 0.0845642
0.283682 0.501083 0.120147
0.280799 0.563636 0.122785
0.283622 0.626087 0.120196
0.280471 0.688534 0.12285
0.343531 0.501123 0.122899
0.346158 0.563625 0.120162
0.343367 0.626077 0.122856
0.346104 0.688567 0.120135
0.408758 0.501051 0.120095
0.406006 0.563562 0.122896
0.408776 0.62603 0.120176
0.405722 0.688541 0.122835
0.468558 0.500996 0.12303
0.471102 0.563516 0.120164
0.468402 0.626026 0.122837
0.471112 0.688531 0.120155
0.28115 0.501114 0.161241
0.28364 0.56361 0.1583
0.280807 0.626084 0.161148
0.283616 0.688577 0.158303
0.346123 0.501125 0.158276
0.343385 0.563598 0.161141
0.346144 0.626072 0.158415
0.343228 0.688602 0.161092
0.405944 0.501039 0.161287
0.408723 0.563541 0.158259
0.405824 0.626078 0.161075
0.408571 0.688552 0.158284
0.471107 0.50103 0.158314
0.468414 0.563582 0.161201
0.471021 0.626058 0.15831
0.46819 0.68858 0.161112
0.283547 0.501138 0.196402
0.280782 0.563667 0.199441
0.283452 0.626074 0.196433
0.280503 0.688571 0.199368
0.343398 0.501167 0.199557
0.346003 0.563592 0.196546
0.343104 0.626131 0.199365
0.345954 0.688577 0.196455
0.408586 0.501082 0.196464
0.405703 0.563632 0.199408
0.408594 0.626084 0.196355
0.40555 0.688578 0.199377
0.468283 0.501107 0.199581
0.470994 0.563593 0.196431
0.468142 0.62614 0.199362
0.470885 0.688621 0.196374
0.281011 0.50121 0.237792
0.283196 0.56367 0.234673
0.280601 0.626096 0.237587
0.283206 0.688511 0.234596
0.345691 0.501164 0.234655
0.343337 0.563666 0.237599
0.345746 0.626097 0.23472
0.342993 0.688601 0.237581
0.40601 0.501208 0.237838
0.408198 0.563639 0.234669
0.405521 0.626118 0.237633
0.408418 0.688539 0.23465
0.47064 0.501125 0.234639
0.468207 0.563639 0.237716
0.470859 0.62613 0.234589
0.467956 0.688554 0.23766
0.283898 0.533937 0.0260455
0.280852 0.593301 0.0260212
0.283765 0.658869 0.026088
0.280367 0.718408 0.0261085
0.343494 0.530792 0.0260156
0.346454 0.596257 0.0260058
0.343244 0.65591 0.026034
0.346199 0.721494 0.0261105
0.409061 0.533858 0.0260579
0.405836 0.593244 0.0260058
0.408807 0.658805 0.0260388
0.405333 0.718258 0.0260868
0.468316 0.530684 0.026072
0.471449 0.596279 0.0260725
0.468136 0.655786 0.0260496
0.471265 0.721503 0.0261263
0.280491 0.530504 0.0643049
0.284181 0.596804 0.0642844
0.280242 0.65569 0.0642703
0.283879 0.722134 0.064309
0.346763 0.534414 0.0643139
0.342982 0.593164 0.0642659
0.34652 0.659405 0.0643013
0.342562 0.718084 0.0643141
0.405456 0.530422 0.0643354
0.409155 0.596816 0.0642619
0.405297 0.655646 0.064269
0.40907 0.722061 0.0643147
0.471734 0.534427 0.0643289
0.467817 0.593117 0.0642749
0.471492 0.659279 0.0643014
0.467461 0.718039 0.0643335
0.284444 0.534814 0.102549
0.280148 0.59316 0.102516
0.284122 0.659788 0.102504
0.279909 0.717924 0.102557
0.342725 0.530567 0.102523
0.346879 0.597298 0.102535
0.342517 0.655607 0.102542
0.346535 0.722402 0.102533
0.409426 0.534834 0.102543
0.405129 0.592955 0.102523
0.409212 0.659728 0.102506
0.404975 0.717907 0.102542
0.467611 0.530449 0.102587
0.471847 0.597208 0.102524
0.467604 0.65551 0.102525
0.47182 0.722367 0.102553
0.280051 0.530488 0.140738
0.284397 0.597512 0.14075
0.280067 0.655471 0.140763
0.284136 0.722383 0.140778
0.34693 0.535072 0.140737
0.342468 0.593038 0.14076
0.346688 0.659976 0.140753
0.342186 0.717912 0.140737
0.405148 0.530307 0.140767
0.409481 0.597463 0.14074
0.405049 0.655476 0.140724
0.409101 0.722485 0.140753
0.471869 0.53498 0.140794
0.467551 0.592884 0.14074
0.471766 0.659977 0.140725
0.467443 0.717769 0.140753
0.284242 0.535228 0.178935
0.279956 0.592929 0.178956
0.284108 0.660072 0.178952
0.279835 0.717716 0.178964
0.342583 0.530388 0.178963
0.346903 0.597454 0.178956
0.342416 0.655423 0.178946
0.34665 0.722567 0.178953
0.409285 0.535056 0.178946
0.404937 0.592878 0.178924
0.409145 0.66007 0.178931
0.404749 0.717772 0.178941
0.467352 0.530289 0.178994
0.471837 0.597627 0.178947
0.467304 0.655457 0.178928
0.471735 0.722645 0.178942
0.27997 0.530387 0.217174
0.284249 0.597772 0.217151
0.279791 0.655277 0.217132
0.28401 0.722591 0.217164
0.346743 0.53526 0.217184
0.34234 0.592921 0.217159
0.346499 0.660171 0.217149
0.342194 0.717773 0.217136
0.404934 0.530348 0.217189
0.409223 0.597791 0.217141
0.404803 0.65536 0.217145
0.408947 0.722583 0.217162
0.471606 0.535313 0.217205
0.467252 0.59283 0.217173
0.471728 0.660269 0.217158
0.467285 0.717709 0.217165
0.250534 0.721103 0.123098
0.250621 0.717752 0.00620086
0.313436 0.530169 0.00628421
0.313347 0.596189 0.0076654
0.313311 0.655256 0.00618996
0.313026 0.721331 0.00797176
0.375853 0.533808 0.00769656
0.375981 0.592774 0.0061578
0.375762 0.658604 0.00778168
0.375701 0.717601 0.00620512
0.43845 0.530177 0.00618441
0.43833 0.595986 0.00782276
0.438368 0.655283 0.00616028
0.438075 0.721313 0.00800108
0.251074 0.530046 0.0442561
0.250447 0.658345 0.237666
0.313503 0.533793 0.0462709
0.313474 0.592468 0.0441769
0.313362 0.658829 0.0463362
0.313188 0.717409 0.0441385
0.376104 0.530224 0.0441282
0.375907 0.596152 0.0462484
0.37588 0.654901 0.0442348
0.375598 0.721303 0.0464666
0.438468 0.533535 0.0463405
0.438491 0.59264 0.0441432
0.438301 0.658688 0.046353
0.438256 0.717479 0.0440998
0.250937 0.592938 0.0822157
0.250621 0.717533 0.0823008
0.250631 0.595896 0.19951
0.25058 0.593298 0.234967
0.313494 0.530588 0.0822104
0.313317 0.595847 0.0847053
0.313314 0.655393 0.0822301
0.313017 0.721349 0.0847142
0.375981 0.533322 0.0847942
0.375922 0.593098 0.0822298
0.375739 0.658501 0.0847479
0.375683 0.717547 0.0822413
0.438482 0.530516 0.0822679
0.438332 0.595912 0.0846835
0.438338 0.655263 0.0822356
0.438197 0.721126 0.0847999
0.250753 0.654917 0.0441983
0.25066 0.658642 0.00789601
0.250647 0.658626 0.0847149
0.31339 0.533452 0.123047
0.313348 0.593181 0.120329
0.313192 0.658499 0.123015
0.313052 0.718044 0.120386
0.375938 0.530728 0.120385
0.375884 0.59601 0.123134
0.375761 0.655522 0.120462
0.375602 0.721055 0.123064
0.438413 0.533331 0.123124
0.438423 0.593174 0.120345
0.438261 0.658455 0.122972
0.438163 0.718075 0.120434
0.250792 0.53337 0.161259
0.250622 0.658475 0.161232
0.250715 0.593154 0.158601
0.250621 0.533194 0.237794
0.313379 0.53073 0.158544
0.313293 0.59589 0.161347
0.313213 0.655571 0.158633
0.313122 0.721066 0.161297
0.375866 0.533474 0.161239
0.375812 0.59315 0.158547
0.375712 0.65855 0.161229
0.375572 0.718129 0.15856
0.438361 0.53061 0.158578
0.438289 0.595986 0.161269
0.438235 0.655594 0.15856
0.438094 0.720938 0.161316
0.250436 0.720903 0.199486
0.250792 0.592767 0.00622401
0.250835 0.530666 0.120361
0.313187 0.533401 0.199424
0.313211 0.593126 0.19677
0.313014 0.658589 0.199465
0.313024 0.718096 0.196802
0.375763 0.530683 0.196834
0.37564 0.595979 0.19951
0.375606 0.655618 0.196858
0.375539 0.720982 0.199509
0.43812 0.533439 0.199491
0.438115 0.593079 0.196762
0.438101 0.658452 0.199504
0.437978 0.718184 0.196803
0.250909 0.596221 0.0462193
0.250931 0.533383 0.0846897
0.313126 0.530984 0.23501
0.313029 0.595753 0.237703
0.312973 0.6557 0.234922
0.312901 0.72087 0.237756
0.375568 0.533275 0.237686
0.375576 0.593251 0.234923
0.375436 0.658399 0.237742
0.375404 0.718087 0.234985
0.438106 0.530983 0.235065
0.437959 0.595805 0.237741
0.438024 0.655625 0.234983
0.437934 0.72104 0.237724
0.250742 0.596061 0.123078
0.250513 0.721361 0.0463541
0.250798 0.533896 0.00775606
0.250376 0.718077 0.234963
0.250782 0.530811 0.196862
0.250657 0.655473 0.120483
0.250522 0.655634 0.196764
0.250465 0.718067 0.15866
0.283142 0.50115 0.272811
0.280745 0.563676 0.275921
0.283187 0.626138 0.272892
0.280438 0.688534 0.27578
0.343477 0.50119 0.276068
0.345613 0.563699 0.272864
0.343072 0.62614 0.275791
0.34553 0.688582 0.272794
0.408097 0.501164 0.272803
0.405723 0.563633 0.275931
0.408079 0.626082 0.272895
0.405429 0.688515 0.275853
0.468232 0.501134 0.276026
0.470594 0.563608 0.272819
0.467929 0.626069 0.275864
0.470587 0.688499 0.272839
0.281035 0.501138 0.314209
0.282769 0.563619 0.311086
0.28088 0.626131 0.314169
0.282902 0.68855 0.311032
0.345246 0.501078 0.310987
0.343339 0.563663 0.31416
0.345191 0.626134 0.311101
0.342932 0.688579 0.314038
0.405968 0.501102 0.314228
0.407684 0.563615 0.311132
0.405671 0.626091 0.314083
0.407866 0.688508 0.3111
0.470109 0.5011 0.311061
0.468263 0.56356 0.314108
0.470252 0.62602 0.311146
0.467872 0.688496 0.314161
0.282677 0.501146 0.349294
0.280876 0.563619 0.352371
0.282753 0.626103 0.349336
0.28057 0.688587 0.352302
0.343422 0.501067 0.35238
0.345212 0.563644 0.349371
0.343105 0.626174 0.352337
0.345182 0.688558 0.349383
0.407554 0.501104 0.349296
0.405658 0.56364 0.352377
0.407625 0.626075 0.349356
0.405413 0.688511 0.352295
0.468149 0.501032 0.352348
0.470109 0.563497 0.349349
0.467892 0.626012 0.352355
0.470339 0.688469 0.349301
0.280972 0.501128 0.390504
0.282244 0.563586 0.387661
0.280628 0.626114 0.390524
0.282508 0.688607 0.387606
0.344623 0.501111 0.387545
0.34316 0.56358 0.390438
0.344984 0.626146 0.387708
0.342785 0.688648 0.390475
0.406114 0.501075 0.390517
0.407345 0.563653 0.387654
0.405547 0.626112 0.390455
0.407534 0.688516 0.387626
0.469492 0.501041 0.3877
0.468274 0.563577 0.390555
0.470148 0.626061 0.387652
0.467776 0.688546 0.39039
0.281518 0.501158 0.425982
0.28097 0.563689 0.428664
0.282415 0.626229 0.425932
0.280397 0.688655 0.428594
0.343932 0.501147 0.428683
0.344498 0.56372 0.425916
0.342888 0.626151 0.428519
0.34479 0.688666 0.426043
0.406459 0.501113 0.425848
0.40563 0.563623 0.428539
0.407067 0.626117 0.426118
0.405237 0.688572 0.428564
0.468612 0.501046 0.42863
0.469468 0.563651 0.426032
0.467822 0.626113 0.428574
0.469498 0.688552 0.425988
0.281453 0.501061 0.466617
0.281704 0.56369 0.46439
0.280688 0.62621 0.466644
0.281616 0.688671 0.464516
0.343824 0.501092 0.464304
0.34337 0.56361 0.466603
0.344233 0.626203 0.464399
0.343017 0.688574 0.466525
0.406267 0.501013 0.466649
0.406561 0.563615 0.464515
0.405688 0.626075 0.466548
0.406687 0.688613 0.464541
0.468477 0.50114 0.46448
0.468384 0.563594 0.466627
0.469335 0.626086 0.464572
0.46806 0.688526 0.466638
0.250148 0.720636 0.352397
0.499988 0.71835 0.387862
0.250492 0.530897 0.273207
0.250217 0.532757 0.39059
0.284209 0.535352 0.255414
0.279671 0.592902 0.255377
0.284019 0.660077 0.25536
0.279588 0.717659 0.255344
0.34224 0.530432 0.255411
0.346567 0.597715 0.255381
0.342063 0.655359 0.25534
0.346504 0.722679 0.255365
0.409234 0.535391 0.255425
0.404661 0.592773 0.25538
0.409131 0.660089 0.255384
0.404547 0.717587 0.255354
0.467279 0.530152 0.255435
0.471596 0.597776 0.2554
0.467064 0.655198 0.255383
0.471431 0.722562 0.255387
0.279709 0.530256 0.29363
0.284287 0.597749 0.293617
0.279569 0.655211 0.293605
0.28395 0.722596 0.293565
0.346696 0.535393 0.293627
0.342075 0.59289 0.293603
0.34663 0.660169 0.29358
0.342006 0.717686 0.293587
0.404579 0.530272 0.293632
0.409036 0.597745 0.293642
0.40436 0.655205 0.293607
0.408867 0.722612 0.293593
0.471562 0.535342 0.293612
0.466984 0.592729 0.293605
0.47143 0.660121 0.293622
0.467092 0.717565 0.293606
0.284128 0.535388 0.331823
0.279438 0.592793 0.33183
0.284046 0.660303 0.331804
0.279413 0.717657 0.331799
0.341952 0.530307 0.331801
0.346598 0.597897 0.331846
0.341923 0.655459 0.331813
0.346448 0.722601 0.331839
0.408807 0.535323 0.331811
0.404335 0.592931 0.331834
0.408822 0.660115 0.33184
0.404465 0.717566 0.331855
0.467025 0.530193 0.331784
0.471344 0.5976 0.331845
0.466843 0.65517 0.331852
0.47128 0.722711 0.331848
0.279423 0.530368 0.37
0.284019 0.597738 0.370033
0.279291 0.655391 0.370018
0.283783 0.72259 0.370061
0.346399 0.535207 0.370008
0.34167 0.592935 0.370047
0.346415 0.660256 0.370067
0.341752 0.717779 0.37005
0.404403 0.530326 0.37
0.409005 0.597706 0.370042
0.40435 0.655366 0.370049
0.408531 0.722516 0.370106
0.471399 0.535013 0.370029
0.466717 0.592844 0.37005
0.471366 0.660083 0.370053
0.466653 0.717637 0.37003
0.283735 0.535071 0.408198
0.279195 0.59303 0.408256
0.283643 0.660065 0.408256
0.279232 0.717895 0.408293
0.341704 0.530436 0.408228
0.346114 0.597501 0.408209
0.341612 0.655675 0.408251
0.346025 0.722539 0.408334
0.408717 0.535134 0.408194
0.404245 0.593138 0.408243
0.408988 0.659851 0.408286
0.404132 0.717849 0.408313
0.466773 0.530393 0.408263
0.471266 0.597558 0.408263
0.466444 0.655474 0.408263
0.470937 0.722265 0.408287
0.279072 0.530715 0.446429
0.283338 0.597484 0.446452
0.278959 0.655791 0.446479
0.283259 0.72213 0.446574
0.346136 0.534926 0.446418
0.341741 0.593308 0.44644
0.346164 0.65957 0.446498
0.341702 0.71818 0.446542
0.404076 0.530672 0.446453
0.40837 0.597065 0.446504
0.403733 0.655854 0.446528
0.408264 0.721858 0.446569
0.470917 0.534749 0.446481
0.466881 0.593364 0.446543
0.471231 0.65955 0.446524
0.46656 0.718078 0.446519
0.28329 0.534331 0.484652
0.279556 0.593559 0.484698
0.283212 0.659329 0.484765
0.279197 0.718457 0.484825
0.341249 0.530883 0.484687
0.344952 0.596897 0.484733
0.341189 0.656051 0.484797
0.344836 0.721446 0.484828
0.407773 0.534244 0.484727
0.404182 0.593649 0.48477
0.407882 0.659208 0.484787
0.403965 0.718541 0.484842
0.466197 0.531048 0.484701
0.469748 0.596656 0.484753
0.465907 0.655978 0.484753
0.470151 0.7216 0.484822
0.312964 0.533266 0.276006
0.312966 0.593453 0.273148
0.3129 0.658375 0.276025
0.312843 0.718206 0.273196
0.375542 0.530993 0.273206
0.375442 0.595729 0.276022
0.37533 0.655852 0.273062
0.375298 0.720834 0.275946
0.437967 0.533302 0.275985
0.437921 0.593305 0.273259
0.43781 0.658326 0.276053
0.43779 0.718114 0.273233
0.250249 0.718212 0.311351
0.250093 0.658231 0.390662
0.312962 0.531041 0.311356
0.312919 0.595522 0.314243
0.312879 0.656084 0.311355
0.312724 0.72076 0.314171
0.375364 0.532804 0.314248
0.375337 0.593635 0.311372
0.375269 0.658061 0.314207
0.375277 0.718178 0.31137
0.437856 0.531127 0.311438
0.437769 0.595575 0.314232
0.437766 0.655865 0.311397
0.437678 0.72072 0.314147
0.312888 0.532885 0.352363
0.312849 0.593466 0.349501
0.312715 0.65811 0.352405
0.312662 0.718334 0.349562
0.375215 0.531144 0.34951
0.375216 0.595544 0.352526
0.375217 0.655968 0.349651
0.37513 0.720574 0.352495
0.437732 0.532961 0.35235
0.437714 0.59331 0.349551
0.437647 0.658111 0.352464
0.437596 0.718269 0.349677
0.312708 0.531384 0.387753
0.312579 0.595312 0.39066
0.312619 0.655965 0.387798
0.312559 0.720617 0.390739
0.375092 0.532689 0.390583
0.375108 0.593696 0.387772
0.375057 0.658111 0.390738
0.374956 0.718366 0.388002
0.437701 0.531484 0.387709
0.437675 0.595329 0.390596
0.437623 0.655908 0.387754
0.437443 0.720677 0.39068
0.499899 0.595462 0.428803
0.312503 0.53252 0.428743
0.312522 0.593822 0.426
0.312471 0.658092 0.42889
0.312384 0.718757 0.426179
0.375105 0.531737 0.425957
0.37499 0.595365 0.42873
0.37493 0.656181 0.42585
0.374957 0.720629 0.428906
0.43736 0.532523 0.428699
0.437491 0.593893 0.426051
0.437353 0.657908 0.429075
0.437359 0.718798 0.426178
0.499822 0.65763 0.467133
0.499972 0.658144 0.39084
0.250325 0.6558 0.273182
0.250458 0.593646 0.311312
0.312492 0.53197 0.464109
0.31246 0.595204 0.466762
0.312308 0.656684 0.464195
0.312269 0.720225 0.466974
0.37484 0.532315 0.467006
0.374776 0.594048 0.464608
0.374804 0.657858 0.467268
0.374687 0.719236 0.464631
0.437281 0.532127 0.464245
0.437334 0.595035 0.466869
0.43726 0.65653 0.464228
0.437289 0.720272 0.466992
0.250326 0.656097 0.349503
0.499947 0.594198 0.464618
0.499829 0.656263 0.425877
0.499859 0.532127 0.467085
0.499768 0.718932 0.46448
0.499872 0.720316 0.428873
0.25013 0.53188 0.425866
0.250482 0.595832 0.275958
0.250342 0.595505 0.352523
0.250432 0.532958 0.314242
0.250417 0.531168 0.349538
0.250332 0.658074 0.31419
0.250231 0.720788 0.275863
0.250062 0.718538 0.387881
0.250235 0.593726 0.387672
0.250017 0.595299 0.428808
0.27763 0.501065 0.542574
0.281845 0.563674 0.541666
0.277546 0.626109 0.542673
0.28159 0.688695 0.541734
0.344984 0.501165 0.541583
0.339933 0.563647 0.542712
0.34457 0.626122 0.541709
0.339874 0.688544 0.542848
0.403008 0.501117 0.542631
0.407363 0.563726 0.541631
0.402917 0.626152 0.542747
0.407286 0.688603 0.541786
0.46974 0.501001 0.541603
0.465474 0.563455 0.542662
0.469893 0.626149 0.541815
0.465541 0.688594 0.542701
0.279219 0.501101 0.58041
0.278755 0.563584 0.580736
0.279282 0.626182 0.580554
0.279069 0.688551 0.580946
0.341739 0.501051 0.580684
0.342079 0.563529 0.580409
0.341839 0.625974 0.580954
0.342321 0.688568 0.580479
0.404707 0.501047 0.580274
0.404257 0.563476 0.580821
0.404679 0.626056 0.580424
0.404372 0.688476 0.580919
0.466855 0.500901 0.580792
0.467153 0.563544 0.580298
0.466521 0.62602 0.580734
0.467021 0.688655 0.580593
0.278902 0.500944 0.619382
0.279124 0.563496 0.619353
0.279226 0.625979 0.619566
0.278985 0.688512 0.619564
0.341889 0.500935 0.619315
0.341609 0.563409 0.619471
0.341696 0.625979 0.61939
0.341516 0.688495 0.619688
0.403983 0.500864 0.619431
0.404015 0.563423 0.619401
0.404118 0.62595 0.619488
0.404057 0.688481 0.619415
0.466624 0.500844 0.619268
0.466441 0.563425 0.619486
0.466354 0.625966 0.619432
0.466533 0.688459 0.619566
0.27916 0.500865 0.658128
0.279299 0.563378 0.658119
0.279053 0.625925 0.658303
0.279473 0.688461 0.658388
0.341868 0.50088 0.658205
0.341634 0.563408 0.658213
0.341688 0.625923 0.658336
0.341704 0.688443 0.658396
0.40425 0.500949 0.658175
0.4044 0.563393 0.658232
0.404034 0.625913 0.658319
0.404313 0.688362 0.658374
0.466888 0.500893 0.658074
0.466566 0.563406 0.658141
0.466892 0.62591 0.658292
0.466684 0.688393 0.658362
0.279255 0.500888 0.697009
0.279158 0.563412 0.69701
0.279456 0.625888 0.697162
0.279362 0.68842 0.697129
0.341903 0.50096 0.697036
0.341845 0.563388 0.696989
0.341836 0.625851 0.697189
0.341912 0.688399 0.69725
0.404353 0.500972 0.697021
0.404458 0.563418 0.697113
0.404578 0.625876 0.697106
0.404481 0.688299 0.697153
0.467049 0.50091 0.696817
0.46676 0.563349 0.696926
0.46691 0.625806 0.69708
0.467075 0.688334 0.697019
0.279583 0.500943 0.735676
0.279319 0.563398 0.735893
0.279328 0.625852 0.7358
0.279437 0.688379 0.735947
0.341943 0.501014 0.735774
0.342041 0.563407 0.735842
0.341866 0.62585 0.735796
0.341811 0.688352 0.735876
0.40441 0.501041 0.735821
0.404686 0.563525 0.735784
0.40451 0.625948 0.735864
0.404572 0.688429 0.735933
0.467374 0.500846 0.735639
0.466906 0.563337 0.735711
0.467597 0.62587 0.735751
0.466898 0.688512 0.735846
0.279002 0.531552 0.522955
0.281924 0.59607 0.522996
0.278923 0.656343 0.523062
0.281677 0.721231 0.523084
0.344812 0.533671 0.522997
0.34189 0.593747 0.52306
0.344849 0.658717 0.523131
0.341778 0.718717 0.523161
0.403993 0.531436 0.523049
0.40673 0.596241 0.523057
0.403864 0.65642 0.52312
0.406958 0.72091 0.523123
0.469687 0.53337 0.522963
0.467026 0.593977 0.523059
0.470075 0.658489 0.523038
0.466651 0.718919 0.523127
0.281624 0.532773 0.561327
0.279552 0.594551 0.561439
0.281397 0.657963 0.561472
0.279557 0.719317 0.561547
0.341592 0.531929 0.561368
0.343439 0.595401 0.561464
0.341817 0.656696 0.561537
0.343537 0.720494 0.56152
0.40653 0.53306 0.561338
0.404624 0.594382 0.561431
0.406426 0.657813 0.561463
0.404782 0.719214 0.561539
0.466812 0.531537 0.561364
0.468536 0.59538 0.561374
0.466681 0.657003 0.561486
0.468646 0.720353 0.561488
0.278798 0.532144 0.600029
0.279303 0.594933 0.600115
0.278967 0.657261 0.600206
0.279595 0.719922 0.600243
0.342191 0.532383 0.600014
0.341563 0.59454 0.600099
0.342041 0.65755 0.600148
0.341654 0.719489 0.600191
0.403968 0.532087 0.60002
0.404484 0.594891 0.600091
0.404042 0.657086 0.600132
0.404539 0.719981 0.600193
0.466997 0.532467 0.599993
0.466333 0.5945 0.600025
0.466944 0.657305 0.60013
0.466459 0.719725 0.600232
0.279439 0.532168 0.638791
0.279366 0.594773 0.638868
0.279654 0.657225 0.63897
0.279552 0.719759 0.639048
0.341701 0.532114 0.638841
0.341996 0.594726 0.638859
0.341775 0.657183 0.638958
0.341969 0.719816 0.639032
0.404704 0.532309 0.638863
0.404236 0.594717 0.638924
0.404545 0.657204 0.63898
0.404325 0.719504 0.639014
0.466726 0.532177 0.638801
0.466855 0.594785 0.638884
0.466831 0.657164 0.638964
0.466963 0.719617 0.638988
0.279512 0.532071 0.677586
0.279534 0.594665 0.677649
0.279487 0.657146 0.677774
0.279771 0.719776 0.677807
0.342012 0.532127 0.677646
0.341992 0.594773 0.677677
0.342077 0.65718 0.677818
0.342013 0.719664 0.677864
0.404468 0.532203 0.677632
0.404397 0.594647 0.677696
0.404447 0.657098 0.677767
0.40445 0.719595 0.677781
0.46709 0.532238 0.677553
0.466972 0.594659 0.677659
0.467093 0.657124 0.677711
0.467067 0.719601 0.677739
0.279364 0.532291 0.716414
0.27938 0.594583 0.716466
0.279637 0.657178 0.716543
0.279818 0.719491 0.716602
0.341992 0.532235 0.716429
0.342144 0.594535 0.71648
0.341875 0.657203 0.71657
0.341959 0.719592 0.716631
0.40458 0.532269 0.7164
0.404708 0.594755 0.716452
0.404628 0.657036 0.716524
0.404624 0.719589 0.716545
0.467334 0.532112 0.716283
0.467308 0.59453 0.71637
0.467156 0.657216 0.716447
0.46717 0.719625 0.716463
0.436889 0.534108 0.505099
0.27882 0.563597 0.504513
0.499033 0.534406 0.542976
0.312044 0.592528 0.503047
0.374474 0.596699 0.504835
0.311297 0.529986 0.5412
0.311332 0.597248 0.542865
0.311166 0.655013 0.541453
0.311209 0.722141 0.542987
0.37392 0.534707 0.543115
0.373801 0.592569 0.54177
0.373837 0.659664 0.54324
0.373764 0.717497 0.541723
0.436469 0.530098 0.541348
0.436517 0.597265 0.542855
0.436433 0.655119 0.541257
0.436613 0.722112 0.542961
0.312036 0.659382 0.50526
0.498566 0.532161 0.579222
0.498636 0.594966 0.580081
0.499441 0.655376 0.502623
0.311188 0.5325 0.580343
0.311001 0.594636 0.579515
0.311248 0.657548 0.580344
0.311129 0.719534 0.579673
0.373658 0.531973 0.579152
0.373825 0.594827 0.580108
0.37371 0.657165 0.57933
0.373877 0.720057 0.580215
0.436383 0.532314 0.580219
0.436063 0.594615 0.579407
0.436349 0.657592 0.580386
0.436275 0.719487 0.57957
0.498808 0.594494 0.65827
0.499043 0.656844 0.697159
0.499204 0.719599 0.735819
0.499057 0.594689 0.696953
0.311195 0.532126 0.619148
0.311368 0.594579 0.619497
0.311318 0.657275 0.619328
0.31128 0.719832 0.619635
0.37382 0.532116 0.619617
0.37372 0.594851 0.619261
0.373753 0.657183 0.619589
0.37377 0.719808 0.619448
0.436157 0.532033 0.619188
0.436172 0.594719 0.619533
0.436164 0.657234 0.619416
0.436307 0.719796 0.619786
0.498436 0.594731 0.619396
0.436903 0.592673 0.503118
0.436901 0.717485 0.502999
0.499147 0.532348 0.735695
0.311405 0.532023 0.658239
0.31136 0.594702 0.658151
0.311404 0.657081 0.658409
0.311436 0.719728 0.6584
0.373844 0.532262 0.658077
0.373813 0.594469 0.658333
0.373741 0.657387 0.658245
0.373837 0.719451 0.658411
0.436496 0.5319 0.658267
0.43633 0.594726 0.658207
0.436408 0.657028 0.658317
0.436456 0.719723 0.658428
0.311734 0.717297 0.503104
0.498555 0.532251 0.619534
0.345528 0.688602 0.50303
0.498685 0.720409 0.580297
0.31126 0.532296 0.69699
0.311355 0.594411 0.697166
0.311363 0.657218 0.697221
0.311447 0.719365 0.697211
0.373979 0.532227 0.697088
0.373959 0.594695 0.697111
0.373927 0.656903 0.697268
0.373975 0.719584 0.697244
0.436495 0.531953 0.696959
0.436518 0.594562 0.697085
0.436556 0.657074 0.697076
0.436546 0.719588 0.697133
0.408002 0.626146 0.50299
0.499199 0.657517 0.735704
0.470006 0.563616 0.502982
0.47014 0.688555 0.503035
0.311521 0.532368 0.735846
0.311495 0.59451 0.735813
0.311457 0.65695 0.736018
0.311602 0.719614 0.736098
0.374043 0.532329 0.73588
0.37404 0.59471 0.735951
0.374012 0.657154 0.735858
0.374053 0.719718 0.735974
0.436594 0.532052 0.735636
0.436666 0.594986 0.735796
0.436616 0.657147 0.735872
0.436582 0.719926 0.735828
0.374465 0.530221 0.502803
0.498436 0.657031 0.579393
0.498909 0.53226 0.658013
0.498898 0.717492 0.541626
0.498896 0.657264 0.658213
0.403729 0.688567 0.504656
0.374394 0.654964 0.502774
0.282979 0.626144 0.502941
0.283007 0.501098 0.502864
0.278511 0.688577 0.504705
0.498615 0.657094 0.61965
0.498882 0.592578 0.541676
0.498937 0.719467 0.658307
0.498751 0.719709 0.619426
0.498961 0.659638 0.543258
0.374391 0.722139 0.50508
0.403824 0.563598 0.504623
0.341389 0.501007 0.504549
0.43694 0.659179 0.50532
0.34142 0.626089 0.50471
0.407591 0.501068 0.502926
0.46658 0.500957 0.504458
0.466502 0.626061 0.504592
0.312077 0.534121 0.505155
0.345271 0.563559 0.50284
0.499294 0.594176 0.735684
0.499085 0.532289 0.696923
0.49906 0.71991 0.697079
0.499493 0.721725 0.505115
0.499389 0.53056 0.502626
0.499578 0.59643 0.504754
0.279166 0.500914 0.774578
0.278995 0.563399 0.774584
0.279043 0.625936 0.774595
0.279104 0.688483 0.774653
0.341915 0.50107 0.774677
0.341952 0.563459 0.774661
0.342009 0.62589 0.774533
0.342009 0.688309 0.774646
0.404681 0.501043 0.774516
0.404635 0.563443 0.77462
0.404548 0.625812 0.774639
0.404756 0.688242 0.774649
0.467181 0.500909 0.774515
0.46726 0.563411 0.774536
0.467263 0.625867 0.774508
0.467035 0.688418 0.774548
0.279333 0.501007 0.813338
0.279117 0.563443 0.813349
0.27934 0.625955 0.813338
0.27924 0.688462 0.813402
0.342453 0.501091 0.813305
0.34246 0.563523 0.813375
0.342073 0.625895 0.813433
0.342227 0.688261 0.81344
0.404951 0.500973 0.813398
0.405068 0.56347 0.81342
0.404931 0.625933 0.813404
0.404647 0.688322 0.813415
0.467688 0.50087 0.813386
0.467401 0.563387 0.8134
0.467506 0.625957 0.8133
0.467081 0.688464 0.81341
0.279404 0.501021 0.852242
0.279248 0.56347 0.852187
0.279671 0.625964 0.852189
0.279847 0.688464 0.852261
0.342102 0.501107 0.852079
0.342263 0.563451 0.852154
0.342403 0.62587 0.852101
0.342359 0.688267 0.852244
0.405151 0.501011 0.852273
0.405241 0.563461 0.852058
0.405319 0.625899 0.852141
0.405196 0.688294 0.852161
0.467628 0.500886 0.852117
0.467834 0.563446 0.852128
0.467595 0.625913 0.852174
0.467711 0.688385 0.852283
0.280323 0.501037 0.891029
0.280171 0.563455 0.891002
0.280424 0.625851 0.890939
0.279906 0.688317 0.891195
0.342955 0.50097 0.890983
0.342847 0.563467 0.89088
0.342573 0.625865 0.8909
0.342444 0.688264 0.890896
0.405219 0.500999 0.890819
0.405612 0.563476 0.890995
0.405665 0.625924 0.890792
0.40539 0.688337 0.891087
0.468354 0.500884 0.890964
0.468258 0.563407 0.890797
0.468168 0.625992 0.891015
0.467853 0.688513 0.890952
0.280761 0.501022 0.929844
0.280078 0.563433 0.929643
0.280471 0.625842 0.929872
0.280331 0.688297 0.929684
0.34303 0.500993 0.929437
0.343148 0.563476 0.929787
0.342794 0.625867 0.929468
0.342859 0.688299 0.92993
0.405645 0.500909 0.929762
0.405747 0.56338 0.929503
0.405589 0.62584 0.92984
0.405605 0.688247 0.929712
0.468301 0.500831 0.929639
0.467896 0.563353 0.929851
0.468109 0.625829 0.92957
0.467841 0.688333 0.929849
0.280859 0.500847 0.968135
0.281527 0.563317 0.969018
0.281181 0.625776 0.968259
0.281311 0.688341 0.9691
0.343784 0.500854 0.968888
0.343624 0.563271 0.968112
0.343858 0.625831 0.968936
0.343558 0.688254 0.968175
0.406055 0.500814 0.968059
0.406436 0.563296 0.968841
0.406189 0.625727 0.968059
0.406178 0.688329 0.968975
0.469039 0.50076 0.968959
0.4686 0.563287 0.968151
0.469135 0.625844 0.968873
0.46846 0.688278 0.968217
0.281231 0.531207 0.98774
0.282875 0.595712 0.987775
0.280942 0.6562 0.987806
0.282949 0.720826 0.987876
0.345455 0.533182 0.987686
0.343872 0.593648 0.987695
0.345576 0.658203 0.98776
0.343265 0.718683 0.987828
0.406204 0.53125 0.987693
0.408041 0.595643 0.987719
0.406125 0.656027 0.987738
0.407874 0.720834 0.987874
0.470546 0.533142 0.987748
0.468639 0.593723 0.987738
0.47054 0.658211 0.98777
0.46823 0.718711 0.987821
0.279384 0.532008 0.755212
0.279653 0.594689 0.755242
0.279476 0.657141 0.755279
0.279609 0.719848 0.755324
0.342076 0.53219 0.755266
0.342012 0.594731 0.75526
0.342165 0.657151 0.7553
0.342136 0.719453 0.755349
0.404792 0.5323 0.755212
0.404788 0.594652 0.755234
0.404605 0.657077 0.755279
0.404692 0.719639 0.75534
0.467273 0.532146 0.755078
0.467493 0.594588 0.75512
0.467336 0.657178 0.755136
0.467194 0.719849 0.75522
0.27951 0.532224 0.793987
0.279441 0.594556 0.793995
0.279657 0.657223 0.79402
0.279629 0.719712 0.794097
0.342328 0.532226 0.794047
0.342292 0.594879 0.794024
0.342111 0.656974 0.794042
0.342173 0.71959 0.794072
0.405126 0.532106 0.793959
0.404983 0.594638 0.793994
0.404922 0.656996 0.79402
0.404743 0.719545 0.794062
0.467446 0.532205 0.793946
0.467333 0.594644 0.79393
0.467391 0.657269 0.79395
0.467176 0.719629 0.79406
0.2795 0.53224 0.832824
0.279813 0.594679 0.832753
0.280068 0.657234 0.832802
0.279952 0.71975 0.832907
0.342534 0.532297 0.832706
0.342484 0.594765 0.832745
0.34241 0.657194 0.832828
0.342372 0.719499 0.832868
0.405362 0.532139 0.832796
0.405138 0.594806 0.832771
0.405011 0.657104 0.832792
0.405052 0.719493 0.832836
0.467714 0.532154 0.832737
0.467627 0.59465 0.832751
0.467453 0.657107 0.832818
0.467376 0.719555 0.832873
0.28023 0.532311 0.871645
0.280116 0.594698 0.871602
0.280258 0.65719 0.871644
0.280212 0.719655 0.871735
0.342899 0.532124 0.871505
0.342798 0.594734 0.871514
0.342858 0.65704 0.87154
0.342833 0.71957 0.871613
0.405474 0.532361 0.871545
0.405361 0.594586 0.871512
0.405473 0.657222 0.871572
0.405295 0.719439 0.871661
0.468012 0.532105 0.871541
0.468019 0.594655 0.871546
0.467779 0.657163 0.871595
0.46786 0.719859 0.871683
0.28046 0.53227 0.910366
0.280588 0.594732 0.910328
0.280421 0.656958 0.910387
0.280597 0.719764 0.910455
0.343281 0.532354 0.910289
0.343025 0.59466 0.910297
0.343044 0.65732 0.910318
0.343033 0.719316 0.910416
0.405712 0.532098 0.910285
0.406003 0.594739 0.910281
0.405548 0.65698 0.91034
0.405722 0.719661 0.910458
0.468508 0.532407 0.9103
0.468205 0.594562 0.910286
0.468463 0.657294 0.91037
0.46789 0.719533 0.910438
0.281069 0.532474 0.949135
0.280697 0.594267 0.949169
0.281128 0.657444 0.949229
0.280427 0.719195 0.949252
0.343168 0.531777 0.94902
0.343608 0.594981 0.94904
0.343012 0.656793 0.949085
0.343593 0.720008 0.9492
0.406113 0.532412 0.949029
0.405635 0.594278 0.949046
0.406178 0.657423 0.949085
0.40533 0.719223 0.949199
0.468158 0.531803 0.949104
0.468819 0.594857 0.949102
0.468153 0.656752 0.949129
0.468664 0.719843 0.949228
0.311489 0.532214 0.774653
0.311398 0.59475 0.77477
0.311391 0.657193 0.77463
0.31145 0.719792 0.774721
0.374083 0.532205 0.774666
0.374034 0.594589 0.774642
0.374147 0.657128 0.774776
0.374178 0.719464 0.774749
0.436912 0.53205 0.774516
0.436828 0.594735 0.774431
0.436775 0.656703 0.774431
0.436644 0.7197 0.774743
0.250525 0.532092 0.969026
0.499151 0.657273 0.774496
0.311533 0.532306 0.813319
0.311585 0.594441 0.813238
0.311614 0.657432 0.81331
0.311558 0.719511 0.813431
0.374551 0.532457 0.813353
0.374395 0.594752 0.813371
0.374303 0.657108 0.813437
0.374161 0.719533 0.813456
0.437043 0.531879 0.813373
0.437065 0.594739 0.81339
0.437001 0.657102 0.813506
0.436828 0.719799 0.813462
0.499379 0.594751 0.813355
0.499862 0.719761 0.891141
0.499333 0.594573 0.774462
0.311774 0.532251 0.852038
0.311692 0.594589 0.852009
0.311813 0.656964 0.852242
0.311827 0.719898 0.852272
0.374564 0.532369 0.852147
0.3745 0.594456 0.852016
0.374619 0.656913 0.852233
0.374604 0.719438 0.852209
0.437353 0.532128 0.852096
0.437305 0.594757 0.8522
0.437224 0.657041 0.852254
0.437135 0.719541 0.852287
0.49927 0.53215 0.774394
0.498923 0.719707 0.774561
0.250303 0.594446 0.969936
0.499536 0.532158 0.813248
0.312448 0.532323 0.890991
0.312428 0.594292 0.890982
0.312356 0.657135 0.891008
0.312233 0.719446 0.890941
0.374909 0.532466 0.890903
0.374839 0.594891 0.89103
0.374753 0.656999 0.890922
0.374684 0.719466 0.89107
0.437564 0.53187 0.89105
0.437667 0.594659 0.89088
0.43757 0.657058 0.89104
0.437381 0.719836 0.89101
0.499171 0.71967 0.813383
0.250001 0.532211 0.930003
0.312635 0.53236 0.929642
0.312544 0.594585 0.929856
0.312518 0.657194 0.929657
0.312407 0.719559 0.930011
0.375286 0.532135 0.929789
0.375239 0.594781 0.929521
0.375084 0.656939 0.929679
0.375198 0.71946 0.929586
0.437897 0.531839 0.92955
0.4378 0.594675 0.929848
0.437837 0.656892 0.929623
0.437553 0.719818 0.930078
0.499489 0.719652 0.852131
0.250396 0.657115 0.969045
0.312955 0.531902 0.969799
0.313163 0.59455 0.969065
0.312853 0.65696 0.969904
0.31291 0.719692 0.969041
0.37557 0.532158 0.96889
0.375424 0.594273 0.969736
0.375573 0.657143 0.968925
0.37519 0.719266 0.970059
0.437983 0.531786 0.969776
0.438108 0.594742 0.968919
0.437804 0.656793 0.96987
0.43782 0.719857 0.96899
0.499231 0.657217 0.813424
0.250118 0.719302 0.970073
0.499659 0.594748 0.852066
0.49956 0.657093 0.8521
0.49968 0.532223 0.852075
0.250149 0.719516 0.929853
0.279989 0.751006 0.00776161
0.283581 0.813506 0.00601669
0.279387 0.876003 0.00800894
0.284117 0.938595 0.00596755
0.34629 0.75086 0.00602533
0.342155 0.813493 0.00781698
0.346114 0.876021 0.00598625
0.341813 0.938529 0.00822428
0.405011 0.750946 0.00772938
0.40856 0.813457 0.00595352
0.404366 0.876071 0.00803956
0.408895 0.938687 0.00600248
0.471207 0.75091 0.00606404
0.467141 0.813554 0.00790734
0.471022 0.876169 0.0060447
0.46667 0.938681 0.00827906
0.284033 0.750985 0.043982
0.279469 0.813536 0.0464064
0.284235 0.876007 0.0438881
0.280229 0.93846 0.0472018
0.342532 0.751009 0.0462488
0.346442 0.813434 0.0438957
0.341969 0.875981 0.0466725
0.347384 0.93863 0.0437865
0.408942 0.750875 0.0439316
0.404601 0.813482 0.0464671
0.409097 0.876017 0.0439277
0.405295 0.938552 0.0470985
0.467766 0.750919 0.0462615
0.471346 0.81349 0.0438617
0.466991 0.876136 0.0467642
0.472445 0.938768 0.0438173
0.279989 0.751007 0.0846102
0.283797 0.813426 0.0819214
0.280789 0.876029 0.0853985
0.28549 0.938534 0.0822168
0.346452 0.751011 0.081956
0.3423 0.813492 0.0849257
0.347309 0.876048 0.0818619
0.34417 0.938526 0.0855539
0.405342 0.750937 0.0846921
0.408665 0.81346 0.0818476
0.405817 0.876099 0.0853503
0.410589 0.938639 0.082194
0.471354 0.751002 0.082007
0.46727 0.813502 0.0848165
0.472263 0.876151 0.0817971
0.469233 0.938649 0.0855905
0.283408 0.750993 0.120118
0.280143 0.813389 0.12328
0.283911 0.875969 0.12011
0.28228 0.938504 0.123736
0.343105 0.751049 0.122962
0.34541 0.813481 0.119981
0.344001 0.876052 0.123668
0.347477 0.938517 0.120395
0.40845 0.751044 0.120118
0.405295 0.813491 0.123255
0.409026 0.875986 0.120031
0.407392 0.938558 0.123756
0.468247 0.751083 0.12303
0.470594 0.813501 0.119989
0.469029 0.876086 0.123569
0.472647 0.938608 0.120353
0.280481 0.751018 0.161285
0.282811 0.813403 0.158198
0.281778 0.875995 0.161915
0.284862 0.938522 0.158598
0.345929 0.751069 0.158222
0.342793 0.813472 0.161449
0.3463 0.875996 0.158209
0.345319 0.938548 0.161931
0.405627 0.751058 0.161228
0.408028 0.813494 0.158139
0.406978 0.876069 0.161877
0.410007 0.938577 0.158497
0.470977 0.751044 0.15817
0.467862 0.813519 0.161403
0.471408 0.876039 0.158192
0.470224 0.938571 0.161953
0.283299 0.750985 0.19636
0.280316 0.813411 0.199697
0.283785 0.875949 0.196306
0.282918 0.938464 0.200047
0.343021 0.751013 0.199481
0.345417 0.813403 0.196401
0.344434 0.875997 0.200148
0.347516 0.938525 0.196605
0.408368 0.751047 0.196304
0.405357 0.81343 0.199607
0.408912 0.875941 0.19626
0.407903 0.938454 0.200041
0.468054 0.751057 0.199447
0.47044 0.813412 0.196321
0.469444 0.876019 0.200094
0.472455 0.938541 0.196644
0.280503 0.750978 0.237725
0.282899 0.81335 0.234406
0.281862 0.875947 0.2382
0.284976 0.938367 0.234792
0.345858 0.751011 0.234588
0.342676 0.813401 0.237829
0.346363 0.875893 0.234426
0.345402 0.938437 0.238251
0.405537 0.75097 0.237687
0.408032 0.813348 0.234414
0.406825 0.87587 0.238308
0.409925 0.938409 0.234777
0.470956 0.750971 0.234519
0.467677 0.813397 0.237829
0.471496 0.875896 0.234484
0.470326 0.938455 0.238292
0.28323 0.784346 0.0261752
0.282585 0.842995 0.0262634
0.279921 0.909418 0.0262242
0.284623 0.967367 0.0263886
0.343026 0.780775 0.0261542
0.343333 0.846653 0.0262297
0.346172 0.905215 0.0262859
0.343326 0.97259 0.026277
0.408453 0.784287 0.0261674
0.407539 0.842978 0.0262539
0.404914 0.909574 0.0262888
0.409621 0.967618 0.0264105
0.467886 0.780722 0.0261786
0.468179 0.846846 0.0262301
0.471131 0.905331 0.0263056
0.468168 0.972752 0.0262505
0.280083 0.780624 0.0643728
0.280342 0.847293 0.0644941
0.28505 0.90471 0.0645568
0.281466 0.972605 0.0645885
0.346202 0.784834 0.0644217
0.345717 0.842435 0.0645156
0.343042 0.910287 0.0645218
0.348131 0.967488 0.0645971
0.405061 0.780427 0.0644117
0.405261 0.84721 0.0644811
0.409931 0.904774 0.0645807
0.406463 0.97281 0.0646107
0.471256 0.784779 0.0643903
0.470582 0.842603 0.0644871
0.468063 0.910553 0.0644996
0.473323 0.967477 0.0646074
0.283923 0.784928 0.102621
0.283573 0.842051 0.102763
0.281124 0.910381 0.102839
0.285801 0.967612 0.102851
0.342336 0.780225 0.102612
0.342176 0.847643 0.102697
0.34897 0.904643 0.102819
0.344108 0.972812 0.102813
0.409035 0.785143 0.102614
0.408701 0.842085 0.102727
0.406376 0.910494 0.102831
0.41097 0.967604 0.102813
0.467489 0.780273 0.102609
0.467308 0.847648 0.10265
0.473951 0.904691 0.102757
0.469289 0.973036 0.102814
0.279851 0.780008 0.14084
0.279163 0.847563 0.140957
0.286787 0.904615 0.141033
0.281491 0.972758 0.141045
0.346558 0.785224 0.140825
0.346317 0.842049 0.140925
0.34368 0.910516 0.141009
0.348512 0.967559 0.140981
0.404895 0.780141 0.140815
0.404248 0.847703 0.140913
0.411983 0.904609 0.140958
0.406736 0.972912 0.140989
0.471562 0.785247 0.140784
0.471617 0.842089 0.140863
0.468876 0.910475 0.14097
0.473463 0.967594 0.140995
0.284098 0.785154 0.179034
0.284019 0.84188 0.179106
0.281224 0.910425 0.179185
0.286052 0.967573 0.179213
0.342343 0.780037 0.179021
0.341635 0.847561 0.179117
0.349535 0.904557 0.179141
0.34401 0.972935 0.179182
0.409183 0.785233 0.179004
0.409149 0.841851 0.179054
0.406368 0.910424 0.17913
0.411094 0.967504 0.179182
0.467424 0.779989 0.178978
0.466758 0.84762 0.179103
0.474493 0.904633 0.179155
0.46928 0.972917 0.179195
0.279706 0.779801 0.217202
0.279134 0.847575 0.217271
0.287049 0.904537 0.217309
0.281489 0.972743 0.21741
0.346576 0.78516 0.217206
0.346745 0.841792 0.217277
0.343897 0.910463 0.217315
0.348722 0.967379 0.217349
0.404779 0.779834 0.217201
0.404183 0.847555 0.217276
0.412015 0.904404 0.217313
0.406642 0.972784 0.217375
0.47163 0.785197 0.217207
0.471582 0.841805 0.217249
0.468914 0.91045 0.21735
0.473629 0.967344 0.217375
0.250445 0.780495 0.120605
0.312951 0.780039 0.00643702
0.312754 0.846795 0.00674915
0.312595 0.90491 0.00805438
0.312762 0.972237 0.00619434
0.375356 0.784052 0.00780253
0.375249 0.842491 0.00764976
0.375148 0.909609 0.00633735
0.375218 0.967419 0.00823963
0.437989 0.780159 0.00639127
0.437701 0.846883 0.00671776
0.437511 0.90514 0.00829698
0.437647 0.972229 0.00610237
0.250039 0.843207 0.161553
0.250364 0.783408 0.237723
0.252367 0.971848 0.0441673
0.312901 0.784247 0.0462807
0.31273 0.842256 0.046168
0.31285 0.90946 0.0440525
0.314979 0.967504 0.0466516
0.375606 0.779785 0.0444021
0.375311 0.846878 0.0447399
0.375272 0.904716 0.0466471
0.37743 0.971898 0.0442127
0.437888 0.784028 0.0464293
0.437775 0.842429 0.0461597
0.437833 0.909544 0.0441704
0.440011 0.967573 0.0467059
0.250326 0.783427 0.161269
0.250264 0.842504 0.0847308
0.252586 0.90903 0.0821365
0.252686 0.967576 0.0848641
0.313025 0.779935 0.0824
0.312866 0.846582 0.0826135
0.315195 0.905172 0.0851889
0.315138 0.971299 0.0823335
0.375509 0.783929 0.0847931
0.375291 0.842576 0.0847914
0.377562 0.909117 0.0822882
0.377731 0.967723 0.0848691
0.43807 0.780063 0.0823956
0.437891 0.84664 0.0826428
0.440224 0.905224 0.0850378
0.440239 0.97139 0.0822838
0.25015 0.842495 0.00766026
0.2527 0.905735 0.123613
0.252573 0.970714 0.120518
0.312975 0.783497 0.123111
0.31258 0.843284 0.123228
0.315257 0.908365 0.120171
0.315126 0.968062 0.123203
0.375502 0.780628 0.120552
0.375242 0.845791 0.12056
0.377829 0.905761 0.123543
0.377703 0.970835 0.120428
0.438036 0.783517 0.123048
0.437716 0.84319 0.123215
0.440349 0.908395 0.120231
0.440248 0.96807 0.123093
0.250438 0.78411 0.084651
0.252879 0.90809 0.15836
0.252697 0.968381 0.16149
0.313017 0.780546 0.15877
0.312695 0.845736 0.158626
0.315423 0.906116 0.161833
0.315279 0.970493 0.158571
0.375543 0.783462 0.161335
0.375218 0.843376 0.161541
0.378015 0.908189 0.158282
0.377829 0.968413 0.16135
0.43805 0.780695 0.158668
0.437892 0.845707 0.158564
0.440483 0.906068 0.161736
0.440349 0.970585 0.158677
0.250074 0.90968 0.0062869
0.252938 0.906071 0.199988
0.252815 0.970403 0.196807
0.312969 0.783308 0.199579
0.312709 0.84342 0.199799
0.315568 0.908055 0.196442
0.31534 0.96835 0.199603
0.375481 0.780641 0.196866
0.37534 0.845699 0.196666
0.378053 0.90603 0.199896
0.37791 0.970397 0.196803
0.438005 0.78341 0.199547
0.437742 0.843447 0.199754
0.440574 0.90811 0.196483
0.440414 0.968436 0.199607
0.250195 0.845809 0.120545
0.252986 0.907962 0.234637
0.252835 0.968129 0.237874
0.312933 0.780536 0.235097
0.312801 0.845693 0.234893
0.315506 0.905988 0.23816
0.315351 0.970313 0.23494
0.375427 0.783366 0.23767
0.375206 0.843275 0.238006
0.378039 0.908053 0.234619
0.377938 0.968313 0.237881
0.437972 0.780424 0.235137
0.437858 0.84572 0.234846
0.440491 0.905863 0.238089
0.440343 0.970424 0.234962
0.250426 0.780665 0.196898
0.250256 0.904614 0.0466049
0.25013 0.967344 0.00816632
0.250232 0.847014 0.0447986
0.250483 0.779841 0.044359
0.250207 0.845641 0.196734
0.250224 0.784053 0.00791877
0.250123 0.843201 0.237914
0.499966 0.909789 0.0061871
0.283092 0.75095 0.272737
0.280191 0.813363 0.275999
0.283763 0.875807 0.27264
0.28289 0.938343 0.276404
0.342987 0.750992 0.275935
0.345389 0.813266 0.272657
0.344217 0.87585 0.276383
0.347505 0.938366 0.272934
0.408164 0.750921 0.272751
0.405152 0.813328 0.276142
0.408728 0.875776 0.27262
0.407791 0.938352 0.276435
0.467878 0.7509 0.27587
0.470422 0.813319 0.272681
0.469126 0.875825 0.276404
0.472339 0.938378 0.272951
0.280348 0.750977 0.314149
0.282591 0.813299 0.310895
0.281903 0.875779 0.314626
0.284471 0.938272 0.311064
0.345546 0.750929 0.311062
0.342672 0.813325 0.314256
0.346005 0.875729 0.310776
0.345457 0.938265 0.314524
0.405235 0.750896 0.314255
0.407761 0.81321 0.310887
0.406797 0.875786 0.314658
0.409494 0.938303 0.311064
0.47053 0.750872 0.310943
0.46751 0.813237 0.314262
0.470978 0.875703 0.31085
0.470267 0.938256 0.314655
0.282778 0.75095 0.349316
0.280224 0.81335 0.352379
0.283265 0.875729 0.348983
0.283121 0.938237 0.352697
0.342908 0.750968 0.352345
0.344835 0.813298 0.34908
0.344301 0.87577 0.352855
0.346701 0.938253 0.3492
0.407695 0.750893 0.349282
0.405223 0.813264 0.352521
0.4083 0.875697 0.349098
0.407811 0.938224 0.352675
0.467729 0.750926 0.35243
0.469681 0.813189 0.349107
0.469008 0.875695 0.352879
0.471493 0.938222 0.349172
0.280407 0.751011 0.390555
0.281913 0.813381 0.38747
0.282335 0.875852 0.390987
0.283021 0.938277 0.387161
0.344874 0.751 0.387526
0.342975 0.813418 0.390718
0.34488 0.875772 0.387174
0.3462 0.938283 0.390829
0.405283 0.750982 0.390638
0.406827 0.813255 0.387527
0.407345 0.875836 0.391001
0.408036 0.938245 0.387327
0.469986 0.750855 0.387518
0.467996 0.813283 0.390746
0.469583 0.875681 0.387179
0.471264 0.938198 0.39091
0.2821 0.75107 0.425971
0.2806 0.813589 0.428725
0.280646 0.875873 0.425483
0.283653 0.93842 0.429168
0.342962 0.751072 0.42872
0.343783 0.813418 0.425903
0.34463 0.876024 0.429041
0.343211 0.938378 0.42545
0.406925 0.751026 0.426119
0.405866 0.813536 0.428793
0.405393 0.875792 0.425628
0.40907 0.93839 0.429082
0.468125 0.751049 0.428694
0.46854 0.813402 0.426044
0.469632 0.875905 0.429016
0.468113 0.938299 0.425456
0.280672 0.751202 0.466719
0.281011 0.813617 0.464281
0.281534 0.876134 0.466834
0.279623 0.938476 0.46394
0.344 0.751094 0.464508
0.343262 0.813579 0.466918
0.342921 0.87598 0.464262
0.345036 0.938524 0.467081
0.405803 0.751045 0.466665
0.405981 0.81349 0.464454
0.406779 0.875992 0.466985
0.404661 0.938348 0.464159
0.46924 0.750994 0.464433
0.468403 0.813518 0.466826
0.46797 0.875949 0.464404
0.47009 0.938454 0.46701
0.250361 0.780484 0.273199
0.499871 0.781627 0.426193
0.499681 0.906147 0.464281
0.284033 0.785204 0.255367
0.284061 0.841792 0.255395
0.281244 0.910318 0.255513
0.286249 0.96728 0.255549
0.342307 0.779842 0.255405
0.341551 0.847502 0.255464
0.349521 0.904452 0.255478
0.34411 0.972824 0.255502
0.408902 0.785188 0.255414
0.409171 0.841669 0.255417
0.406288 0.910306 0.255492
0.41129 0.967343 0.255551
0.467266 0.779825 0.255381
0.466619 0.847492 0.255468
0.474403 0.904457 0.255511
0.468921 0.972877 0.255541
0.279624 0.779821 0.293583
0.278936 0.847489 0.293668
0.286993 0.904366 0.293662
0.281555 0.972773 0.293697
0.346485 0.785111 0.293622
0.346526 0.841622 0.293589
0.343708 0.910262 0.293648
0.348744 0.967353 0.293692
0.404708 0.779589 0.293632
0.403966 0.847626 0.293669
0.411902 0.904355 0.29367
0.406475 0.972723 0.293707
0.471375 0.784997 0.293622
0.471614 0.841607 0.293627
0.46858 0.91021 0.293696
0.473531 0.967281 0.293746
0.283852 0.785082 0.331804
0.284183 0.841661 0.331788
0.280985 0.910191 0.331819
0.28611 0.967195 0.33185
0.341995 0.779807 0.33183
0.341351 0.847514 0.331851
0.349315 0.904267 0.331832
0.343803 0.972623 0.331862
0.408875 0.785034 0.331906
0.409118 0.841554 0.33185
0.405933 0.910183 0.331852
0.41095 0.967257 0.33189
0.466967 0.779641 0.331859
0.466196 0.847419 0.331881
0.474204 0.904147 0.331866
0.468707 0.972616 0.331927
0.279444 0.779975 0.370042
0.278808 0.847442 0.370051
0.286699 0.904242 0.369985
0.281098 0.972698 0.370012
0.346219 0.785058 0.370086
0.346523 0.841661 0.37005
0.343213 0.910258 0.369998
0.348614 0.967268 0.370053
0.404321 0.779826 0.37011
0.403827 0.847415 0.370142
0.411341 0.904421 0.370033
0.406191 0.972522 0.370044
0.471281 0.785021 0.370109
0.471431 0.841484 0.370069
0.468299 0.910309 0.370002
0.473552 0.967074 0.370047
0.283706 0.784889 0.408332
0.283761 0.841836 0.408211
0.279778 0.910357 0.408201
0.285822 0.966887 0.408189
0.341577 0.780009 0.408327
0.341575 0.84739 0.40837
0.347669 0.904335 0.408185
0.34361 0.972844 0.408209
0.408664 0.784847 0.408368
0.408734 0.841844 0.408274
0.404896 0.910254 0.408262
0.410968 0.967227 0.408224
0.466767 0.780008 0.408332
0.466478 0.847187 0.408349
0.472486 0.904079 0.4082
0.468299 0.972764 0.408221
0.278937 0.780485 0.446585
0.279021 0.847011 0.446492
0.283599 0.904465 0.44639
0.280214 0.9727 0.446413
0.345997 0.784637 0.446606
0.345675 0.842424 0.446516
0.341274 0.909717 0.446523
0.347049 0.966951 0.44643
0.404072 0.780472 0.446592
0.404079 0.846893 0.446587
0.408674 0.904427 0.446447
0.405063 0.972379 0.446462
0.470867 0.784594 0.446617
0.470648 0.842489 0.446545
0.46642 0.90956 0.44654
0.471923 0.966853 0.446411
0.28265 0.784443 0.484827
0.2825 0.842812 0.484772
0.278313 0.909117 0.484684
0.282329 0.967409 0.484629
0.341268 0.780744 0.484872
0.341323 0.846492 0.484858
0.345139 0.904954 0.484725
0.341375 0.971467 0.484754
0.407594 0.784011 0.484876
0.407318 0.842839 0.484811
0.403719 0.908872 0.484781
0.40765 0.967275 0.484729
0.466338 0.780754 0.484853
0.466605 0.84638 0.48486
0.470042 0.905045 0.484761
0.46621 0.971538 0.484738
0.252917 0.905888 0.276317
0.252828 0.970177 0.273118
0.312797 0.78331 0.27588
0.312521 0.843211 0.276164
0.315457 0.908003 0.272794
0.315453 0.968233 0.276005
0.375491 0.780487 0.273293
0.375228 0.845517 0.273034
0.37792 0.905833 0.276317
0.377892 0.970382 0.27306
0.437844 0.783344 0.275877
0.437553 0.843096 0.276223
0.440404 0.907976 0.272854
0.440253 0.96823 0.276039
0.499902 0.843127 0.314473
0.252837 0.9076 0.310884
0.252787 0.968537 0.314191
0.312807 0.780659 0.31148
0.312723 0.84534 0.311142
0.315383 0.906028 0.314534
0.315292 0.969967 0.311228
0.375248 0.783295 0.314181
0.374989 0.843277 0.314392
0.377781 0.907567 0.310935
0.377688 0.968393 0.31419
0.437725 0.780339 0.311591
0.437635 0.845423 0.311201
0.440284 0.906055 0.314511
0.440138 0.970041 0.311332
0.499815 0.844212 0.390796
0.252724 0.906234 0.352765
0.252602 0.969648 0.349419
0.312664 0.783044 0.352339
0.312493 0.843469 0.352663
0.315176 0.907476 0.349115
0.315166 0.968693 0.352443
0.375114 0.780763 0.349798
0.375062 0.845199 0.349473
0.377541 0.906043 0.352678
0.37748 0.969686 0.349386
0.437614 0.783052 0.352447
0.437389 0.843299 0.352677
0.440008 0.90748 0.349194
0.439983 0.968723 0.352428
0.252454 0.906731 0.387287
0.252436 0.969574 0.39062
0.3125 0.781183 0.387911
0.31259 0.844907 0.387728
0.314762 0.907038 0.390768
0.31497 0.968792 0.387586
0.374967 0.782959 0.390687
0.374856 0.844093 0.390869
0.377313 0.906672 0.387459
0.377516 0.969517 0.390688
0.437487 0.78094 0.387983
0.437511 0.844683 0.387774
0.439713 0.90707 0.390757
0.439966 0.968604 0.387579
0.252199 0.967637 0.425903
0.31234 0.78274 0.42903
0.312224 0.845016 0.42887
0.312479 0.905986 0.425867
0.314787 0.971418 0.428686
0.374824 0.781495 0.426186
0.374896 0.844407 0.426109
0.374858 0.908242 0.429035
0.377288 0.967538 0.425812
0.437417 0.782609 0.428956
0.437219 0.845157 0.42886
0.437513 0.905596 0.425883
0.439682 0.971513 0.428798
0.499872 0.844329 0.426178
0.312203 0.781916 0.464402
0.312222 0.844712 0.464485
0.311945 0.908449 0.467051
0.312343 0.967795 0.464427
0.374754 0.782466 0.467135
0.37454 0.844958 0.467011
0.374607 0.906333 0.464206
0.374679 0.97149 0.466987
0.437216 0.781835 0.464562
0.437304 0.84455 0.464617
0.437102 0.9083 0.467048
0.437261 0.967868 0.464313
0.499865 0.782246 0.467169
0.499499 0.971493 0.467007
0.499808 0.908186 0.428935
0.499645 0.845126 0.466889
0.499842 0.845147 0.34952
0.25023 0.845542 0.273069
0.250239 0.783187 0.314143
0.250199 0.780652 0.349727
0.250193 0.782906 0.390576
0.250048 0.845224 0.349372
0.27802 0.81358 0.504798
0.436965 0.842456 0.504881
0.403677 0.938391 0.504793
0.277327 0.751132 0.54281
0.281694 0.813532 0.541672
0.278242 0.875987 0.54289
0.282449 0.938413 0.54164
0.344565 0.750977 0.541637
0.340614 0.81341 0.543028
0.344736 0.875885 0.541559
0.34048 0.938423 0.542825
0.403005 0.750941 0.542831
0.407088 0.813433 0.541731
0.402901 0.875924 0.542878
0.407302 0.938293 0.541436
0.469865 0.751101 0.541755
0.465575 0.81346 0.54294
0.469894 0.875906 0.541503
0.465401 0.938363 0.54281
0.279289 0.813524 0.581037
0.280014 0.876 0.580398
0.279293 0.938505 0.580935
0.49902 0.842407 0.542974
0.342444 0.813506 0.580464
0.341629 0.876007 0.580931
0.342612 0.938337 0.58023
0.404158 0.813423 0.581001
0.404999 0.875895 0.580382
0.404371 0.938435 0.580882
0.467387 0.813525 0.58048
0.466597 0.875933 0.580957
0.467072 0.93827 0.580304
0.279232 0.813478 0.619438
0.279262 0.87602 0.619627
0.279281 0.938519 0.61939
0.341641 0.813513 0.619687
0.341977 0.875972 0.619483
0.341549 0.938446 0.619534
0.404296 0.813468 0.619441
0.404087 0.876012 0.619558
0.40446 0.938388 0.619328
0.466823 0.813505 0.619625
0.46696 0.875913 0.619392
0.466951 0.938349 0.619553
0.279594 0.813525 0.658424
0.27975 0.876041 0.65828
0.279547 0.938531 0.658254
0.340716 0.750999 0.504731
0.341993 0.813486 0.658389
0.342 0.875958 0.658376
0.342164 0.938416 0.658275
0.404548 0.813398 0.658299
0.404606 0.875961 0.658301
0.404479 0.938407 0.658259
0.466916 0.81348 0.658268
0.466868 0.875932 0.658301
0.467082 0.938403 0.658206
0.279353 0.813489 0.697116
0.279699 0.876001 0.697165
0.279796 0.938452 0.697079
0.498939 0.967313 0.543018
0.342008 0.813463 0.697192
0.342046 0.875893 0.69711
0.342427 0.938421 0.697064
0.499448 0.779958 0.502963
0.40437 0.813332 0.697127
0.404724 0.875902 0.697054
0.404611 0.938484 0.697104
0.498851 0.906963 0.580251
0.466974 0.813439 0.697189
0.466928 0.875956 0.697135
0.46687 0.938585 0.697027
0.27967 0.750981 0.735854
0.279436 0.813535 0.735935
0.279734 0.876061 0.735972
0.279933 0.938525 0.736032
0.341869 0.750911 0.736028
0.341862 0.813436 0.735947
0.342017 0.875874 0.736087
0.342277 0.938347 0.735925
0.404156 0.750881 0.735932
0.404483 0.813304 0.735952
0.404484 0.875789 0.736007
0.404583 0.938323 0.735914
0.467152 0.750962 0.735787
0.46695 0.813347 0.735885
0.466858 0.875816 0.735822
0.466948 0.938441 0.73585
0.27899 0.781203 0.523144
0.279241 0.846094 0.523121
0.282066 0.905847 0.523023
0.279249 0.970758 0.522991
0.344493 0.783687 0.523145
0.344198 0.84331 0.523122
0.341664 0.908429 0.523061
0.344539 0.96809 0.522997
0.404114 0.781109 0.52318
0.404566 0.84599 0.523132
0.407036 0.905662 0.523047
0.404048 0.970969 0.523024
0.469762 0.783674 0.523163
0.46934 0.843237 0.52312
0.46649 0.908449 0.523065
0.469805 0.967986 0.522977
0.281365 0.782989 0.56156
0.281212 0.84409 0.561518
0.279688 0.907911 0.56145
0.281369 0.968945 0.561403
0.342028 0.781447 0.561572
0.342377 0.845486 0.561542
0.343799 0.906326 0.561419
0.342149 0.970437 0.561363
0.406274 0.782828 0.561517
0.406128 0.843999 0.561492
0.4046 0.907939 0.561485
0.406581 0.968772 0.561358
0.467124 0.781571 0.561559
0.467214 0.845511 0.561543
0.468692 0.906344 0.561404
0.466965 0.97031 0.5614
0.27923 0.781999 0.600258
0.279283 0.844934 0.600213
0.279787 0.906933 0.600147
0.27922 0.969947 0.600104
0.342048 0.782488 0.600214
0.342101 0.844583 0.600198
0.341636 0.907429 0.600116
0.3422 0.969246 0.600006
0.404155 0.781953 0.600211
0.404146 0.844894 0.600178
0.40456 0.906956 0.600112
0.404293 0.969915 0.600022
0.46693 0.782475 0.600211
0.467221 0.844414 0.600184
0.466727 0.90734 0.600101
0.467269 0.96932 0.600065
0.279709 0.782325 0.639035
0.279798 0.844668 0.63899
0.279607 0.907526 0.638925
0.279693 0.969837 0.638861
0.341953 0.78224 0.639038
0.342057 0.844827 0.639038
0.342253 0.907223 0.638969
0.342188 0.969708 0.638847
0.404602 0.782235 0.639006
0.404697 0.844726 0.638951
0.404616 0.907288 0.638884
0.404903 0.96956 0.638797
0.46698 0.78216 0.638982
0.467154 0.844879 0.638951
0.467378 0.907084 0.638859
0.467176 0.969735 0.638823
0.279739 0.782221 0.677832
0.279799 0.844796 0.677805
0.279812 0.907237 0.677762
0.279865 0.969683 0.677673
0.342068 0.782209 0.677845
0.342198 0.844552 0.677793
0.342275 0.907106 0.677742
0.342338 0.969682 0.677648
0.404732 0.782045 0.677761
0.40475 0.844673 0.677739
0.404803 0.907239 0.677697
0.404609 0.969573 0.677588
0.467288 0.782247 0.677743
0.467396 0.844694 0.677764
0.46727 0.907202 0.677677
0.467239 0.969965 0.677576
0.279632 0.782222 0.716591
0.279778 0.844739 0.71658
0.280141 0.907334 0.716571
0.280228 0.969758 0.716516
0.342234 0.782131 0.716565
0.342227 0.844916 0.7166
0.342322 0.907073 0.716558
0.342456 0.969665 0.716503
0.404716 0.781953 0.71656
0.404793 0.844583 0.716555
0.404777 0.90705 0.716535
0.404818 0.969756 0.716458
0.467149 0.782209 0.716525
0.467024 0.844676 0.716525
0.467052 0.907253 0.71648
0.466968 0.96983 0.716422
0.499144 0.78225 0.697218
0.311787 0.784817 0.505193
0.374375 0.971914 0.502865
0.466519 0.751045 0.580965
0.311898 0.96721 0.504898
0.374449 0.90486 0.50503
0.436968 0.967491 0.505138
0.499029 0.844621 0.697255
0.341877 0.750968 0.658447
0.34195 0.750882 0.697164
0.499008 0.844579 0.735819
0.31122 0.780093 0.541616
0.311433 0.846659 0.541759
0.311618 0.904921 0.543005
0.311436 0.972204 0.541521
0.373977 0.784172 0.543105
0.373996 0.8425 0.542803
0.373971 0.909314 0.541558
0.374122 0.96734 0.543046
0.436423 0.779961 0.541591
0.43642 0.846974 0.541754
0.436486 0.904732 0.543094
0.436441 0.971704 0.541362
0.498758 0.907114 0.735895
0.311484 0.78266 0.580405
0.311407 0.844339 0.580222
0.311264 0.907718 0.579425
0.311439 0.969251 0.580151
0.373747 0.781846 0.579542
0.373833 0.845135 0.579657
0.373952 0.906734 0.580195
0.37382 0.969865 0.579295
0.436426 0.782747 0.580275
0.436308 0.844135 0.580274
0.43621 0.907398 0.579458
0.436477 0.969459 0.580252
0.499053 0.782124 0.658141
0.499002 0.969899 0.696985
0.311377 0.782099 0.619496
0.311416 0.84483 0.619541
0.311542 0.907035 0.619636
0.311483 0.969865 0.619282
0.373811 0.782297 0.619642
0.373901 0.84453 0.61966
0.373844 0.907458 0.619391
0.374016 0.969314 0.61953
0.436305 0.782251 0.619578
0.436325 0.84477 0.619436
0.436506 0.906944 0.619584
0.436543 0.969608 0.619213
0.436844 0.909448 0.50288
0.499168 0.782098 0.73588
0.311566 0.782278 0.658384
0.311644 0.844836 0.658381
0.311713 0.907352 0.658261
0.311728 0.969677 0.658226
0.373984 0.782242 0.658425
0.374141 0.844642 0.658371
0.374226 0.907071 0.658351
0.374204 0.969721 0.658107
0.436612 0.782212 0.658416
0.436616 0.844769 0.658386
0.436627 0.907202 0.658077
0.436668 0.969477 0.658146
0.499155 0.784545 0.543162
0.311544 0.78219 0.697257
0.311653 0.844565 0.697146
0.311933 0.907384 0.697107
0.311955 0.969652 0.697003
0.374115 0.782155 0.697153
0.374152 0.844672 0.697197
0.374219 0.906975 0.697194
0.374269 0.969776 0.697092
0.436534 0.782223 0.697099
0.436594 0.844633 0.697098
0.436612 0.907409 0.697071
0.436614 0.969803 0.696886
0.408064 0.751061 0.503003
0.498867 0.907235 0.697172
0.311684 0.782204 0.735906
0.311677 0.844655 0.736036
0.311908 0.907101 0.73599
0.312108 0.969561 0.735988
0.374091 0.782287 0.735977
0.374158 0.844547 0.735987
0.374201 0.906981 0.735904
0.374397 0.969552 0.735902
0.436566 0.781911 0.735868
0.436623 0.844538 0.735856
0.436645 0.906985 0.735872
0.436685 0.969677 0.735834
0.283149 0.751179 0.502978
0.470413 0.938363 0.502572
0.498874 0.909547 0.541474
0.374279 0.779725 0.503064
0.466215 0.751028 0.50473
0.470386 0.81346 0.502878
0.404977 0.751026 0.580532
0.34562 0.938309 0.502741
0.345554 0.813495 0.502833
0.278372 0.938407 0.504661
0.436879 0.784546 0.505161
0.341659 0.750951 0.581048
0.466121 0.875963 0.504817
0.403308 0.813493 0.504793
0.283026 0.875989 0.502726
0.340934 0.875945 0.504812
0.279837 0.751121 0.580574
0.498774 0.9696 0.735812
0.498663 0.781867 0.579572
0.49878 0.845108 0.57962
0.499076 0.907083 0.619256
0.498844 0.782203 0.619649
0.499087 0.844771 0.658195
0.499067 0.844876 0.619678
0.374304 0.847152 0.503181
0.311791 0.842229 0.504972
0.407983 0.875892 0.502813
0.499111 0.969666 0.619492
0.466839 0.750877 0.658315
0.311681 0.909567 0.502762
0.467106 0.750959 0.697121
0.279434 0.750967 0.697225
0.498757 0.969657 0.579368
0.404289 0.750833 0.658279
0.404555 0.750793 0.697111
0.466621 0.75099 0.619523
0.279349 0.751074 0.658369
0.279019 0.751024 0.619722
0.341788 0.750985 0.619494
0.404107 0.75097 0.619666
0.499065 0.907052 0.65825
0.499052 0.969941 0.658164
0.499419 0.846885 0.503078
0.499388 0.905131 0.505124
0.49927 0.971874 0.502767
0.279033 0.751041 0.774715
0.279317 0.813583 0.774733
0.279386 0.876051 0.774774
0.27949 0.938432 0.774755
0.342065 0.750842 0.774742
0.342098 0.813392 0.774846
0.342401 0.875906 0.774849
0.342144 0.938498 0.774713
0.404542 0.750838 0.774699
0.404364 0.813361 0.77481
0.404669 0.87582 0.774865
0.404624 0.938373 0.774747
0.466678 0.751013 0.774675
0.466846 0.813428 0.774622
0.466528 0.875804 0.774682
0.46677 0.938365 0.774716
0.279255 0.750982 0.813479
0.27914 0.813508 0.813555
0.279486 0.875956 0.813541
0.279404 0.938406 0.813509
0.341985 0.750793 0.813475
0.34217 0.813353 0.813591
0.342353 0.875849 0.813504
0.342465 0.938364 0.813524
0.404442 0.750751 0.813459
0.40493 0.813255 0.813664
0.404582 0.875776 0.813612
0.404715 0.938358 0.813655
0.467067 0.750934 0.813544
0.467027 0.813419 0.813514
0.467198 0.875846 0.813642
0.466771 0.938311 0.813579
0.279184 0.750953 0.85238
0.280429 0.813424 0.852319
0.28016 0.875857 0.852457
0.280344 0.938334 0.852389
0.342592 0.750698 0.852213
0.342532 0.813253 0.852314
0.342623 0.875928 0.852288
0.342839 0.938554 0.852323
0.404993 0.750709 0.852307
0.404983 0.81324 0.852263
0.404811 0.875916 0.852486
0.405125 0.938528 0.852373
0.467483 0.750915 0.852244
0.467038 0.813445 0.852472
0.467092 0.875892 0.85242
0.467066 0.938473 0.852454
0.280514 0.813465 0.89133
0.280187 0.876049 0.891156
0.280132 0.938621 0.8912
0.342644 0.813351 0.891025
0.342664 0.875982 0.89124
0.342686 0.93857 0.891113
0.405122 0.813321 0.891205
0.405124 0.875965 0.891098
0.40485 0.938495 0.891185
0.467442 0.813414 0.891108
0.46757 0.875947 0.891289
0.467301 0.9385 0.891126
0.280311 0.813426 0.92978
0.279902 0.876013 0.930081
0.280037 0.938643 0.929958
0.342698 0.813348 0.930074
0.342843 0.87603 0.92985
0.342656 0.938664 0.93022
0.405344 0.81336 0.929845
0.404928 0.876008 0.930124
0.404979 0.938561 0.93
0.467591 0.813471 0.930046
0.467511 0.875972 0.929813
0.467255 0.938522 0.930252
0.281086 0.813493 0.969198
0.28026 0.876072 0.968273
0.280909 0.938582 0.969375
0.342877 0.813364 0.968192
0.34366 0.87593 0.969206
0.342887 0.938667 0.968318
0.4061 0.813429 0.96918
0.40527 0.876076 0.968341
0.405747 0.938587 0.969448
0.467761 0.813463 0.968276
0.468291 0.876006 0.969244
0.467564 0.938673 0.96827
0.280791 0.781282 0.987897
0.280973 0.846001 0.987956
0.282366 0.905977 0.988033
0.280199 0.971449 0.988035
0.344962 0.783489 0.987911
0.344477 0.84357 0.987937
0.342825 0.908533 0.987979
0.34515 0.9684 0.988088
0.405796 0.781087 0.98786
0.405891 0.846097 0.987956
0.407479 0.906049 0.98806
0.40487 0.971464 0.988092
0.469981 0.783494 0.987905
0.46945 0.843662 0.987969
0.467449 0.908617 0.987964
0.470116 0.968243 0.988047
0.279763 0.782289 0.755325
0.279676 0.844944 0.755381
0.279912 0.907249 0.755384
0.280031 0.969727 0.75535
0.342258 0.782174 0.755396
0.342401 0.844509 0.755428
0.342302 0.907118 0.755409
0.342612 0.969812 0.755363
0.404658 0.782247 0.755358
0.404769 0.844527 0.75537
0.404683 0.907114 0.755348
0.404835 0.969651 0.75531
0.4671 0.782084 0.75526
0.466967 0.84459 0.755286
0.466899 0.907184 0.755312
0.46678 0.969763 0.755261
0.279637 0.782333 0.794143
0.279602 0.844775 0.794148
0.279878 0.907234 0.794174
0.280035 0.969724 0.794188
0.342224 0.782146 0.794189
0.342361 0.844597 0.794193
0.342405 0.907185 0.794176
0.342413 0.96973 0.794168
0.404863 0.782177 0.794171
0.404989 0.844559 0.79426
0.404923 0.907163 0.794215
0.404859 0.969594 0.794189
0.467312 0.782265 0.794106
0.467237 0.844638 0.794121
0.466978 0.907081 0.794173
0.466734 0.96959 0.794113
0.279792 0.782063 0.832975
0.279863 0.844776 0.832988
0.280379 0.907078 0.832979
0.280437 0.969443 0.832944
0.342504 0.782072 0.832922
0.342589 0.844646 0.832947
0.342566 0.907214 0.832959
0.342661 0.969792 0.832977
0.405083 0.781825 0.832919
0.405014 0.844683 0.832987
0.40495 0.906956 0.833011
0.404985 0.969935 0.833021
0.467462 0.782308 0.832936
0.467503 0.844592 0.832982
0.467139 0.907156 0.833018
0.467055 0.96963 0.83296
0.28027 0.782366 0.871779
0.280235 0.84465 0.871783
0.280398 0.907301 0.871752
0.280445 0.969699 0.871763
0.3427 0.781936 0.871696
0.342704 0.84469 0.871761
0.342676 0.907237 0.871776
0.342712 0.969887 0.871805
0.405262 0.782066 0.871722
0.405166 0.844515 0.871802
0.404889 0.907244 0.871813
0.40512 0.969837 0.871797
0.467509 0.782081 0.87181
0.46751 0.844727 0.871835
0.467579 0.907139 0.871797
0.467428 0.969968 0.871825
0.280516 0.781898 0.910512
0.280353 0.844938 0.910547
0.280281 0.907202 0.910564
0.280198 0.970119 0.910596
0.342979 0.782194 0.910491
0.342936 0.844493 0.91055
0.342716 0.907626 0.910562
0.342925 0.969723 0.910599
0.405257 0.781961 0.910515
0.405344 0.844781 0.910571
0.405354 0.907265 0.910588
0.40504 0.969869 0.910639
0.467992 0.782436 0.910544
0.46782 0.844536 0.910567
0.467543 0.907388 0.910574
0.467587 0.969566 0.910629
0.280643 0.782466 0.949273
0.280649 0.844414 0.949305
0.2802 0.907752 0.94939
0.28056 0.969527 0.949434
0.342793 0.781726 0.949235
0.342688 0.845076 0.949315
0.343102 0.906998 0.949397
0.342295 0.970541 0.949429
0.405722 0.782494 0.949313
0.405555 0.844445 0.949379
0.404872 0.907649 0.949392
0.405489 0.969464 0.949516
0.467729 0.781963 0.949251
0.467708 0.845032 0.94933
0.46766 0.906824 0.949371
0.467141 0.970427 0.949434
0.499168 0.844538 0.852424
0.499435 0.907123 0.891152
0.498941 0.782118 0.774563
0.311492 0.782105 0.774835
0.311604 0.844697 0.774806
0.311857 0.907157 0.774887
0.311927 0.969842 0.774763
0.374078 0.782134 0.774826
0.374279 0.844751 0.774818
0.374264 0.907115 0.774795
0.374325 0.969769 0.774801
0.436527 0.78234 0.774778
0.436554 0.844385 0.774706
0.436546 0.90706 0.774701
0.436512 0.969593 0.774622
0.498577 0.969714 0.774723
0.498632 0.906985 0.774665
0.498804 0.96977 0.813502
0.499189 0.969833 0.930242
0.311549 0.782296 0.813521
0.311669 0.844617 0.813535
0.311883 0.907063 0.813471
0.312169 0.969216 0.813528
0.374239 0.782007 0.813533
0.374414 0.844282 0.813473
0.374383 0.907203 0.813527
0.374487 0.969511 0.813587
0.436883 0.78192 0.813576
0.436895 0.844799 0.813708
0.43673 0.90679 0.813675
0.436735 0.969715 0.813551
0.49893 0.907161 0.813686
0.499466 0.907343 0.929992
0.250135 0.782494 0.969191
0.49916 0.844796 0.813666
0.31197 0.78163 0.852273
0.312199 0.844723 0.852227
0.31232 0.907073 0.852509
0.312363 0.969782 0.852406
0.374559 0.782011 0.852275
0.374547 0.844309 0.852432
0.374616 0.907582 0.852356
0.374633 0.9698 0.852427
0.436959 0.781974 0.852303
0.436844 0.844782 0.852387
0.436843 0.907247 0.852444
0.436957 0.969885 0.852412
0.499098 0.907154 0.852354
0.499273 0.7822 0.852379
0.499225 0.782052 0.813502
0.312429 0.782229 0.891141
0.312339 0.844854 0.89125
0.312244 0.907254 0.891135
0.312275 0.970008 0.891323
0.374687 0.781845 0.891071
0.374743 0.844785 0.891211
0.37471 0.906975 0.891399
0.374771 0.970056 0.891187
0.437162 0.781969 0.891249
0.437116 0.844805 0.89121
0.437069 0.907376 0.891122
0.436964 0.969585 0.891278
0.498909 0.97024 0.852301
0.499445 0.907754 0.970158
0.312459 0.781859 0.929805
0.312395 0.844819 0.929884
0.31221 0.907317 0.930124
0.31214 0.970019 0.92986
0.374954 0.782106 0.930103
0.374812 0.844513 0.930031
0.374697 0.907602 0.929901
0.374549 0.969775 0.930328
0.437425 0.781996 0.929788
0.437199 0.844754 0.929904
0.437056 0.9071 0.930166
0.436982 0.96978 0.929972
0.499567 0.969994 0.969025
0.499298 0.969757 0.891195
0.499751 0.844809 0.93009
0.49891 0.844534 0.774589
0.312514 0.781748 0.969963
0.312434 0.845103 0.969889
0.312508 0.90689 0.969287
0.312093 0.969973 0.970251
0.37513 0.782401 0.969155
0.375057 0.844171 0.969348
0.374759 0.907479 0.970245
0.374725 0.969777 0.969155
0.437551 0.781631 0.97002
0.437388 0.845105 0.969897
0.437311 0.907091 0.969109
0.436987 0.970054 0.970354
0.280206 0.750927 0.891092
0.405033 0.750798 0.891052
0.467705 0.750984 0.891172
0.342553 0.750756 0.891153
0.343652 0.750853 0.969059
0.280718 0.750783 0.968245
0.405646 0.750767 0.968167
0.468774 0.750933 0.969091
0.280112 0.750846 0.930013
0.467945 0.750889 0.929781
0.343167 0.75074 0.929624
0.405252 0.750808 0.929993
0.499706 0.78217 0.891264
0.499936 0.782319 0.930015
0.499568 0.844825 0.891131
0.499889 0.844362 0.969367
0.529925 0.00124939 0.00863677
0.536319 0.0637551 0.00595619
0.531207 0.126196 0.0086301
0.536913 0.188449 0.00594062
0.597674 0.00137014 0.00574342
0.593435 0.0637706 0.00856704
0.599169 0.126072 0.00595001
0.593792 0.188535 0.00846276
0.65491 0.00135151 0.00851892
0.661428 0.0638647 0.00598273
0.655979 0.126268 0.00858825
0.66196 0.188467 0.00586513
0.722583 0.00146657 0.00578751
0.718332 0.0639473 0.00859612
0.724327 0.126206 0.00592336
0.718662 0.188556 0.00842003
0.535687 0.00119728 0.0441018
0.531559 0.0636252 0.0472054
0.535702 0.126108 0.0443494
0.531689 0.188567 0.0471229
0.593841 0.00115361 0.0470241
0.598133 0.0636732 0.0442716
0.594217 0.126089 0.0471341
0.598283 0.188522 0.0442761
0.66055 0.00128389 0.0441587
0.656517 0.0637055 0.0471271
0.660704 0.126194 0.0443395
0.656714 0.188648 0.0470269
0.718802 0.00123939 0.0470785
0.722896 0.0637363 0.0442498
0.719227 0.126227 0.0471075
0.723332 0.188638 0.0443382
0.53209 0.00101799 0.0854514
0.535376 0.0635561 0.0823986
0.532318 0.126091 0.0853333
0.535408 0.188543 0.0824267
0.597887 0.00107628 0.0822983
0.594586 0.0635828 0.0852839
0.597965 0.126116 0.0824815
0.594992 0.188588 0.0853342
0.656994 0.00112423 0.0854111
0.660265 0.0636829 0.0824528
0.657335 0.12616 0.0852952
0.660626 0.18854 0.0824581
0.722875 0.00112253 0.0822649
0.71965 0.0636316 0.0853395
0.722991 0.126146 0.0824783
0.719984 0.188626 0.0853453
0.535271 0.00102584 0.120472
0.532507 0.0635444 0.123553
0.535488 0.126059 0.120658
0.532348 0.188594 0.12361
0.594958 0.0010569 0.1235
0.597839 0.0635842 0.120661
0.595026 0.126071 0.123546
0.597989 0.188646 0.120559
0.660252 0.0010863 0.12049
0.657467 0.0636436 0.123526
0.660356 0.126094 0.120714
0.657504 0.188585 0.123556
0.719792 0.00108837 0.12359
0.722852 0.0636175 0.120627
0.720089 0.126149 0.1235
0.72324 0.188607 0.120577
0.532719 0.00102559 0.16189
0.535308 0.0635425 0.1588
0.532593 0.126034 0.161874
0.535411 0.188558 0.158786
0.597643 0.0010787 0.158677
0.595143 0.0635731 0.161826
0.59793 0.126098 0.158756
0.594999 0.188575 0.161742
0.657623 0.00106011 0.161803
0.660304 0.0635804 0.158813
0.657528 0.126095 0.161765
0.66046 0.188645 0.158739
0.722532 0.00109552 0.158712
0.720181 0.063614 0.161767
0.722947 0.126103 0.158794
0.720068 0.188584 0.16178
0.535022 9.98095e-04 0.196873
0.532754 0.0635471 0.200064
0.535204 0.126065 0.196882
0.532647 0.18859 0.199926
0.595281 0.00110284 0.200045
0.597695 0.0635736 0.196857
0.595127 0.126041 0.199961
0.597834 0.188574 0.196971
0.659962 0.00101713 0.196806
0.65776 0.0635809 0.199968
0.660191 0.12612 0.196909
0.657559 0.188618 0.20004
0.720145 0.00108665 0.200021
0.722633 0.0635964 0.196891
0.72014 0.126064 0.20003
0.722882 0.188557 0.196964
0.532732 0.00101283 0.238223
0.535104 0.063521 0.235135
0.532611 0.126015 0.238111
0.535443 0.188498 0.235115
0.597439 0.00103187 0.234937
0.595151 0.063526 0.238222
0.597579 0.125963 0.235175
0.595039 0.188503 0.23816
0.657559 9.5617e-04 0.23815
0.659978 0.0635212 0.235088
0.657634 0.126013 0.238192
0.660317 0.188534 0.235201
0.722418 9.73462e-04 0.235011
0.720172 0.063464 0.2382
0.722538 0.125996 0.235154
0.720041 0.188526 0.238168
0.531829 0.0351624 0.026392
0.535327 0.0929299 0.0264175
0.532205 0.159796 0.0264065
0.535609 0.217747 0.0263029
0.597844 0.0303849 0.0263141
0.594495 0.0974758 0.0263924
0.597866 0.155348 0.0263673
0.594831 0.222163 0.0263187
0.656664 0.0351245 0.0263211
0.66018 0.0930948 0.0263621
0.657158 0.159909 0.0263441
0.660475 0.217759 0.0262777
0.722807 0.0304368 0.0263359
0.719499 0.0977233 0.0263902
0.722957 0.155527 0.0263625
0.719781 0.222254 0.0262974
0.535788 0.0302157 0.0646206
0.532115 0.0975591 0.0646252
0.535883 0.155331 0.0646324
0.532182 0.222477 0.0645539
0.594433 0.0350399 0.064558
0.598162 0.092952 0.0646436
0.594575 0.159952 0.0646334
0.598419 0.217691 0.064572
0.660682 0.0304336 0.0646002
0.656921 0.0976916 0.0646274
0.660835 0.155469 0.0646015
0.657199 0.2225 0.0646011
0.71941 0.0351725 0.0645879
0.723095 0.093004 0.0645988
0.71968 0.160093 0.0646374
0.723406 0.217877 0.064591
0.531644 0.0352692 0.102813
0.535881 0.0928553 0.102847
0.531901 0.160119 0.102884
0.536117 0.217738 0.102798
0.598475 0.030334 0.102796
0.594434 0.0976294 0.102852
0.598671 0.155418 0.102854
0.59445 0.222716 0.102802
0.656796 0.0352167 0.102812
0.660898 0.0929916 0.102832
0.656936 0.15998 0.102845
0.661205 0.217678 0.102818
0.723394 0.0302263 0.10281
0.719678 0.0976286 0.102831
0.723541 0.155444 0.102847
0.719812 0.222771 0.102849
0.53617 0.030153 0.141025
0.531702 0.0976444 0.141076
0.536259 0.155334 0.141084
0.531916 0.222769 0.141011
0.594288 0.035145 0.141003
0.598495 0.0928101 0.141042
0.594403 0.16015 0.141019
0.598732 0.217815 0.141016
0.661026 0.0302603 0.141023
0.656893 0.0976429 0.141049
0.661177 0.155359 0.141069
0.657008 0.222823 0.141017
0.719186 0.0351746 0.141025
0.723458 0.0928646 0.141035
0.719461 0.160191 0.141065
0.723872 0.217736 0.141038
0.531872 0.0352193 0.179233
0.536271 0.0927035 0.179269
0.531943 0.16029 0.179238
0.536327 0.217706 0.17921
0.59869 0.030172 0.179229
0.594288 0.0977546 0.179217
0.598695 0.15523 0.179238
0.594424 0.222705 0.179228
0.656631 0.0352001 0.179219
0.66117 0.0927546 0.179245
0.656946 0.160254 0.179237
0.661238 0.217723 0.179227
0.723481 0.030327 0.17922
0.719269 0.0977403 0.179239
0.72379 0.155255 0.179256
0.719502 0.222674 0.179234
0.536217 0.0302075 0.217435
0.531779 0.0977155 0.217439
0.536313 0.155214 0.217392
0.531891 0.222766 0.217418
0.594206 0.0353972 0.217398
0.59873 0.0926365 0.217426
0.59435 0.160051 0.217436
0.598854 0.217692 0.217441
0.661148 0.0301764 0.217421
0.656667 0.0977125 0.217441
0.661202 0.15526 0.217439
0.656803 0.222767 0.217426
0.719119 0.0353012 0.217396
0.723685 0.092626 0.217443
0.719269 0.160165 0.217427
0.723713 0.217643 0.217454
0.502403 0.0351345 0.00631862
0.502735 0.0922057 0.00825544
0.502711 0.160135 0.00649014
0.503026 0.216912 0.00808964
0.564942 0.029934 0.00827569
0.565073 0.0975777 0.0063494
0.565456 0.154442 0.00823051
0.56525 0.222356 0.00633138
0.627335 0.0353703 0.00615898
0.627648 0.092104 0.00820518
0.627636 0.160157 0.00637776
0.627945 0.216867 0.00805279
0.689916 0.029993 0.00831499
0.690034 0.097915 0.00636187
0.690469 0.15438 0.00812663
0.690255 0.222434 0.00631839
0.502663 0.0301781 0.0465897
0.50263 0.0965353 0.0443334
0.502773 0.155071 0.0464853
0.502885 0.221672 0.0442021
0.565105 0.0343371 0.044274
0.565144 0.092579 0.0465246
0.565225 0.159203 0.0443246
0.565366 0.217296 0.0464338
0.627557 0.0300617 0.0464477
0.627604 0.0967068 0.0442902
0.627741 0.155089 0.0464004
0.62787 0.221877 0.0442826
0.690039 0.0342913 0.0442417
0.690061 0.0926791 0.0464819
0.690229 0.159296 0.044309
0.690372 0.217491 0.046364
0.50271 0.0336654 0.0823379
0.502824 0.092976 0.0847729
0.502824 0.158556 0.0823762
0.502959 0.21795 0.0847359
0.565253 0.0303582 0.0848329
0.565178 0.0961488 0.0824694
0.565398 0.155557 0.084924
0.565443 0.221122 0.08235
0.627635 0.0336906 0.0823224
0.627718 0.0929462 0.0848298
0.62783 0.158745 0.082402
0.627949 0.217957 0.0848478
0.69021 0.0304645 0.0847995
0.690244 0.0962943 0.0824843
0.690452 0.155553 0.0848594
0.690584 0.221187 0.08245
0.502855 0.0304979 0.123219
0.502828 0.0959436 0.12059
0.502921 0.155454 0.12317
0.50298 0.221255 0.120478
0.565286 0.0333303 0.120389
0.565324 0.0929901 0.123138
0.565456 0.158579 0.120554
0.565434 0.21794 0.123153
0.627839 0.0305966 0.123155
0.62781 0.0960404 0.120551
0.627961 0.155535 0.123135
0.628064 0.221187 0.120484
0.690227 0.0335195 0.120551
0.690387 0.0931881 0.123061
0.690492 0.158474 0.120581
0.690678 0.217852 0.123176
0.502967 0.0333047 0.158665
0.502929 0.0931583 0.161474
0.502991 0.158349 0.158729
0.503033 0.217956 0.161404
0.56541 0.0307468 0.161376
0.565423 0.0958761 0.158665
0.565434 0.15552 0.161389
0.565477 0.221018 0.158691
0.627848 0.0332785 0.158671
0.627887 0.0931706 0.161327
0.627963 0.158495 0.158713
0.628024 0.218051 0.161317
0.690295 0.0307322 0.161363
0.690397 0.0959252 0.158751
0.690488 0.155585 0.161465
0.690591 0.221047 0.158695
0.502944 0.0308111 0.199555
0.502956 0.0956702 0.196853
0.502992 0.155745 0.199636
0.503033 0.22092 0.196847
0.56535 0.0331955 0.196823
0.565403 0.093289 0.199644
0.565465 0.158368 0.196902
0.565507 0.218099 0.199608
0.627891 0.0307934 0.199634
0.627893 0.0958038 0.196817
0.627916 0.155809 0.199609
0.62796 0.220966 0.196824
0.690252 0.0330894 0.196836
0.690349 0.0932973 0.199631
0.69039 0.158406 0.196876
0.690503 0.218039 0.19958
0.502839 0.0331209 0.234998
0.50289 0.0931996 0.237866
0.502969 0.158259 0.23501
0.503006 0.218051 0.237847
0.565318 0.0308715 0.237864
0.565305 0.0957086 0.235008
0.565411 0.155578 0.237819
0.565451 0.220834 0.23506
0.62776 0.0331366 0.235055
0.627801 0.093307 0.237881
0.627913 0.158219 0.235039
0.62792 0.217973 0.237862
0.69027 0.0306544 0.237802
0.690307 0.0955628 0.235111
0.690323 0.15567 0.237819
0.690345 0.220857 0.235045
0.534849 8.66507e-04 0.27315
0.532666 0.0633961 0.276371
0.535066 0.125942 0.273332
0.532792 0.188451 0.276438
0.595008 9.05355e-04 0.27636
0.597393 0.0634 0.273302
0.595277 0.125912 0.276358
0.597546 0.188447 0.273259
0.659881 8.76806e-04 0.273077
0.657606 0.0633623 0.2764
0.6599 0.125898 0.273296
0.657622 0.188453 0.276469
0.72001 8.61109e-04 0.276449
0.722189 0.0633753 0.27321
0.720034 0.125938 0.276375
0.722444 0.188488 0.273306
0.532798 7.80771e-04 0.314572
0.534609 0.063279 0.311375
0.532948 0.125829 0.314541
0.534717 0.188416 0.311284
0.597006 7.70694e-04 0.311325
0.595268 0.063296 0.31453
0.597046 0.125849 0.311424
0.59528 0.18846 0.314512
0.657669 7.64872e-04 0.314568
0.659358 0.0633037 0.311419
0.657766 0.125893 0.314485
0.659557 0.18839 0.311368
0.721786 7.40489e-04 0.311179
0.720128 0.0632871 0.314564
0.722035 0.125838 0.311368
0.720296 0.188404 0.314507
0.534116 7.00852e-04 0.349381
0.533165 0.0632422 0.352716
0.534086 0.125798 0.34944
0.533253 0.188367 0.352752
0.595371 7.06211e-04 0.352704
0.596455 0.0632553 0.349516
0.595654 0.125814 0.352603
0.596431 0.188435 0.349456
0.658913 7.63079e-04 0.349446
0.658057 0.0632594 0.352652
0.658688 0.125828 0.349485
0.658232 0.18832 0.352604
0.720472 7.1639e-04 0.352666
0.721247 0.0632144 0.34947
0.720649 0.125769 0.352653
0.721364 0.188344 0.349444
0.533681 7.27659e-04 0.390827
0.532842 0.0633137 0.38749
0.533773 0.125809 0.390831
0.532777 0.188351 0.387323
0.595404 7.61721e-04 0.387527
0.596004 0.0633287 0.390767
0.595404 0.12586 0.387454
0.596552 0.188322 0.390779
0.658703 8.03278e-04 0.390822
0.657715 0.0633028 0.387409
0.658739 0.125768 0.390697
0.657881 0.188388 0.387406
0.720355 7.61602e-04 0.387409
0.72132 0.0632502 0.390734
0.720403 0.125783 0.387412
0.721344 0.188403 0.390726
0.530954 9.65595e-04 0.425559
0.535853 0.0633693 0.428972
0.530818 0.126046 0.425713
0.536298 0.188412 0.42896
0.597948 9.58862e-04 0.4289
0.593442 0.063569 0.425566
0.598734 0.125829 0.42893
0.59352 0.188362 0.425644
0.656027 9.98606e-04 0.425574
0.661157 0.0633652 0.428915
0.656058 0.125866 0.425648
0.661035 0.18833 0.428794
0.723087 9.56054e-04 0.428979
0.718403 0.0635469 0.425546
0.72367 0.12594 0.428938
0.718623 0.188504 0.425582
0.533205 9.91509e-04 0.467172
0.528304 0.0634731 0.464203
0.533718 0.126016 0.467115
0.528434 0.188547 0.46431
0.591316 9.13883e-04 0.464001
0.595845 0.0635407 0.467053
0.590833 0.126011 0.464182
0.596393 0.188447 0.46709
0.658284 0.00103958 0.467084
0.65364 0.0634607 0.464165
0.658739 0.125986 0.466937
0.653632 0.188409 0.464267
0.71661 9.33914e-04 0.463956
0.720968 0.0634726 0.467056
0.716118 0.126025 0.464145
0.721272 0.188577 0.467066
0.531505 0.0351751 0.255601
0.536267 0.0927033 0.25563
0.531783 0.160153 0.255616
0.536309 0.217486 0.255621
0.598567 0.0300981 0.255582
0.593985 0.0975866 0.255629
0.598722 0.155205 0.255589
0.594365 0.222708 0.255621
0.656439 0.0352098 0.255582
0.661105 0.0926021 0.255636
0.656696 0.160176 0.255644
0.66124 0.217636 0.255659
0.723494 0.0300407 0.255605
0.719109 0.0976377 0.255643
0.723616 0.155189 0.25564
0.719134 0.222615 0.255633
0.536086 0.0298796 0.293773
0.531558 0.0975834 0.293809
0.536189 0.155005 0.2938
0.531538 0.222811 0.293788
0.593976 0.0350674 0.293762
0.598715 0.0925434 0.293808
0.594181 0.160158 0.293763
0.59861 0.217608 0.293788
0.660916 0.0298746 0.293788
0.65634 0.0975549 0.293813
0.661171 0.155114 0.293805
0.6566 0.222788 0.29383
0.718809 0.0351973 0.29378
0.723542 0.0924857 0.293814
0.718944 0.160128 0.293821
0.723593 0.21764 0.293798
0.531351 0.0350877 0.331937
0.536127 0.0922991 0.331969
0.531515 0.160263 0.33193
0.536219 0.217342 0.33193
0.59843 0.0298488 0.331933
0.593772 0.0975181 0.331984
0.598495 0.155046 0.331952
0.593941 0.22284 0.33195
0.656046 0.0350231 0.331948
0.660869 0.0924802 0.331961
0.656253 0.160104 0.331957
0.661067 0.217428 0.331951
0.723361 0.0296926 0.331923
0.71872 0.0975956 0.331963
0.723521 0.15499 0.331952
0.718913 0.222758 0.331938
0.535844 0.0297603 0.370114
0.531148 0.0977111 0.370133
0.535937 0.154808 0.370107
0.531621 0.223007 0.370105
0.593576 0.0351035 0.370118
0.598323 0.0924593 0.370128
0.593622 0.160229 0.370119
0.598432 0.217384 0.370129
0.66077 0.0298038 0.370102
0.656126 0.0976672 0.370087
0.660964 0.154907 0.37012
0.656415 0.222824 0.37004
0.718699 0.035097 0.370067
0.723268 0.0923473 0.370066
0.718968 0.160154 0.370065
0.723544 0.217449 0.370063
0.531213 0.0352869 0.408249
0.535695 0.0923751 0.408282
0.531348 0.160389 0.408234
0.535781 0.217268 0.408226
0.598122 0.0299753 0.408255
0.593831 0.097909 0.408248
0.59822 0.154822 0.40828
0.594149 0.222748 0.408254
0.65628 0.0353989 0.40824
0.660667 0.0922881 0.408201
0.656431 0.160146 0.408194
0.660609 0.217396 0.408188
0.723071 0.0298732 0.408222
0.718901 0.0979542 0.408198
0.723315 0.154859 0.408193
0.719008 0.222973 0.408195
0.534127 0.0297547 0.446487
0.530397 0.0974082 0.446463
0.534033 0.154835 0.446514
0.530734 0.22249 0.446443
0.592978 0.0350881 0.446417
0.596329 0.0922244 0.446464
0.593199 0.159969 0.446463
0.596451 0.217049 0.446522
0.659051 0.0296598 0.44651
0.655666 0.0974034 0.44644
0.659327 0.154892 0.446439
0.655859 0.222311 0.446426
0.717945 0.0351277 0.446395
0.721434 0.0921836 0.446437
0.717933 0.159964 0.446405
0.721498 0.217295 0.446452
0.528801 0.0340577 0.484779
0.532073 0.0925701 0.484745
0.529029 0.159045 0.484755
0.532047 0.218018 0.484767
0.594773 0.0298449 0.484722
0.591529 0.0966522 0.484766
0.594878 0.155065 0.484779
0.591827 0.221363 0.484784
0.653877 0.0341022 0.484773
0.65711 0.0926315 0.484717
0.6539 0.158975 0.484727
0.657011 0.218074 0.484747
0.720084 0.0298731 0.484677
0.716629 0.0965123 0.484706
0.720169 0.155061 0.484687
0.716993 0.221721 0.48467
0.502801 0.0306709 0.27608
0.502853 0.0954761 0.273163
0.502878 0.155795 0.276071
0.502872 0.220572 0.27318
0.565175 0.033019 0.273129
0.565293 0.0932246 0.276068
0.565378 0.15795 0.273173
0.565364 0.218169 0.276063
0.627707 0.0306367 0.276026
0.627751 0.0954566 0.27321
0.627809 0.155677 0.276032
0.627888 0.220648 0.273322
0.690036 0.032935 0.27317
0.690203 0.0931659 0.276103
0.690229 0.158065 0.27326
0.690252 0.218177 0.276064
0.502652 0.0325075 0.31135
0.502765 0.0933736 0.314287
0.502772 0.157641 0.311324
0.502753 0.218514 0.314298
0.565107 0.0308648 0.314238
0.565169 0.095051 0.311388
0.565249 0.155883 0.314257
0.565216 0.220371 0.311323
0.627477 0.0325271 0.311303
0.627523 0.0934568 0.314325
0.627627 0.157693 0.311327
0.627706 0.218422 0.314254
0.68995 0.0309278 0.3143
0.690011 0.0950605 0.311366
0.690158 0.155939 0.314355
0.69017 0.220206 0.311424
0.502568 0.0311386 0.352406
0.502644 0.0946104 0.349538
0.502659 0.156258 0.352415
0.502766 0.219723 0.349546
0.564965 0.0320795 0.349523
0.564991 0.0937344 0.352628
0.565051 0.157209 0.349572
0.5651 0.21902 0.352426
0.62733 0.0312398 0.35247
0.627385 0.0945484 0.349561
0.62745 0.156433 0.352517
0.627589 0.219634 0.349503
0.689882 0.0320659 0.349469
0.689863 0.0939188 0.3525
0.69002 0.156927 0.34955
0.690068 0.218916 0.352424
0.502346 0.0312766 0.387729
0.502319 0.0946883 0.390683
0.502416 0.156123 0.387763
0.502524 0.219978 0.390546
0.564748 0.0320689 0.390659
0.564773 0.0938848 0.387766
0.564858 0.157358 0.390648
0.564979 0.218569 0.387914
0.627239 0.0312637 0.387777
0.62722 0.0946728 0.390574
0.627345 0.156178 0.387786
0.627443 0.220115 0.390523
0.689808 0.0320843 0.390581
0.689926 0.0936542 0.387767
0.689967 0.157197 0.390534
0.689998 0.218755 0.387761
0.502169 0.0342253 0.428602
0.502433 0.0919205 0.426184
0.502277 0.159677 0.42849
0.502609 0.216769 0.426163
0.564857 0.0296534 0.426115
0.564656 0.0969931 0.428484
0.565086 0.154218 0.426216
0.564971 0.222097 0.428415
0.627293 0.0344102 0.428613
0.627601 0.0918136 0.426214
0.627395 0.159283 0.428516
0.62758 0.216947 0.426225
0.689888 0.0294644 0.426126
0.689838 0.0970383 0.428497
0.690148 0.154442 0.42595
0.689904 0.221964 0.428378
0.749854 0.222362 0.466492
0.561914 0.0345856 0.466895
0.561987 0.0922477 0.464648
0.562071 0.159932 0.46677
0.56222 0.21703 0.464721
0.624582 0.0299818 0.46456
0.624455 0.0971407 0.466707
0.624676 0.154526 0.464611
0.624742 0.222257 0.466578
0.687122 0.0345545 0.466812
0.687151 0.0923472 0.464695
0.687151 0.159787 0.46693
0.687285 0.216979 0.464807
0.749695 0.030058 0.464419
0.749542 0.0971382 0.466667
0.749782 0.154691 0.464329
0.594918 0.188456 0.502865
0.532055 0.125976 0.502764
0.561814 0.218061 0.504778
0.687227 0.218012 0.504696
0.527445 8.75529e-04 0.542808
0.53186 0.0633288 0.541455
0.527692 0.125984 0.542702
0.532141 0.188444 0.54165
0.59494 8.50179e-04 0.541408
0.590049 0.0633501 0.542774
0.594873 0.125791 0.54144
0.590645 0.188396 0.542635
0.65297 9.35794e-04 0.542796
0.657554 0.0633141 0.54144
0.653039 0.125834 0.54262
0.657402 0.18826 0.541538
0.720093 8.03759e-04 0.541526
0.715917 0.0633792 0.542709
0.719913 0.125783 0.541289
0.715856 0.188375 0.542619
0.529832 8.15716e-04 0.580335
0.529332 0.0633682 0.580776
0.529846 0.125848 0.580263
0.529938 0.188489 0.580683
0.59182 8.60356e-04 0.58083
0.592346 0.0632444 0.580218
0.591912 0.125875 0.580764
0.592307 0.188373 0.580155
0.654974 8.97941e-04 0.580239
0.654535 0.0633355 0.580748
0.655037 0.125757 0.580214
0.654613 0.18835 0.580663
0.717292 8.56811e-04 0.58076
0.717503 0.0633238 0.580189
0.716952 0.125841 0.580747
0.717554 0.18825 0.580141
0.529343 9.0218e-04 0.619491
0.529407 0.0633774 0.619246
0.529402 0.12594 0.619347
0.529335 0.188417 0.619175
0.591484 9.58477e-04 0.504793
0.592019 8.45127e-04 0.61934
0.591837 0.0633391 0.619512
0.591893 0.12583 0.619128
0.591882 0.188384 0.619334
0.654256 9.48971e-04 0.619506
0.654215 0.0633011 0.619317
0.654148 0.125821 0.619342
0.654484 0.18828 0.619199
0.653986 0.0634261 0.504884
0.716782 9.02016e-04 0.619278
0.717013 0.0633665 0.619354
0.716823 0.125814 0.619183
0.71695 0.18828 0.619346
0.529642 9.24631e-04 0.658187
0.529299 0.0634234 0.6582
0.529605 0.125869 0.658057
0.529415 0.188425 0.658121
0.592041 9.22396e-04 0.658359
0.591977 0.0634005 0.658187
0.591822 0.125851 0.658198
0.592034 0.18828 0.657958
0.654283 9.65863e-04 0.658279
0.654295 0.0633981 0.658202
0.654535 0.125778 0.658095
0.654532 0.188279 0.658067
0.717054 0.00101866 0.658152
0.717101 0.0633657 0.658082
0.716957 0.125739 0.658059
0.717157 0.188185 0.657999
0.529516 9.08941e-04 0.697096
0.529513 0.0634299 0.696942
0.529491 0.125934 0.696978
0.529654 0.188476 0.696827
0.591635 8.85511e-04 0.697235
0.591833 0.063417 0.697026
0.592002 0.125945 0.697043
0.591642 0.18843 0.696842
0.654434 0.00103817 0.697011
0.654258 0.0633916 0.697072
0.65429 0.125826 0.697021
0.654458 0.188338 0.696808
0.717084 0.00107694 0.697016
0.716759 0.0634813 0.696982
0.716948 0.125843 0.696862
0.717169 0.188259 0.696779
0.529083 9.0141e-04 0.735843
0.529297 0.0634489 0.735925
0.529331 0.126028 0.735794
0.529695 0.188608 0.735744
0.591766 9.16427e-04 0.735873
0.591974 0.0634441 0.735866
0.591808 0.125965 0.735804
0.591935 0.188379 0.735668
0.654762 0.00109363 0.735925
0.654477 0.0634448 0.735826
0.654605 0.125813 0.735766
0.654494 0.188245 0.735773
0.717266 9.9381e-04 0.735837
0.71738 0.0634858 0.73581
0.716973 0.125978 0.73572
0.716864 0.18835 0.735705
0.532102 0.0304942 0.522973
0.529027 0.0961174 0.523003
0.531964 0.156017 0.52299
0.529215 0.220689 0.523102
0.591591 0.0335889 0.523014
0.594183 0.092999 0.52298
0.591676 0.158278 0.522989
0.594144 0.218427 0.522994
0.656973 0.0305656 0.523
0.654328 0.0959525 0.52301
0.657225 0.15581 0.522943
0.654692 0.220583 0.522992
0.716932 0.0334009 0.523009
0.719441 0.0930505 0.522935
0.716622 0.158344 0.522914
0.719434 0.21838 0.522914
0.529419 0.0328352 0.561372
0.531269 0.0938111 0.561316
0.52959 0.157779 0.561357
0.531246 0.219126 0.561347
0.593841 0.031223 0.561332
0.592221 0.0951595 0.561331
0.594224 0.156304 0.561273
0.592533 0.220254 0.56127
0.654815 0.0328639 0.561352
0.656188 0.0938055 0.561283
0.654666 0.157663 0.561309
0.656289 0.218982 0.561239
0.718956 0.0314003 0.561296
0.717447 0.0953446 0.561299
0.719095 0.156199 0.561215
0.71755 0.220098 0.561252
0.52968 0.0318996 0.600029
0.529192 0.0947181 0.599967
0.529782 0.156959 0.599909
0.529217 0.219867 0.599932
0.591694 0.0323673 0.600027
0.592103 0.0942965 0.599963
0.591763 0.157356 0.599952
0.592249 0.21935 0.599868
0.654916 0.0318556 0.6
0.654166 0.0946862 0.599962
0.654815 0.156904 0.599902
0.654607 0.219807 0.599892
0.716836 0.0323777 0.599968
0.717322 0.0943506 0.599943
0.716929 0.157251 0.599943
0.717378 0.219202 0.599859
0.52959 0.0322139 0.638872
0.529925 0.0945651 0.638753
0.529669 0.157304 0.638717
0.529877 0.219584 0.63872
0.592311 0.031988 0.638871
0.592128 0.0946509 0.638806
0.59218 0.15697 0.638716
0.592163 0.219628 0.638647
0.654412 0.032218 0.638816
0.654709 0.0946006 0.638746
0.654585 0.157132 0.638717
0.654802 0.21942 0.638673
0.717379 0.0321569 0.638774
0.716995 0.0944977 0.638709
0.71722 0.156839 0.638683
0.717361 0.219636 0.638648
0.529728 0.0321887 0.677667
0.529625 0.0947556 0.677575
0.529628 0.157069 0.677525
0.529813 0.219652 0.677488
0.591936 0.0321436 0.677696
0.592172 0.0945915 0.677645
0.592034 0.157191 0.677548
0.592153 0.219493 0.677457
0.654473 0.0322956 0.677623
0.654748 0.0945791 0.677612
0.654661 0.157076 0.677512
0.654604 0.219546 0.677404
0.717157 0.0322555 0.677562
0.717255 0.0945648 0.67753
0.717205 0.156965 0.677471
0.717342 0.219471 0.677413
0.529379 0.0321822 0.716456
0.529589 0.0945974 0.716416
0.529816 0.157149 0.716326
0.529793 0.219702 0.716262
0.591989 0.0322606 0.716538
0.591907 0.0946203 0.716492
0.592015 0.157315 0.716364
0.59209 0.219631 0.716281
0.654688 0.0321577 0.716469
0.654726 0.0945685 0.716449
0.654806 0.157186 0.716347
0.654939 0.219565 0.716257
0.717256 0.0321546 0.716414
0.717192 0.0947064 0.71636
0.717217 0.157158 0.716268
0.717173 0.219491 0.716214
0.749679 0.221693 0.50307
0.528747 0.0634649 0.504828
0.595254 0.0633989 0.502597
0.561717 0.0929839 0.504902
0.624448 0.0303053 0.504968
0.654447 0.188461 0.504738
0.624579 0.155577 0.505004
0.686993 0.0929757 0.504808
0.657699 0.125892 0.50271
0.749514 0.0963811 0.502976
0.749218 0.0344466 0.541482
0.749049 0.0320505 0.619108
0.749154 0.159236 0.541215
0.561305 0.0296654 0.542875
0.56124 0.0969949 0.541431
0.561506 0.154812 0.542892
0.561487 0.222076 0.541627
0.623869 0.0345841 0.541463
0.623959 0.0922318 0.542785
0.624052 0.159298 0.541343
0.624346 0.217295 0.54259
0.686747 0.0298642 0.542778
0.686601 0.0966561 0.541522
0.686728 0.154977 0.542901
0.686694 0.22184 0.541501
0.748948 0.09486 0.579258
0.749299 0.219322 0.658043
0.749074 0.0319472 0.580097
0.74913 0.157096 0.619122
0.561208 0.0322275 0.579276
0.561411 0.0942779 0.580069
0.561443 0.157296 0.579185
0.561624 0.219748 0.579932
0.623969 0.0318533 0.580185
0.623794 0.0948506 0.579367
0.624037 0.157025 0.580187
0.624012 0.219703 0.579357
0.686552 0.0321883 0.579324
0.686545 0.0942461 0.580025
0.686511 0.157451 0.579222
0.686716 0.219364 0.579918
0.749329 0.0926605 0.542795
0.749054 0.219624 0.579309
0.748949 0.219331 0.735542
0.749215 0.219607 0.619234
0.561515 0.0320191 0.619591
0.561498 0.0946024 0.619229
0.56154 0.157269 0.619443
0.561456 0.21975 0.619084
0.62393 0.0320756 0.619166
0.623942 0.0945143 0.619339
0.623968 0.15715 0.619168
0.624146 0.219735 0.619232
0.686578 0.0320719 0.619454
0.686383 0.0945944 0.619095
0.686512 0.157051 0.619428
0.686697 0.219418 0.619159
0.624447 0.0965104 0.503034
0.749542 0.03046 0.504915
0.74908 0.0945437 0.619409
0.561584 0.0323844 0.658197
0.561629 0.094544 0.658293
0.561496 0.157199 0.658057
0.561589 0.219755 0.658109
0.624006 0.0322339 0.658247
0.624021 0.0947618 0.658168
0.62401 0.15694 0.658128
0.624069 0.219512 0.657956
0.686464 0.0320433 0.658064
0.686555 0.0944187 0.658109
0.686608 0.156943 0.658083
0.686716 0.21952 0.658023
0.749362 0.217313 0.542595
0.561507 0.032211 0.697186
0.561533 0.0946573 0.697039
0.56158 0.157055 0.696918
0.561733 0.219967 0.696839
0.623863 0.0320703 0.697105
0.623909 0.094558 0.697151
0.623968 0.157236 0.697063
0.624083 0.219556 0.696937
0.686505 0.0323404 0.696942
0.686468 0.0945172 0.696961
0.68652 0.156945 0.696804
0.686602 0.219342 0.696675
0.561276 0.0320971 0.735881
0.561348 0.0947526 0.735954
0.561525 0.157268 0.735814
0.561772 0.219654 0.735659
0.623944 0.0321927 0.735971
0.623988 0.0947445 0.735853
0.624112 0.157009 0.735699
0.624213 0.219441 0.735687
0.686666 0.0321133 0.735951
0.68663 0.0945553 0.7359
0.68658 0.15702 0.735795
0.686607 0.219622 0.73569
0.716938 0.125938 0.504777
0.657836 8.63125e-04 0.502717
0.532823 8.34958e-04 0.502698
0.720099 0.188541 0.502682
0.720053 0.0633455 0.502679
0.716553 9.03271e-04 0.504777
0.624579 0.221498 0.503154
0.591645 0.125952 0.504873
0.749129 0.156925 0.580118
0.529078 0.188538 0.504719
0.56187 0.158993 0.502889
0.686908 0.0341168 0.502881
0.561752 0.0343628 0.50293
0.687063 0.15888 0.502667
0.748981 0.157482 0.735732
0.749247 0.0322795 0.658287
0.749227 0.0322528 0.735663
0.749153 0.157024 0.696766
0.749688 0.155664 0.505043
0.749135 0.0948949 0.735691
0.749191 0.219543 0.696771
0.749094 0.0947454 0.696968
0.749173 0.157149 0.658131
0.74913 0.0944595 0.657992
0.74906 0.0323644 0.696826
0.528773 9.83627e-04 0.774684
0.528506 0.0634857 0.774649
0.529258 0.125977 0.774552
0.528794 0.188491 0.774505
0.591566 0.00102662 0.77474
0.591831 0.0633846 0.774669
0.59164 0.125878 0.774538
0.5919 0.188377 0.774633
0.654555 0.00101735 0.77469
0.654361 0.0634651 0.774709
0.654424 0.125896 0.774667
0.654543 0.188326 0.774571
0.717217 0.001134 0.774686
0.716986 0.0635303 0.77466
0.717223 0.125969 0.774635
0.717156 0.188415 0.774564
0.528753 0.00103232 0.813487
0.52878 0.0634643 0.81349
0.528986 0.126044 0.813444
0.52921 0.188511 0.813319
0.59165 9.64059e-04 0.813602
0.591619 0.0634608 0.813513
0.592008 0.125922 0.81353
0.591974 0.188425 0.81337
0.654869 9.92359e-04 0.813478
0.654289 0.0633743 0.813469
0.65456 0.12587 0.813313
0.654592 0.188369 0.813488
0.717397 0.00117064 0.813607
0.717402 0.0635836 0.813538
0.716976 0.125945 0.81342
0.717388 0.188381 0.813388
0.529015 0.00106048 0.85242
0.529001 0.0635349 0.85231
0.529108 0.126011 0.852329
0.529297 0.188404 0.852254
0.591906 9.94674e-04 0.852235
0.592074 0.06344 0.852355
0.591695 0.125881 0.852158
0.592589 0.188314 0.85224
0.654949 0.00117297 0.852345
0.654416 0.063522 0.852221
0.654646 0.125838 0.852202
0.654709 0.188228 0.852133
0.717372 0.00114171 0.852322
0.717862 0.0635874 0.852311
0.717278 0.125994 0.852202
0.717412 0.188331 0.85233
0.529223 0.00105895 0.891097
0.528946 0.0635382 0.891316
0.529367 0.125902 0.891039
0.529767 0.188345 0.891307
0.591989 0.0010464 0.89117
0.592305 0.0634747 0.89102
0.592133 0.125882 0.891154
0.592035 0.188309 0.890982
0.655035 0.00124703 0.891051
0.654638 0.0635573 0.891196
0.65512 0.125873 0.890998
0.6547 0.188251 0.891151
0.71764 0.0011413 0.891228
0.717768 0.0636033 0.890968
0.717509 0.125974 0.891177
0.717592 0.18835 0.890932
0.529388 0.00109795 0.930172
0.529171 0.063561 0.929808
0.529198 0.12598 0.930317
0.529072 0.188382 0.929686
0.591883 0.00114372 0.929692
0.592141 0.0635383 0.930071
0.592014 0.1259 0.929674
0.592478 0.188232 0.930141
0.65483 0.00111692 0.930128
0.654462 0.0635275 0.929721
0.655046 0.12585 0.930177
0.654615 0.188338 0.929707
0.717078 0.00122616 0.929793
0.717321 0.0635574 0.930157
0.717134 0.126021 0.929777
0.717425 0.188356 0.930159
0.530495 0.00130881 0.968251
0.529824 0.0636086 0.969644
0.530636 0.126039 0.968313
0.529794 0.188421 0.969589
0.592752 0.00117982 0.969492
0.593185 0.0637065 0.968107
0.591919 0.125949 0.969527
0.593332 0.188317 0.968129
0.655439 0.00132528 0.968218
0.654604 0.0635975 0.969559
0.655938 0.126018 0.968145
0.654426 0.188279 0.969349
0.717807 0.00120926 0.969509
0.718327 0.0637587 0.968232
0.717002 0.126066 0.96951
0.718425 0.188459 0.9681
0.533494 0.0306886 0.988049
0.530786 0.0966157 0.988077
0.533302 0.155522 0.988052
0.531245 0.221319 0.987947
0.593129 0.0342125 0.98791
0.595902 0.0930644 0.98797
0.593451 0.158915 0.987967
0.595911 0.217739 0.987876
0.658612 0.0308603 0.98802
0.655817 0.0966075 0.987993
0.658407 0.155568 0.987962
0.656153 0.221198 0.98794
0.718125 0.0343342 0.987984
0.720797 0.0933608 0.988039
0.718605 0.159018 0.987961
0.720811 0.21791 0.98788
0.529305 0.032292 0.755291
0.529305 0.0947051 0.75524
0.529626 0.157322 0.755167
0.52988 0.219781 0.755065
0.591862 0.0320353 0.755317
0.591926 0.0947428 0.755242
0.5921 0.157135 0.755167
0.592297 0.219634 0.755134
0.654685 0.0322895 0.755302
0.654598 0.0946383 0.755247
0.654665 0.157022 0.755216
0.654636 0.219369 0.755159
0.717237 0.0323306 0.755281
0.71714 0.0948295 0.755229
0.717133 0.157172 0.755199
0.717168 0.219596 0.75513
0.529302 0.0321598 0.794113
0.529514 0.0947344 0.794096
0.529754 0.157158 0.794016
0.529627 0.219862 0.793927
0.591714 0.032142 0.79411
0.59192 0.0947822 0.794036
0.592087 0.15711 0.79401
0.59222 0.219706 0.793921
0.654728 0.0321893 0.794127
0.654637 0.0945694 0.794048
0.654479 0.157177 0.794031
0.654845 0.219485 0.793971
0.7177 0.0322635 0.794121
0.717445 0.0947035 0.794092
0.71744 0.157152 0.794065
0.717354 0.219641 0.794003
0.529176 0.0322095 0.832909
0.529345 0.0947794 0.832896
0.529827 0.157181 0.83286
0.529712 0.219652 0.832779
0.591994 0.0322481 0.832902
0.592198 0.0947018 0.832847
0.592061 0.157142 0.83281
0.592247 0.219469 0.832716
0.654745 0.0323086 0.832887
0.654734 0.0947804 0.832838
0.654795 0.156986 0.832827
0.654868 0.219639 0.832801
0.717416 0.0323138 0.83295
0.717502 0.0947752 0.832875
0.717313 0.157182 0.832826
0.717417 0.219591 0.832813
0.529549 0.0325088 0.871726
0.529562 0.0946204 0.871683
0.529505 0.157282 0.871671
0.530245 0.219449 0.871632
0.59211 0.0320605 0.871687
0.592201 0.0948897 0.871671
0.592477 0.156933 0.871631
0.592388 0.219663 0.871599
0.655044 0.0324918 0.871645
0.655036 0.0946163 0.871641
0.655043 0.15714 0.871611
0.654929 0.219197 0.871607
0.717672 0.0323006 0.871663
0.717405 0.0949095 0.871652
0.717601 0.157012 0.871624
0.717431 0.219723 0.871637
0.529973 0.0321248 0.910539
0.529746 0.0949938 0.910561
0.530189 0.156787 0.910535
0.529878 0.219832 0.910491
0.592247 0.0325564 0.91041
0.592612 0.094531 0.910474
0.592438 0.157211 0.910473
0.592772 0.219256 0.910443
0.655449 0.0321935 0.910474
0.654957 0.0948663 0.910486
0.655018 0.156887 0.910489
0.654917 0.219666 0.910432
0.71778 0.0325412 0.91048
0.717878 0.0945834 0.910467
0.717418 0.157382 0.910476
0.717835 0.219385 0.910424
0.529387 0.0329689 0.949359
0.530152 0.0941868 0.949421
0.529588 0.157762 0.949384
0.530375 0.218876 0.949314
0.592886 0.0317741 0.949252
0.591769 0.0955595 0.94928
0.592627 0.156331 0.949285
0.592192 0.220151 0.94926
0.654575 0.0330381 0.949275
0.655482 0.0940005 0.949301
0.654653 0.157799 0.949261
0.65556 0.218827 0.949226
0.71785 0.0318332 0.949338
0.717283 0.0954724 0.949284
0.717851 0.156487 0.949277
0.717203 0.220262 0.94919
0.749521 0.15702 0.929744
0.749046 0.21977 0.774589
0.749496 0.0321863 0.970277
0.56103 0.032242 0.774688
0.561114 0.0943904 0.774513
0.56138 0.157211 0.774481
0.561365 0.219732 0.77457
0.623882 0.0321445 0.774712
0.623829 0.0947288 0.774644
0.623923 0.157083 0.774571
0.62413 0.219587 0.774552
0.686648 0.0323694 0.774796
0.686538 0.0946757 0.774735
0.686592 0.157364 0.774798
0.686667 0.219556 0.774624
0.749332 0.0324968 0.774687
0.749497 0.157003 0.891086
0.749706 0.0320509 0.89107
0.749719 0.0319746 0.852242
0.561236 0.0322681 0.813511
0.561255 0.0949593 0.813492
0.561491 0.157131 0.813414
0.561676 0.219588 0.813234
0.623872 0.0318766 0.813538
0.623947 0.094666 0.813434
0.62406 0.157034 0.813452
0.624211 0.219852 0.813257
0.686799 0.0325595 0.81345
0.68654 0.0943958 0.813445
0.686628 0.157492 0.813366
0.686777 0.219546 0.813288
0.749539 0.0957552 0.968995
0.749448 0.157035 0.81356
0.56127 0.0323417 0.852303
0.561391 0.0943919 0.852218
0.561596 0.157458 0.852289
0.561813 0.219278 0.852088
0.623996 0.0321848 0.852255
0.624032 0.0947231 0.852227
0.624193 0.156804 0.852196
0.624314 0.219739 0.85217
0.686961 0.0325373 0.852241
0.686856 0.0945987 0.852171
0.686883 0.157161 0.852218
0.686931 0.219397 0.852241
0.749426 0.156598 0.969985
0.749195 0.0947387 0.774589
0.561498 0.0324812 0.891083
0.561485 0.0945567 0.891193
0.561728 0.157138 0.891039
0.562002 0.219255 0.891233
0.624318 0.0322842 0.891108
0.62433 0.0947199 0.891099
0.624371 0.156839 0.891108
0.624469 0.219547 0.891019
0.687116 0.0325254 0.891038
0.687008 0.0946038 0.891207
0.686939 0.157275 0.891077
0.686933 0.219513 0.891238
0.749138 0.157043 0.774628
0.561496 0.0323103 0.930172
0.561538 0.094919 0.929825
0.561556 0.157085 0.930165
0.561902 0.219375 0.929761
0.62427 0.0321432 0.929732
0.624209 0.0949684 0.930133
0.624426 0.156826 0.929835
0.624321 0.219845 0.930116
0.686893 0.0323967 0.930112
0.68702 0.0943737 0.92972
0.686842 0.157366 0.930105
0.686974 0.21934 0.929626
0.749311 0.219551 0.813416
0.749431 0.095064 0.930199
0.562098 0.0329733 0.968735
0.561793 0.0944144 0.970137
0.562001 0.157826 0.968886
0.562126 0.218918 0.969994
0.624452 0.0320543 0.970095
0.624514 0.0956991 0.968849
0.62441 0.156188 0.970025
0.624748 0.220398 0.96888
0.687148 0.0328403 0.96884
0.686871 0.0941246 0.97009
0.687043 0.158073 0.968844
0.686917 0.218809 0.969931
0.749565 0.03228 0.929903
0.749458 0.0322409 0.81369
0.749598 0.0953153 0.852291
0.749457 0.0949842 0.813558
0.749688 0.0951584 0.890959
0.749546 0.156955 0.852167
0.749321 0.219659 0.852262
0.749449 0.219748 0.930123
0.749541 0.219645 0.891022
0.749631 0.220587 0.968944
0.531275 0.250878 0.0084459
0.535645 0.31325 0.0055948
0.529646 0.375757 0.00809701
0.533871 0.43816 0.00598069
0.593001 0.313283 0.00837434
0.596697 0.375695 0.00569429
0.592259 0.438219 0.00795595
0.656263 0.250828 0.00840624
0.660528 0.313157 0.00553492
0.654783 0.375705 0.00804409
0.658892 0.438097 0.00594958
0.71813 0.313284 0.00831084
0.721681 0.375655 0.00573343
0.717493 0.438146 0.00783713
0.536299 0.250989 0.0441914
0.531803 0.313334 0.0472123
0.535369 0.375661 0.0436059
0.530635 0.438295 0.046576
0.59417 0.251009 0.0470596
0.599199 0.313254 0.0438624
0.593805 0.375717 0.0468459
0.596536 0.438202 0.0439399
0.661311 0.250956 0.0442334
0.656808 0.313259 0.0471014
0.660413 0.375614 0.0437643
0.655516 0.438216 0.0465181
0.719319 0.251033 0.04699
0.72418 0.313277 0.0439088
0.718758 0.375716 0.0468546
0.721419 0.438172 0.043984
0.532402 0.251036 0.0853723
0.535982 0.313372 0.0821788
0.532168 0.375808 0.0854079
0.533519 0.438303 0.0819839
0.59824 0.251021 0.0822398
0.595276 0.313379 0.0854369
0.597048 0.375859 0.0817962
0.593574 0.438376 0.0849533
0.657398 0.250975 0.0853656
0.660948 0.313361 0.0822811
0.657063 0.375802 0.085341
0.658474 0.438243 0.0819521
0.723388 0.25104 0.0822957
0.720236 0.313336 0.0854005
0.721961 0.375792 0.0817823
0.718571 0.438345 0.0849194
0.53573 0.251047 0.120472
0.532917 0.313365 0.123725
0.534564 0.375915 0.120095
0.531013 0.438479 0.123278
0.594994 0.251041 0.123574
0.59854 0.313448 0.120341
0.594594 0.375912 0.123562
0.596031 0.43844 0.120076
0.660826 0.251012 0.12049
0.657933 0.313407 0.123618
0.659663 0.375974 0.120098
0.655992 0.438493 0.123313
0.720128 0.251063 0.123631
0.723631 0.313397 0.120359
0.719621 0.375825 0.123557
0.721021 0.438384 0.120033
0.532435 0.251086 0.161857
0.535964 0.313503 0.158556
0.531998 0.375987 0.161902
0.53352 0.438552 0.158237
0.598139 0.25109 0.158675
0.595344 0.313477 0.16187
0.597029 0.376019 0.158176
0.59332 0.438518 0.161493
0.657639 0.251087 0.161913
0.661058 0.313426 0.158469
0.657119 0.375963 0.161873
0.658525 0.438501 0.158264
0.723266 0.251026 0.158661
0.720542 0.313411 0.161904
0.722051 0.375968 0.158201
0.718556 0.438469 0.161575
0.535616 0.251058 0.196829
0.532907 0.313507 0.200188
0.534312 0.376087 0.196293
0.53093 0.438658 0.19978
0.595024 0.251047 0.200076
0.598347 0.313477 0.19668
0.594554 0.375987 0.200119
0.595747 0.43853 0.196391
0.660555 0.251063 0.196859
0.657896 0.313484 0.200198
0.659363 0.376069 0.196263
0.655885 0.438564 0.199782
0.719979 0.251008 0.200076
0.723273 0.313401 0.196734
0.719499 0.37595 0.200047
0.720939 0.438476 0.196332
0.532671 0.250991 0.238242
0.535719 0.313457 0.234849
0.532004 0.376053 0.238287
0.53317 0.438636 0.234585
0.597878 0.250988 0.235071
0.595337 0.313436 0.238356
0.596699 0.376059 0.234445
0.593492 0.438618 0.238087
0.657568 0.250992 0.238222
0.660792 0.313489 0.234919
0.657038 0.376019 0.238318
0.658114 0.438541 0.234486
0.722828 0.250974 0.235121
0.720307 0.313422 0.238296
0.721593 0.376085 0.234484
0.718433 0.438527 0.237965
0.533286 0.284733 0.0262534
0.53135 0.341866 0.026155
0.534204 0.409402 0.0262096
0.530815 0.467887 0.0261636
0.597248 0.27983 0.0261702
0.597565 0.347076 0.0261581
0.592551 0.405053 0.0261792
0.596208 0.4715 0.0261702
0.658314 0.284586 0.0262169
0.656599 0.341923 0.0261585
0.659101 0.409182 0.0261957
0.655698 0.467897 0.0261448
0.722192 0.279945 0.0261764
0.722582 0.347089 0.0261339
0.717711 0.404959 0.026142
0.721245 0.471397 0.0261525
0.535527 0.279873 0.0644922
0.536617 0.347391 0.064431
0.529537 0.4045 0.0644194
0.534272 0.472144 0.0644056
0.595316 0.285139 0.0644645
0.594589 0.341831 0.0644441
0.597298 0.409841 0.0644455
0.592952 0.467769 0.0644121
0.660544 0.279986 0.0645273
0.661685 0.347179 0.0644497
0.654453 0.404526 0.0644056
0.65912 0.472034 0.0644257
0.720396 0.285008 0.0644665
0.719658 0.341835 0.0644487
0.722158 0.409746 0.0644493
0.717788 0.467779 0.0644015
0.532482 0.285188 0.102729
0.53209 0.341827 0.102737
0.534976 0.410116 0.102715
0.53021 0.467652 0.102627
0.598215 0.27994 0.10271
0.599434 0.347507 0.102656
0.591784 0.404675 0.102658
0.597024 0.472437 0.102627
0.657545 0.28506 0.102749
0.657131 0.342118 0.102738
0.659925 0.410107 0.102687
0.655151 0.467638 0.102638
0.723438 0.279919 0.102741
0.72443 0.347411 0.102654
0.716537 0.404544 0.102661
0.721812 0.472424 0.102615
0.535918 0.279921 0.14096
0.537151 0.347528 0.140923
0.529244 0.404607 0.140921
0.534464 0.472746 0.140835
0.594827 0.285341 0.140945
0.594444 0.341971 0.140933
0.597346 0.410231 0.140866
0.592515 0.467627 0.140869
0.660865 0.279879 0.14095
0.661988 0.347578 0.140909
0.654216 0.404743 0.140912
0.659405 0.472647 0.140847
0.719953 0.285253 0.140959
0.719558 0.341837 0.140929
0.7223 0.41021 0.140876
0.717592 0.46755 0.140844
0.532401 0.285423 0.179194
0.532113 0.341883 0.179148
0.534828 0.410553 0.179096
0.529963 0.46777 0.179055
0.598354 0.280006 0.17917
0.599321 0.347737 0.179113
0.59152 0.404583 0.179107
0.596865 0.472795 0.17906
0.657283 0.285468 0.179172
0.657125 0.341853 0.179127
0.659722 0.410424 0.179094
0.655058 0.467589 0.179043
0.72347 0.279881 0.179185
0.724495 0.347566 0.179103
0.71654 0.404567 0.179086
0.721813 0.472802 0.179029
0.536019 0.279908 0.217357
0.536647 0.34777 0.217304
0.528997 0.404653 0.217285
0.534254 0.472992 0.217286
0.59467 0.28532 0.21738
0.594604 0.341788 0.217349
0.597069 0.410546 0.21731
0.592355 0.467573 0.217274
0.661005 0.279967 0.217386
0.661624 0.347834 0.217313
0.654066 0.404544 0.217269
0.659376 0.473019 0.217255
0.719526 0.285231 0.217399
0.71951 0.341923 0.217328
0.722083 0.410499 0.217265
0.717478 0.467524 0.217236
0.50274 0.284547 0.00682893
0.500756 0.342071 0.00601116
0.500577 0.406036 0.196514
0.565395 0.279172 0.00752624
0.563083 0.346956 0.00794013
0.563026 0.404473 0.00607656
0.563123 0.471416 0.00791354
0.627682 0.28456 0.00679736
0.625699 0.34203 0.00618037
0.625345 0.408912 0.00809704
0.625651 0.467245 0.00640106
0.69044 0.279181 0.00742336
0.688157 0.346752 0.00788064
0.688097 0.404659 0.00617791
0.688087 0.471153 0.00787563
0.50301 0.279642 0.0458597
0.503147 0.346569 0.0465979
0.500887 0.404986 0.0439352
0.500878 0.470973 0.0463502
0.565511 0.284549 0.044584
0.565654 0.34191 0.0440136
0.563265 0.408664 0.0468307
0.56341 0.467561 0.0442677
0.628094 0.279645 0.0458883
0.628188 0.346536 0.0465645
0.625829 0.404933 0.0438669
0.625743 0.470943 0.0464052
0.690509 0.284457 0.0446519
0.690688 0.34198 0.0439729
0.688196 0.408672 0.0467009
0.688301 0.467444 0.0443092
0.502997 0.283692 0.0825712
0.50341 0.343036 0.0819907
0.501013 0.468137 0.0823053
0.56556 0.280368 0.0843832
0.56576 0.345893 0.0848768
0.563237 0.40571 0.0818795
0.563397 0.470495 0.0847742
0.628011 0.283695 0.0825877
0.628366 0.342888 0.082053
0.625739 0.408033 0.0852342
0.625974 0.468019 0.0823172
0.69066 0.280283 0.0844108
0.69074 0.345807 0.0848821
0.688208 0.40568 0.0818489
0.688295 0.470419 0.0847793
0.503069 0.28042 0.122736
0.50337 0.345778 0.123233
0.500667 0.470853 0.199627
0.565613 0.283621 0.120687
0.565958 0.343048 0.120167
0.563235 0.408333 0.123547
0.563385 0.46817 0.120497
0.628088 0.280374 0.122753
0.628348 0.345886 0.123268
0.625769 0.405796 0.12006
0.625774 0.470656 0.123208
0.690695 0.283714 0.120675
0.691024 0.342964 0.120213
0.688227 0.408322 0.123525
0.688337 0.468064 0.120477
0.503134 0.283826 0.158871
0.503507 0.343094 0.158398
0.565513 0.280419 0.161023
0.565783 0.345977 0.16153
0.563191 0.405823 0.158305
0.563253 0.470774 0.161436
0.628085 0.283606 0.158884
0.628466 0.343111 0.158448
0.625544 0.408381 0.161775
0.625711 0.468084 0.158652
0.690672 0.280371 0.161056
0.690903 0.345845 0.161469
0.688155 0.405908 0.158269
0.688266 0.470626 0.161385
0.503093 0.280569 0.199292
0.503234 0.345915 0.199581
0.500696 0.408308 0.161709
0.565548 0.283611 0.197066
0.56587 0.343241 0.196754
0.562974 0.408305 0.200034
0.563108 0.468312 0.196892
0.628061 0.280403 0.199315
0.628225 0.345865 0.199554
0.625482 0.406029 0.196501
0.625609 0.470594 0.199604
0.690517 0.283548 0.19702
0.69091 0.343198 0.196701
0.688027 0.408325 0.199914
0.688197 0.468189 0.196904
0.503073 0.283377 0.235171
0.503359 0.343287 0.23489
0.565476 0.280433 0.237555
0.565667 0.345862 0.237786
0.562943 0.406104 0.234674
0.563052 0.470697 0.237812
0.628007 0.283456 0.235148
0.628257 0.343224 0.234911
0.625412 0.408221 0.238126
0.625547 0.468351 0.235014
0.690393 0.280494 0.237605
0.690653 0.345781 0.237842
0.687956 0.405994 0.234773
0.688078 0.470416 0.237777
0.500746 0.467381 0.00634474
0.500919 0.470713 0.123115
0.599177 0.250727 0.00576999
0.500782 0.408158 0.0852743
0.500583 0.468415 0.235107
0.500561 0.408891 0.00799574
0.724313 0.250761 0.0057967
0.50075 0.405671 0.120073
0.500854 0.46825 0.158659
0.500379 0.408247 0.238135
0.535183 0.250933 0.27315
0.532965 0.313397 0.27648
0.533962 0.376054 0.272658
0.53077 0.438586 0.276205
0.595113 0.250993 0.276376
0.598115 0.313468 0.27309
0.594503 0.375962 0.276543
0.595476 0.438549 0.272744
0.660213 0.250976 0.273193
0.657871 0.313424 0.276552
0.659094 0.376076 0.272707
0.655709 0.438584 0.276235
0.720081 0.251016 0.276447
0.722947 0.313488 0.272996
0.719419 0.376013 0.276522
0.720633 0.438589 0.272766
0.532862 0.250919 0.314691
0.534986 0.313409 0.31112
0.532067 0.376 0.314777
0.532697 0.438562 0.31085
0.597286 0.250963 0.311301
0.595723 0.313382 0.314743
0.595966 0.376013 0.31081
0.59331 0.438537 0.314453
0.657854 0.250947 0.31469
0.660044 0.313457 0.311138
0.657134 0.376 0.314754
0.657637 0.438559 0.310985
0.722196 0.250966 0.311291
0.720795 0.313447 0.314722
0.721164 0.376071 0.310793
0.718515 0.438574 0.314401
0.534253 0.250962 0.349335
0.53355 0.313495 0.352891
0.533309 0.376114 0.348918
0.53092 0.438641 0.352639
0.595713 0.250907 0.352827
0.596897 0.313477 0.349273
0.594825 0.376018 0.353049
0.594892 0.438561 0.349126
0.659012 0.250934 0.349309
0.658301 0.313431 0.352926
0.658267 0.376075 0.348916
0.656022 0.438518 0.352611
0.720746 0.250913 0.352752
0.721985 0.31345 0.349222
0.719662 0.376024 0.352905
0.719939 0.438622 0.349154
0.534316 0.25091 0.390911
0.532741 0.313519 0.387174
0.533228 0.376007 0.39114
0.531543 0.438622 0.387508
0.595205 0.250908 0.387432
0.597037 0.313411 0.391009
0.594644 0.37601 0.387397
0.594002 0.438547 0.39065
0.659303 0.250873 0.39075
0.657897 0.313473 0.387288
0.658077 0.376038 0.391133
0.656591 0.438644 0.387412
0.720465 0.250991 0.387319
0.721955 0.31345 0.390929
0.719591 0.376133 0.387227
0.718824 0.438595 0.390596
0.530771 0.250892 0.425515
0.534949 0.313366 0.429156
0.530052 0.376111 0.425881
0.531916 0.438501 0.428846
0.598629 0.25082 0.429085
0.592957 0.313494 0.425678
0.595456 0.375914 0.428972
0.593157 0.438558 0.425922
0.656103 0.250904 0.425617
0.659872 0.313328 0.42916
0.655021 0.376108 0.425772
0.656805 0.438629 0.428714
0.723685 0.250878 0.4289
0.717814 0.313624 0.425466
0.720259 0.376004 0.428941
0.718212 0.438559 0.425996
0.534016 0.250942 0.467023
0.52931 0.313363 0.464315
0.532849 0.37586 0.466935
0.53062 0.438583 0.464482
0.591127 0.250908 0.464229
0.596134 0.313335 0.466913
0.592692 0.376022 0.464448
0.594344 0.438498 0.46667
0.659116 0.25086 0.466934
0.654219 0.3134 0.464296
0.657618 0.375944 0.466786
0.655447 0.438628 0.464416
0.716145 0.251027 0.464041
0.721085 0.313396 0.466897
0.717342 0.375949 0.464397
0.719592 0.438452 0.466619
0.500399 0.470613 0.275991
0.500276 0.407735 0.31459
0.531999 0.285423 0.255572
0.532046 0.341845 0.255536
0.534441 0.410533 0.255477
0.529828 0.467633 0.255492
0.598569 0.279947 0.255576
0.599081 0.347813 0.255504
0.591381 0.404492 0.255491
0.596715 0.473024 0.255489
0.656931 0.28533 0.255591
0.656933 0.341881 0.255555
0.659574 0.410704 0.255483
0.654685 0.467509 0.255431
0.723457 0.279933 0.255592
0.724165 0.347785 0.255492
0.716479 0.404643 0.255494
0.721684 0.472962 0.255475
0.535949 0.279718 0.293767
0.536444 0.34785 0.293715
0.528639 0.404587 0.293668
0.534048 0.472981 0.293631
0.594467 0.285364 0.293784
0.594331 0.341773 0.29375
0.596945 0.410547 0.293676
0.592185 0.467575 0.293661
0.660928 0.279744 0.293783
0.661481 0.347749 0.293711
0.653604 0.404621 0.293714
0.658994 0.472902 0.293639
0.71924 0.285575 0.293768
0.719298 0.341811 0.293729
0.721893 0.410623 0.293634
0.717018 0.467618 0.293668
0.531853 0.285527 0.331911
0.531674 0.341883 0.331875
0.534431 0.410794 0.331846
0.529549 0.46761 0.331824
0.598347 0.279696 0.331979
0.598833 0.347953 0.331912
0.591005 0.404552 0.331877
0.596362 0.47304 0.331838
0.656772 0.285587 0.331957
0.656637 0.34174 0.331938
0.659392 0.410584 0.331835
0.654423 0.467538 0.331847
0.723176 0.279824 0.331948
0.723786 0.347955 0.331871
0.716102 0.404557 0.331822
0.721548 0.473056 0.331814
0.5353 0.279646 0.370102
0.536026 0.348074 0.370059
0.528699 0.404458 0.370063
0.53407 0.472923 0.370012
0.594534 0.285542 0.370105
0.593821 0.341848 0.370103
0.59683 0.410534 0.370028
0.591595 0.467677 0.370001
0.660484 0.279716 0.370126
0.661086 0.347957 0.370073
0.653585 0.404491 0.370021
0.658983 0.473042 0.369966
0.719398 0.28563 0.370053
0.718841 0.341881 0.370038
0.721727 0.410484 0.369964
0.716785 0.467757 0.370008
0.532887 0.285619 0.408206
0.530436 0.34184 0.408293
0.534084 0.410406 0.408248
0.529063 0.467905 0.40824
0.597032 0.279679 0.408314
0.597237 0.347915 0.408296
0.591241 0.404938 0.408232
0.596298 0.472604 0.408175
0.657632 0.285408 0.408187
0.655467 0.341804 0.408259
0.658998 0.410473 0.408179
0.654077 0.467934 0.408149
0.722221 0.279783 0.408234
0.722411 0.348143 0.40816
0.716213 0.405028 0.408199
0.721291 0.47248 0.408202
0.532199 0.279622 0.446514
0.533355 0.347338 0.446498
0.529019 0.405411 0.446557
0.5337 0.472246 0.446471
0.594787 0.285013 0.446457
0.591985 0.342518 0.446534
0.596077 0.409751 0.44644
0.591443 0.468071 0.446434
0.657511 0.279537 0.446468
0.658 0.347485 0.44641
0.653768 0.405584 0.446412
0.658703 0.47234 0.446389
0.720082 0.285129 0.446371
0.717227 0.342564 0.446449
0.721138 0.409716 0.446405
0.716461 0.468078 0.446418
0.531245 0.284006 0.484815
0.529632 0.342978 0.484734
0.532204 0.409219 0.484686
0.528644 0.468455 0.484688
0.593317 0.28056 0.484754
0.594706 0.34653 0.484718
0.591624 0.405969 0.484696
0.595485 0.471861 0.484674
0.655627 0.283734 0.484694
0.654362 0.343222 0.484627
0.657973 0.409414 0.484641
0.653853 0.468544 0.484709
0.718382 0.280495 0.484634
0.719556 0.346462 0.48463
0.716251 0.405853 0.484587
0.720399 0.471755 0.484589
0.502891 0.280559 0.275857
0.503075 0.345662 0.27603
0.749859 0.405826 0.467012
0.565447 0.283353 0.273378
0.565701 0.343239 0.273184
0.562726 0.408092 0.276313
0.562953 0.468414 0.273261
0.627863 0.280597 0.275844
0.628038 0.345793 0.276021
0.625346 0.405975 0.272884
0.625397 0.47065 0.275991
0.690372 0.283303 0.273366
0.690668 0.343313 0.273112
0.687775 0.408174 0.276351
0.687899 0.468249 0.273201
0.502798 0.282898 0.311567
0.502927 0.343567 0.311289
0.565345 0.281051 0.314056
0.565443 0.345152 0.314192
0.562683 0.406094 0.311031
0.56279 0.470387 0.314096
0.627809 0.282957 0.311615
0.62803 0.343624 0.31135
0.625111 0.407769 0.314608
0.625262 0.468477 0.311483
0.690267 0.281008 0.313998
0.690449 0.345312 0.314218
0.687779 0.406372 0.31096
0.687741 0.470349 0.314168
0.50272 0.281504 0.35209
0.502848 0.345027 0.352423
0.500308 0.406015 0.272823
0.565227 0.28247 0.349839
0.565273 0.344096 0.34946
0.562615 0.407729 0.352743
0.56276 0.468653 0.349485
0.627601 0.281461 0.352214
0.627737 0.345013 0.352518
0.625089 0.406528 0.349145
0.625111 0.470119 0.35244
0.690132 0.28244 0.3498
0.690305 0.343964 0.349462
0.687654 0.407758 0.352695
0.687746 0.468618 0.349498
0.502627 0.281111 0.388465
0.502533 0.345349 0.387681
0.564953 0.282853 0.389965
0.564999 0.343587 0.390552
0.562592 0.407348 0.38736
0.562508 0.469779 0.39062
0.627577 0.281104 0.388391
0.627485 0.345236 0.387716
0.625062 0.406863 0.390822
0.625085 0.469272 0.387596
0.689969 0.282699 0.390067
0.68998 0.3438 0.39051
0.687562 0.407417 0.387398
0.687535 0.469883 0.390594
0.502288 0.28434 0.42749
0.564985 0.279201 0.427098
0.562693 0.34648 0.426188
0.562354 0.405865 0.428881
0.562473 0.469755 0.425824
0.627266 0.284255 0.427481
0.625163 0.342644 0.4286
0.62492 0.407995 0.425824
0.624868 0.469397 0.428762
0.690142 0.279478 0.426996
0.687616 0.346393 0.426143
0.687241 0.406115 0.428876
0.687446 0.469857 0.425813
0.500225 0.342751 0.42878
0.749838 0.469258 0.42887
0.749886 0.346461 0.464667
0.562523 0.284368 0.465693
0.56237 0.342798 0.4666
0.562345 0.408021 0.464415
0.562381 0.469286 0.467002
0.624818 0.27954 0.465526
0.624834 0.34616 0.464691
0.624884 0.406056 0.466884
0.624918 0.469861 0.464139
0.687478 0.28453 0.465686
0.687175 0.342728 0.466354
0.687261 0.408195 0.464044
0.68723 0.469099 0.466986
0.500359 0.468663 0.311477
0.749936 0.469956 0.464196
0.74989 0.407986 0.425748
0.500234 0.469164 0.387591
0.500197 0.406449 0.349197
0.50011 0.407973 0.42595
0.500075 0.406915 0.390899
0.500196 0.470427 0.352336
0.500059 0.469345 0.428907
0.716761 0.375947 0.504497
0.561817 0.408653 0.504884
0.592039 0.250794 0.658011
0.532167 0.251015 0.503103
0.657841 0.250921 0.503018
0.52771 0.251025 0.542615
0.531952 0.31352 0.541745
0.528222 0.376014 0.542591
0.532518 0.438659 0.54154
0.595138 0.250908 0.541618
0.590889 0.313451 0.542501
0.594917 0.375991 0.541596
0.590938 0.438562 0.542623
0.653251 0.250906 0.542443
0.657588 0.313517 0.541597
0.653383 0.375928 0.542468
0.657722 0.438581 0.541544
0.720142 0.250902 0.541585
0.715789 0.31352 0.542564
0.720193 0.376124 0.54158
0.715711 0.438521 0.542455
0.529931 0.313477 0.580716
0.529884 0.376087 0.580183
0.529647 0.438558 0.580673
0.592426 0.313466 0.580218
0.592226 0.375982 0.580664
0.592232 0.438645 0.580233
0.65473 0.313455 0.580582
0.654891 0.37601 0.580194
0.654685 0.438441 0.580584
0.717564 0.313431 0.580248
0.717301 0.375993 0.580596
0.717344 0.438546 0.580188
0.529434 0.313424 0.619162
0.529552 0.375993 0.619258
0.529447 0.438488 0.619142
0.592121 0.313347 0.619252
0.591933 0.375923 0.619039
0.592071 0.438481 0.619343
0.654634 0.313398 0.619108
0.654748 0.375934 0.61923
0.654508 0.438479 0.619143
0.717213 0.313345 0.619256
0.717251 0.376004 0.619108
0.717025 0.438481 0.619232
0.529709 0.313453 0.65803
0.529711 0.375913 0.657912
0.529582 0.438375 0.658056
0.59228 0.313347 0.657903
0.592248 0.375897 0.65799
0.59217 0.438438 0.657946
0.65494 0.313357 0.657953
0.654853 0.375907 0.657895
0.654628 0.438429 0.657955
0.717292 0.313368 0.657854
0.717085 0.375945 0.657879
0.717232 0.43842 0.657933
0.529477 0.250951 0.696786
0.529934 0.313525 0.696803
0.529836 0.376021 0.696844
0.52964 0.438452 0.696789
0.592207 0.250862 0.696897
0.592173 0.313408 0.696727
0.592333 0.375908 0.696793
0.592146 0.438495 0.696737
0.654564 0.25079 0.696746
0.654846 0.3133 0.696846
0.65468 0.375901 0.696767
0.654628 0.438453 0.696726
0.717141 0.250763 0.696721
0.717165 0.313332 0.696704
0.717029 0.375814 0.696752
0.717117 0.438325 0.696813
0.52964 0.251064 0.735655
0.52991 0.31354 0.735542
0.529987 0.376001 0.735532
0.530085 0.43842 0.735628
0.592327 0.250825 0.735677
0.592273 0.31344 0.735614
0.592323 0.375997 0.735667
0.59205 0.438525 0.735624
0.654734 0.250724 0.735696
0.654652 0.313334 0.735522
0.654638 0.375991 0.735564
0.65455 0.43852 0.735535
0.717103 0.250866 0.735645
0.716916 0.313356 0.735653
0.716918 0.375795 0.735628
0.716828 0.438359 0.735557
0.530533 0.281234 0.523073
0.531507 0.345924 0.522992
0.528997 0.406303 0.522955
0.532168 0.471252 0.522953
0.593181 0.283209 0.523007
0.592035 0.343859 0.522926
0.594775 0.40845 0.522897
0.591638 0.468854 0.523019
0.655912 0.281309 0.522915
0.656965 0.345873 0.522887
0.654258 0.406308 0.522926
0.657404 0.471133 0.522963
0.718473 0.283429 0.522904
0.717413 0.343806 0.522899
0.72013 0.408523 0.522809
0.716937 0.468773 0.522875
0.530652 0.282859 0.561364
0.529918 0.344277 0.561338
0.531754 0.408028 0.561219
0.52983 0.469284 0.561326
0.593141 0.28168 0.56124
0.59377 0.345309 0.561219
0.592 0.40669 0.56124
0.594095 0.470506 0.561315
0.655705 0.282679 0.561255
0.655142 0.344183 0.561246
0.65673 0.407689 0.561186
0.654734 0.469154 0.561305
0.718156 0.281706 0.561268
0.718965 0.345298 0.561236
0.717346 0.406865 0.561226
0.719239 0.470328 0.561174
0.529446 0.281917 0.599899
0.529627 0.344969 0.599867
0.529307 0.407105 0.599859
0.529494 0.469987 0.59991
0.592236 0.282356 0.599837
0.591723 0.344456 0.599851
0.592263 0.407529 0.599858
0.591709 0.469559 0.599977
0.654721 0.281824 0.599851
0.655015 0.344842 0.599828
0.654307 0.407129 0.599837
0.654951 0.469964 0.599861
0.717186 0.282251 0.599838
0.717163 0.344524 0.599869
0.717533 0.407457 0.599818
0.716735 0.469599 0.599845
0.529858 0.282285 0.638685
0.529864 0.344695 0.63862
0.529889 0.407295 0.638632
0.529418 0.469608 0.638654
0.592323 0.281924 0.638592
0.5923 0.344773 0.638562
0.59211 0.407074 0.638608
0.592286 0.469777 0.638669
0.654865 0.282138 0.638607
0.654861 0.344572 0.638552
0.654926 0.407263 0.638554
0.654674 0.469613 0.638628
0.717276 0.281982 0.638575
0.717475 0.344687 0.638562
0.717278 0.407188 0.638592
0.717462 0.469748 0.638629
0.529879 0.282204 0.677441
0.529921 0.344839 0.6774
0.529891 0.406973 0.67743
0.529714 0.469633 0.67742
0.592461 0.282088 0.677394
0.592415 0.344567 0.677362
0.592372 0.407169 0.677375
0.592189 0.469724 0.677392
0.654883 0.282043 0.677378
0.65487 0.344588 0.677352
0.654918 0.407121 0.677332
0.65482 0.469829 0.677383
0.717351 0.282044 0.67733
0.71738 0.34463 0.677316
0.71755 0.407162 0.677336
0.717251 0.469596 0.677393
0.529957 0.28223 0.71621
0.530058 0.34487 0.716197
0.530118 0.407316 0.716215
0.529855 0.46979 0.716253
0.592424 0.282096 0.716232
0.592655 0.344608 0.716201
0.592555 0.4072 0.716203
0.592452 0.469837 0.716205
0.654897 0.281922 0.716153
0.654674 0.344711 0.716157
0.654907 0.407216 0.71614
0.654715 0.469736 0.716163
0.717295 0.282171 0.716171
0.717364 0.344585 0.716134
0.717144 0.407011 0.716122
0.71725 0.469614 0.71617
0.74925 0.342452 0.54154
0.624733 0.346448 0.504622
0.748888 0.407137 0.735385
0.749263 0.28222 0.579472
0.749351 0.282029 0.619087
0.749152 0.467412 0.541312
0.561595 0.279912 0.542154
0.561661 0.346809 0.542644
0.561606 0.405152 0.541148
0.561793 0.472143 0.542937
0.624429 0.284578 0.542057
0.624303 0.34249 0.541521
0.624283 0.409438 0.542789
0.624241 0.467612 0.541306
0.686786 0.279936 0.542151
0.68694 0.346997 0.542534
0.686754 0.405021 0.541229
0.68683 0.472215 0.542892
0.749289 0.469836 0.658071
0.749309 0.34463 0.619061
0.749238 0.34455 0.696611
0.749028 0.469508 0.619026
0.561616 0.282364 0.579655
0.561526 0.344695 0.579265
0.561586 0.407449 0.58011
0.561276 0.469784 0.579332
0.624159 0.282108 0.579611
0.624111 0.344847 0.579918
0.62384 0.407188 0.5791
0.624089 0.469994 0.58023
0.686577 0.282277 0.579555
0.686719 0.344628 0.579363
0.686727 0.407396 0.580034
0.686523 0.469687 0.579085
0.749343 0.40963 0.542856
0.749404 0.407158 0.657968
0.749039 0.344705 0.735682
0.686998 0.467883 0.502639
0.56153 0.282139 0.619131
0.561612 0.344508 0.619331
0.561576 0.407351 0.618997
0.561295 0.469835 0.619323
0.624236 0.281947 0.619173
0.62413 0.344876 0.61899
0.624132 0.406972 0.619218
0.623995 0.469948 0.619018
0.686735 0.282092 0.619085
0.686893 0.344674 0.619235
0.68672 0.407342 0.618962
0.686659 0.469848 0.619283
0.749176 0.46952 0.696688
0.562093 0.342906 0.503101
0.749043 0.282122 0.735554
0.749209 0.406967 0.696865
0.561743 0.282014 0.65806
0.561872 0.344652 0.657902
0.561769 0.407187 0.65805
0.561518 0.469794 0.657873
0.624245 0.282186 0.657929
0.624312 0.344623 0.657954
0.624277 0.40708 0.657991
0.624267 0.469703 0.657968
0.686829 0.281991 0.657879
0.686833 0.344766 0.65782
0.686844 0.407274 0.657999
0.686757 0.469657 0.65794
0.594537 0.438587 0.502899
0.749287 0.407397 0.619237
0.749075 0.407135 0.579087
0.748979 0.469636 0.735667
0.561853 0.282216 0.696744
0.561929 0.34481 0.696796
0.561843 0.407229 0.696766
0.561589 0.46978 0.696897
0.624254 0.282079 0.696753
0.624378 0.344513 0.696728
0.62427 0.407245 0.696577
0.624216 0.469719 0.696795
0.686832 0.281957 0.696649
0.686761 0.344696 0.69671
0.686695 0.407175 0.696626
0.686716 0.469686 0.696793
0.624578 0.405547 0.502687
0.749343 0.344804 0.657904
0.749173 0.281962 0.696761
0.561854 0.468177 0.502718
0.562031 0.282082 0.735604
0.562063 0.344853 0.735505
0.562097 0.407281 0.735592
0.561865 0.469901 0.735642
0.624259 0.281911 0.735612
0.624357 0.344694 0.735747
0.624318 0.407327 0.735669
0.624227 0.469665 0.735615
0.686638 0.281939 0.735641
0.686654 0.344636 0.735409
0.686607 0.407043 0.735559
0.686634 0.469905 0.7357
0.529538 0.313414 0.504764
0.749146 0.469683 0.580052
0.687223 0.409009 0.505039
0.687236 0.283963 0.503781
0.591857 0.250913 0.504729
0.562179 0.283642 0.503957
0.529748 0.250975 0.580324
0.591801 0.376035 0.504515
0.529191 0.438579 0.504587
0.595245 0.313471 0.503025
0.716653 0.250984 0.504661
0.52957 0.250927 0.658079
0.654309 0.313468 0.504462
0.592135 0.250863 0.619106
0.62448 0.47137 0.505144
0.717374 0.250769 0.657972
0.654544 0.250801 0.658013
0.654228 0.438566 0.504606
0.720416 0.313416 0.502881
0.717372 0.25089 0.580634
0.654996 0.250795 0.580168
0.654555 0.250787 0.619365
0.532391 0.375914 0.502896
0.657781 0.376048 0.502801
0.52937 0.250895 0.619375
0.717208 0.25081 0.619134
0.592205 0.250953 0.580631
0.624681 0.280326 0.503942
0.749374 0.28211 0.657783
0.687155 0.342742 0.503078
0.720301 0.438573 0.502772
0.749762 0.471537 0.504838
0.749273 0.284581 0.542096
0.749253 0.344816 0.579861
0.749652 0.405168 0.502379
0.749698 0.346593 0.504429
0.749853 0.280159 0.503646
0.529313 0.251007 0.774402
0.529137 0.313476 0.774407
0.529447 0.375933 0.774408
0.529747 0.438435 0.774478
0.592058 0.250869 0.774529
0.592307 0.313353 0.774474
0.592261 0.375908 0.774528
0.592349 0.438445 0.774426
0.654692 0.250769 0.774528
0.654656 0.313363 0.77451
0.654415 0.375871 0.774488
0.654912 0.438375 0.774461
0.717052 0.250878 0.774581
0.716942 0.313347 0.774528
0.717147 0.375804 0.77437
0.716861 0.438291 0.774404
0.529527 0.250912 0.813373
0.530111 0.31346 0.81328
0.529994 0.375935 0.813388
0.530277 0.438429 0.813354
0.592156 0.250874 0.813337
0.592012 0.31329 0.813261
0.592627 0.375818 0.81332
0.592596 0.438447 0.813238
0.654835 0.250818 0.813366
0.654958 0.313274 0.813382
0.655048 0.375789 0.813271
0.654853 0.438383 0.813407
0.717105 0.250844 0.813415
0.717167 0.313312 0.813315
0.716957 0.375756 0.813419
0.717114 0.438329 0.813402
0.529789 0.250808 0.852293
0.530019 0.313325 0.852265
0.530545 0.375876 0.852164
0.530273 0.43846 0.852059
0.592211 0.250732 0.852045
0.59306 0.313276 0.852126
0.592615 0.375897 0.852076
0.592644 0.438443 0.852103
0.655115 0.250654 0.852304
0.654766 0.313235 0.852103
0.655099 0.375785 0.85226
0.655239 0.438365 0.852077
0.717118 0.250871 0.852177
0.717344 0.313276 0.852306
0.717635 0.375714 0.852171
0.717601 0.438308 0.852312
0.530031 0.313357 0.891147
0.530543 0.375817 0.89085
0.530922 0.438354 0.890995
0.592672 0.313243 0.890912
0.59272 0.375824 0.890973
0.592815 0.438388 0.890847
0.655174 0.3132 0.891023
0.655357 0.375752 0.890948
0.655236 0.438346 0.891134
0.717368 0.313239 0.891026
0.717559 0.375713 0.891151
0.717732 0.438232 0.890936
0.529902 0.31331 0.929598
0.530343 0.375788 0.930034
0.530658 0.438313 0.92964
0.592858 0.313275 0.929974
0.592589 0.375791 0.92964
0.592795 0.438337 0.929955
0.654782 0.313246 0.92967
0.655047 0.37568 0.929965
0.655375 0.43829 0.929654
0.717915 0.31317 0.930035
0.717591 0.375672 0.929641
0.717888 0.438172 0.929992
0.530422 0.313239 0.969339
0.530885 0.375632 0.968048
0.531187 0.438213 0.969009
0.593519 0.313147 0.968101
0.593299 0.375713 0.969157
0.5932 0.438208 0.968107
0.500345 0.406997 0.969046
0.655524 0.313224 0.969314
0.655731 0.375635 0.968069
0.656032 0.438184 0.969122
0.718412 0.313146 0.968066
0.718197 0.375655 0.969096
0.718172 0.438083 0.96807
0.532818 0.280218 0.98785
0.532915 0.346111 0.987856
0.530661 0.405786 0.987845
0.532865 0.470602 0.987871
0.594397 0.283566 0.98786
0.593183 0.34297 0.987818
0.595215 0.408526 0.987854
0.593497 0.468263 0.987865
0.657635 0.280136 0.987809
0.657948 0.346144 0.987841
0.655701 0.405714 0.987867
0.657549 0.470686 0.987876
0.719495 0.28358 0.987835
0.718151 0.342951 0.987793
0.720287 0.408302 0.987822
0.718557 0.468247 0.987826
0.530025 0.282243 0.754983
0.530063 0.344608 0.754995
0.529841 0.407139 0.755036
0.529844 0.469633 0.755094
0.592406 0.282085 0.755095
0.592659 0.344676 0.755091
0.592548 0.407284 0.755091
0.592422 0.469873 0.755101
0.654773 0.282031 0.755049
0.655037 0.344575 0.755042
0.654821 0.40725 0.755049
0.654917 0.469727 0.755042
0.717111 0.282178 0.755075
0.716971 0.344502 0.755012
0.71714 0.406991 0.754983
0.717228 0.469622 0.755021
0.529625 0.282148 0.793921
0.529911 0.344789 0.793916
0.530035 0.407129 0.793949
0.530177 0.469563 0.793875
0.592335 0.282037 0.7939
0.592581 0.344529 0.793898
0.592697 0.407097 0.793891
0.592557 0.469689 0.793871
0.654936 0.282136 0.793921
0.655032 0.344472 0.793913
0.655066 0.407104 0.79392
0.655148 0.469686 0.793943
0.717099 0.282092 0.793964
0.717112 0.344547 0.79393
0.717295 0.407006 0.793904
0.717303 0.469569 0.793971
0.529965 0.282063 0.832774
0.530328 0.344704 0.832765
0.530368 0.407272 0.832754
0.530469 0.469756 0.832699
0.592523 0.281993 0.832671
0.59278 0.344522 0.832696
0.592888 0.407153 0.832704
0.592946 0.46968 0.83265
0.655114 0.281942 0.832776
0.655088 0.344522 0.832747
0.65519 0.406904 0.832789
0.655239 0.469752 0.83276
0.717439 0.282166 0.832816
0.717503 0.344399 0.832865
0.717449 0.407152 0.832848
0.717547 0.469553 0.832896
0.530444 0.282153 0.871616
0.530428 0.344443 0.871539
0.530578 0.407126 0.871509
0.530702 0.469517 0.871502
0.592815 0.281875 0.871555
0.592892 0.344746 0.871502
0.592959 0.407182 0.871524
0.593117 0.469777 0.871506
0.655044 0.28201 0.871583
0.655429 0.344285 0.871569
0.655307 0.407165 0.871593
0.655371 0.469538 0.871549
0.717764 0.281936 0.87164
0.717704 0.344593 0.871647
0.717645 0.406896 0.871668
0.717843 0.469616 0.871685
0.530425 0.281832 0.910384
0.530776 0.344898 0.910392
0.530886 0.40682 0.91035
0.530996 0.469706 0.910321
0.592734 0.282239 0.910386
0.592978 0.344367 0.910339
0.593173 0.407114 0.910395
0.593203 0.469474 0.910346
0.655211 0.281817 0.910406
0.655399 0.344627 0.910395
0.655278 0.406884 0.910418
0.655566 0.46979 0.910395
0.717496 0.282082 0.910434
0.717701 0.344209 0.910428
0.718182 0.407173 0.910429
0.717986 0.469322 0.91042
0.530121 0.282691 0.949192
0.530304 0.343855 0.949219
0.53082 0.407426 0.94918
0.530464 0.46923 0.949178
0.592838 0.281351 0.949221
0.593346 0.344951 0.949231
0.592709 0.406595 0.949208
0.593366 0.469975 0.949166
0.655217 0.282592 0.949192
0.655087 0.343853 0.9492
0.655909 0.407354 0.949193
0.655377 0.469121 0.94922
0.717975 0.281345 0.949177
0.718202 0.344921 0.949182
0.717737 0.406421 0.949182
0.718356 0.469927 0.949204
0.654911 0.250673 0.890939
0.500045 0.344654 0.969965
0.561429 0.28227 0.774551
0.561656 0.344535 0.77444
0.561775 0.407059 0.774446
0.561885 0.4697 0.774452
0.624277 0.282008 0.77454
0.62443 0.344635 0.774434
0.624457 0.407264 0.774591
0.624442 0.469541 0.774568
0.686555 0.281871 0.774419
0.686758 0.344738 0.774535
0.686798 0.406907 0.774478
0.686797 0.469572 0.774444
0.749185 0.2822 0.81338
0.592135 0.250765 0.929655
0.748972 0.469572 0.774456
0.561876 0.281987 0.813237
0.562183 0.344647 0.813394
0.562291 0.407145 0.813381
0.562136 0.470118 0.8134
0.624417 0.282103 0.81324
0.624565 0.344456 0.813228
0.62465 0.407218 0.813268
0.624707 0.469607 0.813197
0.686909 0.281814 0.813413
0.686998 0.34466 0.813388
0.686928 0.407082 0.813345
0.687039 0.469645 0.813428
0.749108 0.344476 0.813384
0.748929 0.282308 0.774506
0.748999 0.407282 0.774339
0.562076 0.282226 0.852139
0.56233 0.344361 0.852168
0.5625 0.407233 0.852158
0.562286 0.470007 0.85207
0.62448 0.28154 0.852106
0.624697 0.344735 0.852124
0.624748 0.407087 0.852117
0.624768 0.469424 0.852059
0.686875 0.282102 0.852256
0.687038 0.344374 0.852182
0.687148 0.406888 0.852287
0.687212 0.469751 0.852198
0.500355 0.469128 0.969975
0.748991 0.406987 0.813369
0.500169 0.407278 0.890911
0.748966 0.344111 0.774291
0.562334 0.282106 0.891038
0.562464 0.344328 0.890896
0.562671 0.407149 0.891092
0.562675 0.469835 0.890937
0.624715 0.281903 0.891068
0.624753 0.344582 0.890853
0.624823 0.406966 0.890898
0.625038 0.469591 0.890935
0.687059 0.28193 0.890988
0.687185 0.344587 0.891052
0.687198 0.407014 0.891142
0.687369 0.469528 0.891002
0.52998 0.25079 0.930086
0.500269 0.469109 0.9296
0.562114 0.282018 0.929911
0.562373 0.344402 0.930019
0.562618 0.407013 0.929767
0.562632 0.469936 0.929799
0.624607 0.281753 0.929754
0.624751 0.344564 0.92978
0.624869 0.406813 0.930046
0.625068 0.469538 0.929778
0.687091 0.282284 0.930029
0.687238 0.344248 0.929856
0.687389 0.406992 0.929641
0.687464 0.469576 0.929945
0.717156 0.250801 0.929607
0.50012 0.40728 0.92983
0.749623 0.469309 0.85236
0.656026 0.250724 0.968015
0.562398 0.282478 0.969153
0.562617 0.344105 0.968964
0.562553 0.406816 0.969875
0.562943 0.46965 0.969066
0.624881 0.281359 0.96956
0.624976 0.344515 0.969968
0.625186 0.40702 0.969033
0.625164 0.469125 0.96992
0.687369 0.282466 0.969191
0.687556 0.344155 0.968994
0.687532 0.406746 0.969939
0.687795 0.469431 0.969152
0.592417 0.250721 0.96945
0.717193 0.250819 0.969343
0.65491 0.250778 0.93006
0.749192 0.46967 0.813464
0.749772 0.407069 0.891066
0.749933 0.469349 0.891171
0.530323 0.250865 0.890961
0.530995 0.250797 0.96809
0.592387 0.250733 0.891135
0.717425 0.250797 0.891138
0.74954 0.282181 0.891239
0.74969 0.281781 0.929752
0.749555 0.344412 0.85233
0.749408 0.282301 0.852178
0.7495 0.40708 0.852302
0.749637 0.344333 0.891168
0.50021 0.469302 0.89097
0.749864 0.344521 0.9297
0.749793 0.281342 0.969519
0.749826 0.344525 0.969884
0.749951 0.406842 0.929932
0.530104 0.500763 0.00774261
0.533686 0.563255 0.00603934
0.530346 0.625902 0.00759597
0.533622 0.688391 0.00620344
0.596219 0.500654 0.00601378
0.592685 0.563257 0.00759998
0.596129 0.625771 0.00604111
0.592761 0.688458 0.00758703
0.655175 0.500705 0.00774302
0.658641 0.563213 0.00605619
0.655326 0.625866 0.0076307
0.658473 0.688429 0.00616163
0.721029 0.500583 0.00597159
0.717868 0.563183 0.00762536
0.720886 0.62576 0.00605117
0.717767 0.688481 0.00762792
0.533957 0.500755 0.0439757
0.530617 0.563324 0.0461492
0.53414 0.625835 0.044075
0.530508 0.688495 0.0461998
0.593046 0.500818 0.0463116
0.596379 0.563239 0.0440198
0.592956 0.625831 0.0461181
0.596454 0.688389 0.0439997
0.658794 0.500679 0.0439985
0.65556 0.563305 0.0461742
0.658668 0.625758 0.0440946
0.655346 0.688458 0.0461372
0.718003 0.500716 0.0462562
0.72125 0.563236 0.0440585
0.717909 0.625838 0.0460871
0.721191 0.688406 0.044035
0.53118 0.500869 0.0847359
0.533634 0.563356 0.0820456
0.530704 0.625984 0.084588
0.533844 0.688459 0.0819545
0.596042 0.500823 0.0820636
0.593476 0.563431 0.0846756
0.596334 0.625942 0.0820847
0.592979 0.688466 0.0845986
0.656056 0.500859 0.0847549
0.658491 0.563299 0.0821118
0.655626 0.625906 0.0845385
0.658725 0.68851 0.0820077
0.720866 0.500816 0.0820533
0.718182 0.563397 0.0845655
0.720873 0.625908 0.0820924
0.717795 0.688475 0.0846022
0.533549 0.500946 0.120147
0.530873 0.563524 0.12294
0.533646 0.626007 0.120139
0.530853 0.68854 0.122962
0.593401 0.500928 0.123053
0.596094 0.563437 0.120093
0.593385 0.625997 0.122971
0.596014 0.688527 0.120187
0.658486 0.500881 0.120128
0.655828 0.563454 0.122944
0.658509 0.625939 0.120126
0.655664 0.688549 0.122926
0.718347 0.500895 0.123033
0.720989 0.563396 0.1202
0.718243 0.625961 0.122902
0.720886 0.688517 0.120102
0.530925 0.501053 0.161289
0.533529 0.563504 0.158351
0.530819 0.626071 0.161161
0.533508 0.688574 0.158289
0.596 0.50098 0.158311
0.593363 0.563519 0.161254
0.595951 0.625978 0.158326
0.593258 0.688564 0.16114
0.655869 0.50097 0.161259
0.658381 0.563455 0.158246
0.655784 0.625986 0.161198
0.658307 0.688539 0.158243
0.720917 0.500931 0.158261
0.718497 0.563472 0.161204
0.720731 0.625999 0.158297
0.718122 0.688563 0.161208
0.533362 0.501107 0.1965
0.530694 0.563553 0.199483
0.533448 0.626081 0.196421
0.530628 0.688571 0.199356
0.59325 0.501013 0.199588
0.595948 0.563534 0.196503
0.593088 0.62603 0.199424
0.595663 0.688544 0.19637
0.658274 0.500983 0.19641
0.655644 0.563467 0.199487
0.658294 0.625993 0.196438
0.655628 0.688502 0.199321
0.718308 0.501001 0.199582
0.720792 0.563446 0.196516
0.718116 0.626007 0.199363
0.720699 0.688502 0.196411
0.530869 0.501138 0.237802
0.533187 0.563639 0.234565
0.530669 0.626095 0.237676
0.533244 0.68854 0.234615
0.595545 0.501039 0.234676
0.593246 0.563571 0.237789
0.5957 0.626074 0.234586
0.59296 0.688545 0.237611
0.655819 0.500997 0.237889
0.658085 0.56351 0.234676
0.655414 0.626059 0.237582
0.658285 0.68852 0.234546
0.720505 0.500952 0.234685
0.718187 0.563488 0.237686
0.720642 0.625984 0.234677
0.717858 0.688508 0.237605
0.533831 0.533885 0.026102
0.530608 0.593354 0.0260765
0.533821 0.658905 0.0261205
0.530245 0.718515 0.0261612
0.59313 0.530619 0.0260664
0.59637 0.59627 0.0260567
0.592974 0.65584 0.0260516
0.596343 0.72161 0.0261046
0.658794 0.533827 0.026096
0.65545 0.593217 0.0260458
0.658708 0.658801 0.0260934
0.655197 0.718444 0.0260887
0.717897 0.530598 0.0260638
0.721327 0.596324 0.0260419
0.717731 0.655849 0.0260433
0.721262 0.721581 0.0261094
0.530204 0.530394 0.0643461
0.534224 0.596863 0.0643346
0.530113 0.655553 0.0643147
0.53397 0.722195 0.0643601
0.596706 0.534487 0.0643542
0.59265 0.593001 0.0643271
0.596568 0.659405 0.0643129
0.592306 0.71803 0.0643318
0.655184 0.530368 0.0643361
0.659124 0.596705 0.0643394
0.655008 0.655618 0.0642911
0.659067 0.722178 0.0642956
0.721636 0.534315 0.064326
0.717587 0.593069 0.0642795
0.721386 0.659378 0.0643036
0.717316 0.717989 0.0643403
0.534318 0.5348 0.10258
0.530189 0.592929 0.102559
0.534182 0.659836 0.102539
0.52986 0.717823 0.102537
0.59249 0.530333 0.102581
0.596777 0.597383 0.102578
0.592516 0.655471 0.102562
0.596599 0.722375 0.102532
0.659303 0.534683 0.102581
0.654867 0.592824 0.102544
0.659187 0.659805 0.102512
0.654792 0.71792 0.102526
0.717405 0.530295 0.102577
0.721926 0.597202 0.102556
0.717273 0.655404 0.102547
0.72148 0.722429 0.102527
0.530123 0.530296 0.14079
0.534404 0.597519 0.140789
0.529893 0.655399 0.140738
0.534335 0.722548 0.140748
0.596763 0.535029 0.140797
0.592431 0.59281 0.140778
0.596598 0.659999 0.140764
0.592304 0.71785 0.14074
0.654941 0.530243 0.140775
0.659344 0.597496 0.140742
0.654771 0.655322 0.140748
0.659182 0.722623 0.140769
0.721771 0.534912 0.14077
0.717264 0.592827 0.140785
0.721614 0.659999 0.140737
0.717078 0.717833 0.140744
0.534334 0.535065 0.179016
0.529691 0.592808 0.178984
0.53426 0.660137 0.178943
0.529733 0.717763 0.178962
0.59233 0.530274 0.179022
0.596752 0.597625 0.178993
0.592327 0.655244 0.178952
0.596704 0.72265 0.178939
0.659185 0.535079 0.178985
0.654835 0.592666 0.178964
0.659049 0.660071 0.178948
0.654613 0.717654 0.178926
0.717364 0.530199 0.178988
0.721645 0.597405 0.178979
0.717042 0.655269 0.178943
0.721496 0.722729 0.178957
0.529779 0.53019 0.217224
0.53415 0.597777 0.217166
0.529786 0.655319 0.217182
0.533836 0.722656 0.217168
0.596655 0.5352 0.217249
0.592291 0.592783 0.217196
0.596543 0.66015 0.217159
0.592099 0.717724 0.217148
0.65476 0.530088 0.217231
0.659277 0.597651 0.217192
0.65454 0.655349 0.217127
0.658866 0.72255 0.21712
0.721595 0.535081 0.21723
0.717055 0.592656 0.217179
0.721537 0.660059 0.217157
0.71706 0.71759 0.217138
0.500579 0.595935 0.199603
0.500853 0.592724 0.00620571
0.500642 0.717617 0.00617131
0.563245 0.530037 0.00618717
0.563158 0.596196 0.00789221
0.563282 0.655223 0.00615021
0.563 0.721269 0.00807947
0.625628 0.53358 0.00784012
0.625711 0.59255 0.00611302
0.625536 0.658679 0.00793515
0.625578 0.717878 0.00603431
0.688203 0.530067 0.0061643
0.688132 0.59599 0.00786605
0.688099 0.655414 0.00608557
0.687961 0.721244 0.00805811
0.500971 0.530112 0.0441606
0.500842 0.533191 0.0848096
0.500925 0.592977 0.0822232
0.563309 0.533535 0.046472
0.563418 0.59258 0.0440953
0.563291 0.6587 0.0464221
0.563246 0.717602 0.0441236
0.625857 0.529982 0.0441558
0.625733 0.596009 0.0464083
0.625722 0.655069 0.044116
0.625565 0.721336 0.046505
0.68823 0.533415 0.0463953
0.688262 0.592632 0.0440431
0.688086 0.658561 0.0463808
0.688118 0.717696 0.0440174
0.500476 0.658413 0.23781
0.500437 0.533339 0.237779
0.5005 0.720915 0.199551
0.563383 0.530499 0.0822795
0.563301 0.595829 0.0848322
0.563312 0.65522 0.0822396
0.563109 0.721301 0.0848336
0.625779 0.533075 0.0847983
0.625792 0.59294 0.0821946
0.625682 0.658578 0.0847151
0.625576 0.717745 0.0821554
0.688275 0.530596 0.0821488
0.688185 0.595768 0.084814
0.688124 0.655374 0.0820949
0.688035 0.72129 0.0848059
0.500657 0.717675 0.0821619
0.500851 0.595881 0.123046
0.500867 0.655083 0.0441015
0.563298 0.533183 0.123089
0.563321 0.593055 0.120453
0.563257 0.65832 0.123001
0.563141 0.718152 0.120335
0.625736 0.530581 0.120461
0.625738 0.59572 0.123166
0.625721 0.65555 0.120423
0.625546 0.720914 0.123096
0.688209 0.533181 0.123133
0.688209 0.592986 0.120343
0.688055 0.658362 0.123129
0.688003 0.718116 0.120378
0.500743 0.658475 0.0847327
0.563249 0.53066 0.15859
0.563196 0.595727 0.161398
0.563186 0.655679 0.158587
0.563121 0.720899 0.161346
0.62566 0.533199 0.161337
0.625705 0.593126 0.158561
0.625605 0.658227 0.161285
0.625525 0.718167 0.158524
0.688176 0.530676 0.158563
0.688096 0.595593 0.161402
0.688045 0.655692 0.158572
0.688001 0.720842 0.161401
0.500922 0.596188 0.0463884
0.5007 0.72093 0.123098
0.563124 0.533281 0.199577
0.563063 0.593117 0.196818
0.563037 0.658413 0.199492
0.56297 0.718221 0.196873
0.625572 0.530557 0.196842
0.625601 0.595774 0.199583
0.625448 0.655654 0.196799
0.62546 0.72075 0.199526
0.688056 0.533177 0.199549
0.688012 0.593126 0.196765
0.687917 0.658267 0.199552
0.68788 0.718143 0.196747
0.500658 0.658587 0.00787409
0.500491 0.59329 0.235026
0.500666 0.718139 0.15856
0.563051 0.530929 0.235068
0.562948 0.595758 0.237725
0.562966 0.655667 0.235049
0.562839 0.720847 0.237723
0.625458 0.533021 0.237813
0.62543 0.593213 0.234975
0.625373 0.658446 0.237761
0.625353 0.718029 0.235046
0.687989 0.53069 0.235082
0.687913 0.595793 0.237883
0.687829 0.655503 0.234961
0.687745 0.72096 0.237687
0.500883 0.53063 0.120412
0.500775 0.533307 0.161309
0.500632 0.721236 0.0464928
0.500732 0.533711 0.00779335
0.500438 0.718007 0.235085
0.500645 0.658398 0.161317
0.500802 0.655583 0.1204
0.500769 0.593179 0.158503
0.500545 0.65557 0.196844
0.500617 0.53065 0.196848
0.533033 0.501141 0.272816
0.53056 0.563649 0.275936
0.533205 0.626075 0.272886
0.530357 0.688468 0.275872
0.593183 0.501087 0.276087
0.595612 0.56359 0.272804
0.593024 0.626085 0.275963
0.595646 0.688515 0.272849
0.658029 0.501002 0.272818
0.655641 0.563547 0.275942
0.658051 0.626083 0.272816
0.655273 0.68854 0.2759
0.718155 0.501036 0.27604
0.720656 0.563539 0.272892
0.717797 0.626028 0.275822
0.720574 0.688525 0.272761
0.530869 0.501076 0.314221
0.532657 0.563538 0.311133
0.530561 0.626037 0.314096
0.532906 0.688469 0.311078
0.595115 0.50105 0.311017
0.593238 0.563537 0.314184
0.595315 0.626004 0.311113
0.592721 0.68853 0.314127
0.65582 0.501024 0.314237
0.657765 0.563526 0.311015
0.655537 0.626088 0.314102
0.657869 0.688477 0.310984
0.720234 0.501121 0.31102
0.718127 0.563547 0.314109
0.720254 0.626031 0.311142
0.717772 0.688482 0.31407
0.532582 0.501088 0.349271
0.530482 0.563579 0.3523
0.532677 0.625972 0.349303
0.530303 0.688454 0.352324
0.593181 0.501034 0.352431
0.595266 0.563541 0.349336
0.592867 0.625997 0.352281
0.595206 0.688508 0.34933
0.657467 0.501103 0.349247
0.655374 0.563548 0.352331
0.657746 0.626001 0.349326
0.65528 0.688491 0.352429
0.718181 0.501086 0.352433
0.720228 0.563568 0.349334
0.71771 0.626022 0.352256
0.720108 0.688458 0.349329
0.530892 0.501083 0.390579
0.532304 0.563585 0.38761
0.530335 0.626044 0.390488
0.532401 0.688478 0.387666
0.594542 0.501122 0.387599
0.593082 0.563565 0.390476
0.594801 0.626076 0.387643
0.592759 0.688589 0.39051
0.655912 0.501119 0.390536
0.657355 0.5636 0.387641
0.6553 0.626094 0.390529
0.657226 0.688519 0.387631
0.719507 0.501087 0.387658
0.717884 0.56358 0.390461
0.719835 0.626119 0.387678
0.717611 0.688553 0.390407
0.531477 0.501185 0.426045
0.53066 0.56364 0.428577
0.531844 0.626129 0.425971
0.530262 0.68859 0.428664
0.593697 0.501094 0.428609
0.594076 0.563717 0.425971
0.592947 0.626095 0.428489
0.594352 0.688512 0.426084
0.656243 0.501142 0.425955
0.655742 0.56361 0.428567
0.657004 0.626038 0.426071
0.655406 0.688512 0.428682
0.718781 0.501112 0.428627
0.719197 0.56362 0.425991
0.717901 0.626107 0.428492
0.719267 0.688663 0.426171
0.531292 0.501041 0.466606
0.531704 0.563595 0.464435
0.531015 0.626018 0.466593
0.531747 0.688558 0.464383
0.593613 0.5011 0.464405
0.593176 0.563516 0.466502
0.594199 0.62607 0.464624
0.593124 0.688494 0.466656
0.656101 0.501051 0.466619
0.656411 0.563545 0.464488
0.655672 0.625984 0.466568
0.656597 0.688442 0.464506
0.718479 0.501066 0.464299
0.718344 0.563511 0.466479
0.718936 0.62604 0.464446
0.718288 0.688571 0.46649
0.749733 0.656384 0.425932
0.749826 0.532061 0.466993
0.53407 0.535383 0.255411
0.529665 0.592776 0.255394
0.534142 0.660201 0.255422
0.529608 0.717621 0.255376
0.592149 0.530105 0.255467
0.596568 0.598001 0.2554
0.592017 0.655243 0.255408
0.596249 0.722581 0.255386
0.659008 0.535334 0.255442
0.654516 0.592717 0.255384
0.658988 0.660195 0.255363
0.654427 0.717671 0.255352
0.717061 0.530207 0.255444
0.721773 0.597558 0.255388
0.716892 0.655232 0.255358
0.72133 0.722747 0.255332
0.529588 0.530187 0.293647
0.533853 0.597704 0.293627
0.529507 0.655289 0.293631
0.533636 0.722625 0.293592
0.596481 0.535352 0.293634
0.592119 0.592639 0.293611
0.596358 0.660244 0.293651
0.591965 0.717617 0.293601
0.654481 0.530077 0.293626
0.658905 0.59776 0.293593
0.654498 0.655142 0.293602
0.658708 0.722746 0.293578
0.721456 0.535291 0.29361
0.716953 0.592772 0.293608
0.721332 0.660047 0.293593
0.716835 0.71759 0.293565
0.534049 0.535329 0.331854
0.529363 0.592726 0.331817
0.533625 0.660116 0.331846
0.529455 0.717575 0.331845
0.591976 0.5302 0.331828
0.596359 0.597576 0.331828
0.591739 0.655235 0.331841
0.596237 0.722649 0.331814
0.658889 0.535333 0.331804
0.65431 0.59275 0.331811
0.658653 0.660245 0.331845
0.654343 0.717521 0.331827
0.716922 0.530222 0.331841
0.721178 0.597638 0.331834
0.716819 0.655278 0.331815
0.72111 0.722527 0.331813
0.529263 0.530341 0.370002
0.533895 0.597605 0.370008
0.529086 0.655206 0.370058
0.533669 0.722481 0.370077
0.596369 0.535175 0.370012
0.591696 0.592772 0.370008
0.596069 0.660003 0.370027
0.591667 0.717751 0.370054
0.654313 0.530355 0.37002
0.658669 0.597614 0.370052
0.65405 0.655204 0.370038
0.658548 0.722636 0.370087
0.721256 0.535166 0.370027
0.716714 0.592889 0.370037
0.721055 0.660022 0.370025
0.716578 0.717736 0.370053
0.533592 0.535029 0.408224
0.529065 0.592984 0.408202
0.53397 0.65989 0.408276
0.529113 0.717868 0.408304
0.591625 0.530534 0.40818
0.596067 0.597537 0.408206
0.591384 0.655528 0.408272
0.596092 0.722428 0.408342
0.658885 0.534931 0.408221
0.654214 0.592933 0.408239
0.658813 0.659918 0.408283
0.653986 0.717815 0.408311
0.716572 0.530595 0.408239
0.721036 0.597428 0.408232
0.716427 0.655616 0.408255
0.720982 0.722368 0.408315
0.528901 0.53077 0.446479
0.533295 0.597144 0.446458
0.528744 0.655589 0.446508
0.533284 0.722118 0.446571
0.596384 0.534667 0.446409
0.591755 0.593343 0.446437
0.596196 0.659402 0.446523
0.591423 0.718069 0.44657
0.653824 0.530795 0.446444
0.658215 0.596947 0.446503
0.653871 0.655555 0.446505
0.658232 0.72195 0.446579
0.721256 0.534721 0.446425
0.716742 0.593296 0.446457
0.720894 0.659495 0.446492
0.716612 0.718445 0.446602
0.533466 0.534303 0.484676
0.529664 0.593522 0.484735
0.533303 0.659032 0.484761
0.529134 0.718356 0.484782
0.591204 0.531095 0.484754
0.594892 0.596394 0.484763
0.591245 0.656112 0.484819
0.595118 0.721688 0.484841
0.658224 0.534165 0.484737
0.653941 0.593488 0.484771
0.657967 0.658951 0.48477
0.653976 0.718361 0.484829
0.716131 0.53101 0.484623
0.720095 0.59656 0.484655
0.716259 0.656099 0.484755
0.719964 0.721471 0.484825
0.562868 0.533299 0.276037
0.562869 0.593255 0.273207
0.562843 0.658283 0.276018
0.562741 0.717933 0.273305
0.625405 0.530785 0.273236
0.625378 0.595778 0.275921
0.625312 0.655715 0.273231
0.625175 0.720911 0.27592
0.68785 0.533141 0.275972
0.687806 0.593227 0.273105
0.687775 0.658459 0.275971
0.687678 0.717942 0.27321
0.500333 0.655682 0.273208
0.500226 0.718097 0.311574
0.562815 0.531091 0.311394
0.562739 0.595546 0.314187
0.562726 0.655707 0.311492
0.562604 0.720757 0.314068
0.625256 0.532927 0.31414
0.625323 0.593435 0.31148
0.625119 0.658191 0.314212
0.625204 0.718004 0.311497
0.687798 0.531014 0.311401
0.687689 0.595488 0.314202
0.687691 0.655797 0.311451
0.687572 0.720717 0.314137
0.500146 0.655585 0.349661
0.562704 0.532893 0.35239
0.562685 0.593329 0.349551
0.562486 0.658138 0.352437
0.562591 0.718193 0.349595
0.625202 0.530908 0.349625
0.625144 0.595667 0.352424
0.625005 0.655769 0.349554
0.625039 0.720568 0.352404
0.687631 0.533052 0.352376
0.687533 0.593224 0.349652
0.687473 0.658114 0.352437
0.687502 0.718178 0.349664
0.749955 0.532797 0.390542
0.562568 0.531207 0.387708
0.562477 0.595421 0.390598
0.562451 0.655962 0.387662
0.562443 0.72048 0.390692
0.625095 0.532808 0.390574
0.625003 0.593579 0.387812
0.624845 0.657998 0.390741
0.624882 0.718457 0.387881
0.687616 0.531197 0.387739
0.687524 0.595505 0.390563
0.687403 0.656034 0.387768
0.687368 0.720486 0.390738
0.500468 0.530892 0.273278
0.500184 0.530977 0.349575
0.562405 0.532548 0.428839
0.562294 0.594092 0.426011
0.562255 0.657856 0.429107
0.562299 0.718884 0.426167
0.624881 0.531947 0.425871
0.624882 0.595275 0.428684
0.624863 0.656169 0.425877
0.624841 0.720068 0.428885
0.687304 0.532284 0.428978
0.687422 0.594001 0.426142
0.687326 0.65781 0.428888
0.687257 0.718788 0.426228
0.749922 0.593411 0.387846
0.562509 0.531848 0.464133
0.562541 0.595037 0.466752
0.562303 0.65662 0.464227
0.56234 0.720179 0.467078
0.624738 0.53239 0.467066
0.62474 0.594145 0.46447
0.624753 0.657518 0.467221
0.624668 0.718977 0.464515
0.687306 0.531805 0.464182
0.687228 0.594967 0.466874
0.687201 0.656568 0.464337
0.687255 0.719886 0.467002
0.500094 0.595554 0.352485
0.50013 0.593497 0.387777
0.500161 0.658116 0.314164
0.749821 0.594177 0.464371
0.749788 0.718431 0.387841
0.749881 0.72066 0.352408
0.749797 0.719401 0.464663
0.500349 0.720771 0.27589
0.749821 0.658158 0.390632
0.749994 0.655688 0.349627
0.500262 0.593448 0.31143
0.749884 0.720198 0.428945
0.749715 0.657516 0.467023
0.500394 0.532856 0.314158
0.500071 0.720709 0.352452
0.500066 0.531628 0.42602
0.500368 0.595889 0.275982
0.749849 0.59514 0.428717
0.500068 0.532674 0.390537
0.531966 0.501156 0.502874
0.527815 0.501036 0.542676
0.532075 0.563662 0.541671
0.527395 0.626067 0.542785
0.531832 0.688636 0.54175
0.595088 0.501182 0.541661
0.589943 0.563598 0.542719
0.59472 0.626149 0.54188
0.590163 0.688469 0.542799
0.653126 0.501149 0.542696
0.657568 0.563671 0.541563
0.652968 0.626029 0.542656
0.657515 0.688553 0.541814
0.720064 0.501147 0.541467
0.715756 0.563616 0.542586
0.719871 0.626193 0.541669
0.715508 0.688496 0.542679
0.529028 0.50107 0.5803
0.528774 0.563485 0.58087
0.529173 0.626054 0.580515
0.528495 0.688466 0.580956
0.591885 0.50103 0.580775
0.592199 0.563564 0.580387
0.591589 0.626017 0.580897
0.59245 0.688558 0.580503
0.65495 0.501121 0.580241
0.65447 0.563548 0.580737
0.654995 0.626073 0.580395
0.654418 0.688518 0.58089
0.717303 0.500988 0.580624
0.717549 0.563567 0.580256
0.716852 0.626115 0.580775
0.717271 0.68863 0.580445
0.528375 0.500923 0.619366
0.52867 0.563431 0.619228
0.528771 0.625855 0.61944
0.528987 0.688406 0.619524
0.591644 0.501021 0.619289
0.591699 0.56346 0.619363
0.591492 0.625981 0.619235
0.591716 0.688441 0.619491
0.65428 0.500947 0.619356
0.654558 0.563502 0.619241
0.654313 0.626023 0.619465
0.654366 0.68843 0.619381
0.716931 0.501015 0.619206
0.716893 0.563378 0.619322
0.716901 0.625982 0.619281
0.716847 0.688514 0.619477
0.529311 0.500932 0.658057
0.529223 0.563441 0.658073
0.528942 0.625845 0.658131
0.529189 0.68831 0.658249
0.592232 0.500997 0.65804
0.591985 0.563458 0.657991
0.592173 0.625902 0.658186
0.591856 0.688439 0.658247
0.654626 0.500929 0.657953
0.654761 0.563406 0.658136
0.654484 0.62595 0.658092
0.654548 0.688456 0.658317
0.717129 0.500898 0.658048
0.716956 0.563468 0.658038
0.716965 0.625949 0.658202
0.717142 0.688548 0.658084
0.529403 0.500987 0.696757
0.529245 0.563417 0.697007
0.529602 0.625845 0.696968
0.529365 0.688434 0.697048
0.592068 0.501003 0.696764
0.591964 0.563461 0.696791
0.592106 0.625949 0.697038
0.592186 0.688474 0.697061
0.654573 0.500947 0.69676
0.654715 0.563461 0.696726
0.654553 0.625996 0.696902
0.654668 0.688498 0.696908
0.717155 0.500888 0.696841
0.717057 0.563507 0.696946
0.717253 0.625991 0.696919
0.71708 0.688508 0.696984
0.52977 0.500887 0.735613
0.530052 0.563352 0.735665
0.529598 0.625963 0.735798
0.529596 0.688422 0.735714
0.592227 0.501014 0.735695
0.592219 0.563474 0.73567
0.592404 0.625929 0.735758
0.592123 0.688467 0.735873
0.654512 0.500956 0.735627
0.654751 0.563443 0.735639
0.654669 0.625975 0.735689
0.654795 0.688482 0.735764
0.717 0.500908 0.73557
0.717122 0.563487 0.735518
0.716814 0.625991 0.735724
0.717247 0.688469 0.735887
0.528956 0.531333 0.523009
0.531821 0.596094 0.523064
0.528617 0.656248 0.523119
0.532024 0.721058 0.523143
0.594834 0.533561 0.523069
0.591857 0.593913 0.52313
0.595108 0.658507 0.523095
0.591731 0.718658 0.523184
0.65403 0.531391 0.523047
0.656906 0.596105 0.523005
0.653976 0.656416 0.523101
0.65717 0.720928 0.523156
0.720025 0.533658 0.5229
0.717178 0.593961 0.522946
0.719724 0.658427 0.522992
0.716803 0.718875 0.523099
0.531287 0.533109 0.56135
0.529486 0.594228 0.561491
0.531346 0.657877 0.561458
0.52934 0.719168 0.561569
0.591955 0.531826 0.561422
0.59347 0.595304 0.56145
0.59183 0.656794 0.561528
0.593745 0.720321 0.561532
0.656588 0.533071 0.561337
0.654744 0.594345 0.561385
0.656535 0.657756 0.561441
0.654559 0.719226 0.561555
0.717069 0.531766 0.561274
0.71864 0.595537 0.561322
0.717034 0.656851 0.561411
0.719016 0.720224 0.561453
0.528794 0.53198 0.600009
0.529182 0.594821 0.600057
0.528758 0.656982 0.600183
0.529395 0.719728 0.600204
0.592032 0.532346 0.599994
0.591621 0.5946 0.600035
0.591996 0.657367 0.600095
0.591646 0.719645 0.600159
0.654194 0.53216 0.599963
0.654816 0.594985 0.599998
0.654192 0.657093 0.600081
0.654612 0.71997 0.600163
0.717437 0.532382 0.599906
0.716745 0.594597 0.599961
0.717311 0.657499 0.600064
0.716753 0.719553 0.600108
0.529374 0.532192 0.638719
0.529185 0.594625 0.638763
0.529545 0.657118 0.638889
0.52934 0.719635 0.638964
0.591896 0.532258 0.638698
0.592045 0.594823 0.638696
0.591887 0.657167 0.638852
0.592149 0.719703 0.638911
0.654821 0.532218 0.638664
0.65443 0.594661 0.638778
0.654646 0.65732 0.638846
0.654463 0.719588 0.638934
0.717166 0.532106 0.638699
0.717178 0.59474 0.638746
0.71721 0.657198 0.638804
0.717247 0.719912 0.63886
0.52931 0.532248 0.677468
0.52971 0.594519 0.677563
0.529436 0.657047 0.677636
0.529635 0.719617 0.677681
0.592193 0.532326 0.677435
0.592038 0.594812 0.677537
0.592101 0.657194 0.677662
0.592317 0.719635 0.677734
0.65462 0.532075 0.677385
0.654652 0.594739 0.677488
0.654567 0.657167 0.67761
0.654885 0.71985 0.677681
0.717288 0.532251 0.677453
0.717234 0.594639 0.677561
0.717293 0.657362 0.677581
0.717041 0.719856 0.677645
0.529842 0.532018 0.716285
0.529747 0.594678 0.716365
0.529743 0.657174 0.716392
0.529621 0.719727 0.716452
0.592269 0.532289 0.716223
0.592384 0.594637 0.716321
0.592169 0.657231 0.71642
0.592348 0.719669 0.716527
0.654946 0.532257 0.716201
0.654932 0.594589 0.71626
0.654846 0.657283 0.71633
0.654751 0.7196 0.716459
0.717161 0.5322 0.716201
0.717225 0.594843 0.716297
0.717261 0.657213 0.716377
0.71734 0.719702 0.716424
0.749053 0.592738 0.541531
0.749052 0.720186 0.580272
0.687183 0.533888 0.505114
0.686838 0.717438 0.503018
0.56133 0.530011 0.541336
0.561311 0.597285 0.5429
0.561183 0.655056 0.541308
0.561406 0.722223 0.543135
0.6241 0.534907 0.543092
0.623875 0.592384 0.541686
0.624118 0.659696 0.543335
0.62397 0.717313 0.54169
0.686627 0.530068 0.541345
0.686695 0.597134 0.542732
0.686531 0.654967 0.541401
0.686547 0.722141 0.543118
0.654032 0.563545 0.504691
0.748997 0.720047 0.61939
0.749222 0.719652 0.735726
0.749169 0.532382 0.619531
0.561065 0.532498 0.580391
0.560868 0.594514 0.579503
0.560964 0.657862 0.580364
0.561013 0.718975 0.579543
0.62377 0.532112 0.579309
0.623847 0.595072 0.580142
0.62368 0.656834 0.579399
0.62392 0.720241 0.580355
0.68664 0.532527 0.580167
0.686419 0.594539 0.579338
0.686527 0.657647 0.580238
0.686292 0.719612 0.579461
0.65735 0.501141 0.502965
0.749133 0.657135 0.73564
0.749114 0.594873 0.735613
0.686989 0.659326 0.505151
0.56096 0.532199 0.619166
0.561059 0.594519 0.619398
0.561116 0.657281 0.619288
0.561371 0.719545 0.619611
0.623926 0.532203 0.619379
0.623905 0.59476 0.619231
0.623833 0.657159 0.619489
0.62383 0.719586 0.619396
0.686575 0.531984 0.619039
0.686561 0.594725 0.619459
0.686479 0.657368 0.619251
0.686432 0.719562 0.619563
0.749155 0.659475 0.543042
0.561884 0.659135 0.505387
0.591475 0.501051 0.504571
0.749122 0.532243 0.696896
0.561395 0.532062 0.658078
0.561352 0.594751 0.657999
0.561471 0.656735 0.658297
0.561575 0.719792 0.658237
0.624135 0.532523 0.657811
0.624 0.594322 0.658142
0.623955 0.657194 0.658172
0.624105 0.719746 0.658305
0.686749 0.532041 0.658102
0.686626 0.594851 0.658007
0.686641 0.65723 0.658277
0.686665 0.719655 0.658119
0.595281 0.688574 0.502934
0.720497 0.688624 0.503095
0.748866 0.59461 0.619145
0.748969 0.717392 0.541488
0.561495 0.532295 0.696769
0.561655 0.594534 0.696998
0.561554 0.65738 0.696933
0.561532 0.719496 0.697105
0.624231 0.53228 0.696866
0.624181 0.594701 0.696814
0.624152 0.65725 0.697107
0.624251 0.719648 0.696954
0.686656 0.532175 0.696721
0.686704 0.594866 0.696922
0.686776 0.657146 0.696902
0.686716 0.719759 0.69709
0.749026 0.657297 0.619502
0.59488 0.563659 0.503106
0.749068 0.594795 0.658164
0.624434 0.655184 0.502724
0.561831 0.532121 0.735611
0.561793 0.594949 0.735726
0.561724 0.657043 0.735911
0.561748 0.719702 0.735904
0.624272 0.532385 0.735683
0.624365 0.594646 0.73572
0.624395 0.657193 0.735633
0.624366 0.719763 0.735883
0.686722 0.532197 0.735568
0.686741 0.594678 0.735701
0.686791 0.657307 0.735766
0.686818 0.719604 0.735825
0.562062 0.533766 0.505157
0.657917 0.626098 0.502979
0.529313 0.563519 0.504651
0.716684 0.501061 0.504534
0.561961 0.593067 0.503098
0.687026 0.592839 0.502919
0.532617 0.626097 0.503006
0.720212 0.563627 0.502818
0.591463 0.626077 0.504509
0.561899 0.717646 0.502972
0.749056 0.656934 0.658197
0.624304 0.530609 0.502732
0.748928 0.595084 0.580036
0.748955 0.532127 0.579134
0.748757 0.657248 0.579228
0.65368 0.688515 0.504643
0.62443 0.721905 0.505103
0.716603 0.626096 0.504484
0.528908 0.68854 0.504723
0.624487 0.596594 0.505006
0.74914 0.719985 0.658255
0.749113 0.532223 0.658049
0.749282 0.534708 0.542983
0.748977 0.532105 0.735579
0.749229 0.719735 0.696997
0.74923 0.65734 0.696982
0.749218 0.594515 0.697066
0.749625 0.655143 0.502712
0.749664 0.596876 0.504811
0.749577 0.722134 0.504826
0.749579 0.530502 0.502609
0.529454 0.500957 0.7745
0.529675 0.563489 0.7745
0.529028 0.625942 0.774513
0.529438 0.688467 0.77463
0.592329 0.500984 0.774494
0.592341 0.563459 0.774529
0.592553 0.62599 0.77459
0.592434 0.688567 0.774643
0.654606 0.500894 0.774502
0.655058 0.563439 0.774381
0.65491 0.625998 0.774526
0.654945 0.688633 0.774616
0.71702 0.500847 0.774428
0.716993 0.563347 0.774437
0.717393 0.625906 0.774553
0.717277 0.68855 0.774605
0.529497 0.500958 0.813221
0.529605 0.563539 0.813267
0.529502 0.626072 0.813274
0.529273 0.688568 0.813336
0.592799 0.501123 0.813216
0.592631 0.563602 0.813286
0.592632 0.626096 0.813354
0.59232 0.688707 0.813425
0.655142 0.500979 0.813318
0.655372 0.563535 0.813341
0.65505 0.626055 0.813366
0.655075 0.688646 0.813372
0.71738 0.500806 0.813461
0.717611 0.563404 0.813431
0.717301 0.62603 0.813366
0.717519 0.688612 0.813427
0.52984 0.500985 0.852108
0.529766 0.563544 0.852006
0.529538 0.626048 0.85207
0.529336 0.688531 0.852115
0.59286 0.501 0.851994
0.592875 0.563507 0.852027
0.593057 0.626126 0.852031
0.592765 0.688698 0.852117
0.654897 0.500873 0.852126
0.655409 0.563533 0.852084
0.655333 0.62618 0.85211
0.655214 0.688726 0.852185
0.717683 0.500874 0.852345
0.717624 0.563479 0.852212
0.717993 0.62606 0.852152
0.718064 0.688575 0.852222
0.530218 0.500907 0.890947
0.530144 0.563525 0.891048
0.530305 0.62601 0.89086
0.530322 0.688568 0.891035
0.593123 0.500996 0.890925
0.593109 0.563545 0.890755
0.592996 0.626104 0.890873
0.592889 0.688576 0.890986
0.65538 0.500877 0.890907
0.655595 0.56354 0.890933
0.655468 0.626094 0.890846
0.655533 0.688585 0.890955
0.718044 0.500821 0.891137
0.718106 0.563415 0.890966
0.71772 0.625993 0.891118
0.718117 0.688514 0.890964
0.530366 0.500799 0.92982
0.531155 0.563352 0.929582
0.530922 0.625949 0.929886
0.53066 0.688442 0.929689
0.593089 0.500897 0.929643
0.592755 0.563403 0.929837
0.593098 0.625892 0.929639
0.59303 0.688547 0.929907
0.655339 0.500887 0.929945
0.655607 0.563395 0.929592
0.655604 0.625997 0.929893
0.655285 0.688467 0.9297
0.718072 0.500719 0.929636
0.718088 0.5633 0.92989
0.718074 0.625942 0.929659
0.718193 0.688506 0.929979
0.530946 0.500688 0.968211
0.531377 0.563272 0.968963
0.53097 0.625812 0.968155
0.531305 0.688454 0.969006
0.593871 0.50073 0.969112
0.593409 0.56327 0.968204
0.593873 0.625892 0.96894
0.593296 0.68844 0.968228
0.655808 0.500707 0.968211
0.656199 0.563307 0.96902
0.655913 0.625822 0.968189
0.656287 0.688525 0.969029
0.718604 0.500647 0.968998
0.718466 0.563161 0.968123
0.718661 0.625843 0.968952
0.71821 0.688332 0.968204
0.531137 0.531091 0.987784
0.533188 0.59574 0.987779
0.530959 0.656375 0.987796
0.532933 0.72085 0.987904
0.595264 0.53315 0.9878
0.593302 0.593656 0.987743
0.595484 0.658278 0.987782
0.593033 0.71887 0.987803
0.655857 0.531 0.987786
0.658024 0.595677 0.987801
0.655595 0.656314 0.987786
0.658019 0.721032 0.987876
0.720274 0.533035 0.987786
0.718064 0.593573 0.987735
0.720527 0.65823 0.9878
0.718022 0.718882 0.987807
0.530122 0.532125 0.755107
0.530053 0.594612 0.755126
0.529774 0.657235 0.755194
0.529634 0.71966 0.755251
0.592357 0.53222 0.75512
0.59234 0.594705 0.75514
0.592642 0.657243 0.755176
0.59239 0.719736 0.755283
0.654995 0.532065 0.755072
0.654903 0.594697 0.755092
0.654986 0.657222 0.755174
0.6551 0.719893 0.75528
0.717313 0.532242 0.755042
0.717351 0.594629 0.755084
0.717408 0.657136 0.755221
0.717577 0.719893 0.755224
0.529824 0.532318 0.793874
0.529883 0.594724 0.793906
0.529702 0.657155 0.793898
0.529521 0.71992 0.793967
0.592453 0.532256 0.793916
0.592554 0.594852 0.793959
0.59256 0.657302 0.793991
0.592428 0.719906 0.794072
0.655402 0.53231 0.793937
0.655257 0.594676 0.793921
0.655084 0.657236 0.793981
0.655083 0.72009 0.794066
0.717412 0.53199 0.794014
0.717668 0.594552 0.79396
0.71754 0.65736 0.794023
0.717609 0.719997 0.794077
0.530146 0.53219 0.832676
0.530071 0.594743 0.832699
0.530021 0.657311 0.83274
0.529868 0.719867 0.8328
0.592715 0.532387 0.832674
0.592636 0.594902 0.832675
0.592569 0.657421 0.832696
0.592629 0.719967 0.83278
0.6554 0.53215 0.832755
0.655424 0.59479 0.832744
0.655287 0.657309 0.832778
0.65517 0.719999 0.832823
0.717786 0.532039 0.832897
0.717725 0.594752 0.832817
0.717961 0.657383 0.832826
0.717768 0.719871 0.832922
0.530402 0.532196 0.871492
0.530421 0.594677 0.871438
0.530311 0.657381 0.87149
0.530143 0.719855 0.871601
0.592956 0.532195 0.871441
0.592958 0.594854 0.871422
0.592876 0.657354 0.871481
0.592764 0.719724 0.871581
0.655491 0.532173 0.871579
0.655403 0.594835 0.871539
0.655573 0.657447 0.871545
0.655526 0.719944 0.871611
0.717962 0.532113 0.871675
0.718011 0.594788 0.871598
0.718131 0.657279 0.871623
0.718204 0.719925 0.87169
0.530469 0.531979 0.910296
0.530702 0.594958 0.91029
0.530476 0.65715 0.910333
0.530543 0.719855 0.910466
0.593205 0.532355 0.910283
0.593085 0.594601 0.910271
0.593445 0.657371 0.91035
0.5929 0.719659 0.910394
0.655523 0.532108 0.910345
0.655813 0.594911 0.910334
0.655454 0.657144 0.910354
0.655817 0.719822 0.910398
0.718245 0.532155 0.910363
0.718253 0.594562 0.91038
0.718387 0.65744 0.910441
0.71805 0.719621 0.910502
0.531071 0.532234 0.949143
0.530696 0.594199 0.94911
0.531191 0.657484 0.94919
0.530361 0.719439 0.949247
0.59306 0.531764 0.949138
0.593636 0.5949 0.94914
0.592938 0.656939 0.949165
0.593531 0.720161 0.949198
0.655906 0.532401 0.949164
0.655546 0.594305 0.949118
0.656028 0.657611 0.949187
0.655211 0.719503 0.94922
0.717955 0.531597 0.949166
0.718428 0.594837 0.949141
0.717766 0.656802 0.949155
0.718565 0.720149 0.949237
0.749922 0.720131 0.852257
0.74931 0.657447 0.774691
0.74977 0.59443 0.852252
0.561821 0.532181 0.774579
0.561809 0.594756 0.774601
0.561759 0.657186 0.774578
0.561698 0.719745 0.774708
0.624453 0.532486 0.774622
0.624459 0.594574 0.77451
0.624476 0.657421 0.774566
0.62436 0.719792 0.774675
0.686889 0.53197 0.774581
0.686946 0.594822 0.774479
0.686925 0.657169 0.774641
0.68696 0.71991 0.774715
0.749558 0.656845 0.813415
0.749188 0.594337 0.774442
0.750007 0.657155 0.852283
0.561829 0.532277 0.813301
0.561832 0.594773 0.813313
0.561736 0.657551 0.813302
0.561622 0.720048 0.813383
0.624745 0.532728 0.813279
0.624661 0.594654 0.813327
0.624637 0.657432 0.813344
0.624612 0.719792 0.813435
0.687191 0.532089 0.813436
0.687237 0.594733 0.81336
0.68715 0.657301 0.813374
0.687076 0.719911 0.813461
0.562066 0.532161 0.852142
0.562222 0.5946 0.852063
0.562074 0.6576 0.852078
0.561883 0.719785 0.852143
0.624905 0.532332 0.851985
0.624902 0.594748 0.851951
0.624859 0.657507 0.852107
0.62471 0.720104 0.852145
0.687284 0.532026 0.852227
0.687329 0.595092 0.852216
0.687395 0.657404 0.852141
0.687359 0.719964 0.852195
0.749424 0.531778 0.813629
0.749457 0.595157 0.813418
0.7495 0.720233 0.813582
0.749001 0.532146 0.774557
0.562439 0.532298 0.890856
0.562534 0.594757 0.890694
0.562394 0.657453 0.89091
0.562348 0.719751 0.890959
0.625118 0.532329 0.891007
0.625013 0.594864 0.890952
0.624957 0.657305 0.890829
0.624879 0.719883 0.891003
0.687472 0.532144 0.891083
0.687572 0.594682 0.890974
0.687549 0.657545 0.891034
0.687584 0.719727 0.890988
0.749235 0.719746 0.774662
0.500245 0.53247 0.929974
0.562655 0.531907 0.929571
0.562702 0.594774 0.929866
0.562786 0.657083 0.929599
0.562561 0.719622 0.929986
0.62507 0.5324 0.929807
0.625136 0.594455 0.929684
0.625066 0.657288 0.930039
0.625074 0.719877 0.929619
0.687616 0.531885 0.929574
0.687641 0.594774 0.929873
0.687628 0.657278 0.929663
0.687497 0.719736 0.930063
0.500225 0.719357 0.970097
0.74971 0.532199 0.852296
0.50023 0.657252 0.930013
0.500037 0.657397 0.890853
0.562842 0.531693 0.969797
0.563026 0.594699 0.968951
0.56281 0.656967 0.969967
0.562839 0.719893 0.968898
0.625397 0.532238 0.968999
0.625259 0.594358 0.969989
0.625446 0.657269 0.968873
0.625128 0.719543 0.970178
0.687682 0.531826 0.969909
0.687895 0.594537 0.968888
0.687629 0.656989 0.969993
0.687801 0.719902 0.968879
0.500626 0.532237 0.96899
0.500114 0.719517 0.929745
0.500647 0.65716 0.968957
0.500273 0.594395 0.929651
0.500195 0.594772 0.891011
0.500531 0.594332 0.969916
0.500267 0.532134 0.890919
0.530047 0.751026 0.00778304
0.533417 0.813635 0.00597005
0.529183 0.876174 0.00791567
0.533769 0.938768 0.00594079
0.595877 0.751022 0.00608449
0.591885 0.813639 0.00777604
0.596034 0.876228 0.00588573
0.591592 0.938675 0.0081879
0.655024 0.751135 0.00783228
0.658291 0.813654 0.00591202
0.6542 0.876123 0.00789457
0.658735 0.93879 0.00591116
0.720862 0.751024 0.00602839
0.716962 0.813664 0.00779876
0.721032 0.876275 0.00593476
0.716676 0.93879 0.00820221
0.534007 0.751013 0.0440417
0.529653 0.813563 0.0464047
0.534092 0.876117 0.0438986
0.530344 0.938612 0.0470905
0.592659 0.751027 0.0462303
0.59629 0.813587 0.0439065
0.591952 0.876208 0.0466079
0.597388 0.938797 0.0437689
0.658926 0.751065 0.0439102
0.654528 0.813673 0.0464741
0.659041 0.876177 0.0437462
0.655275 0.938704 0.0470464
0.717506 0.751033 0.0462818
0.72119 0.81359 0.0437857
0.716914 0.876184 0.0466989
0.722209 0.938802 0.043761
0.530321 0.751051 0.0847035
0.533617 0.813556 0.0818846
0.530795 0.876136 0.0852649
0.535634 0.938617 0.0821556
0.596462 0.751046 0.0819167
0.592328 0.813583 0.0847753
0.597176 0.876178 0.0818152
0.594134 0.938578 0.085417
0.655232 0.751081 0.0846062
0.65865 0.81363 0.0817478
0.655708 0.876221 0.0853012
0.66051 0.938723 0.0820701
0.721259 0.751038 0.0819176
0.717276 0.813592 0.084811
0.722123 0.876247 0.0817471
0.719285 0.938652 0.0854114
0.53334 0.751076 0.120011
0.530246 0.813532 0.123234
0.534106 0.876063 0.120083
0.532403 0.938526 0.123765
0.593044 0.751108 0.122987
0.595447 0.81355 0.11992
0.593999 0.87608 0.12356
0.597655 0.938636 0.120356
0.658271 0.75108 0.12003
0.6552 0.813574 0.123127
0.658987 0.876105 0.120008
0.657425 0.938583 0.123725
0.717951 0.751079 0.122992
0.720423 0.813527 0.119984
0.719075 0.876171 0.123609
0.722651 0.938667 0.120333
0.530717 0.751059 0.161277
0.532994 0.813462 0.158159
0.531861 0.876062 0.161881
0.534956 0.938569 0.158538
0.59584 0.75108 0.158175
0.592841 0.813537 0.161439
0.596375 0.876042 0.158177
0.595288 0.938589 0.161875
0.65564 0.751102 0.161303
0.657766 0.813553 0.158058
0.65683 0.876078 0.161939
0.659934 0.938595 0.158425
0.720768 0.751075 0.158215
0.717783 0.813559 0.161473
0.721237 0.876082 0.158116
0.72012 0.938638 0.161919
0.533326 0.751033 0.196361
0.530378 0.813451 0.199645
0.533773 0.875961 0.196313
0.53288 0.938526 0.200142
0.59313 0.750996 0.199479
0.595273 0.813487 0.196315
0.594343 0.876056 0.200076
0.59742 0.93856 0.196643
0.658182 0.751006 0.196327
0.655236 0.813489 0.199714
0.658727 0.875977 0.19626
0.657758 0.938515 0.20002
0.717956 0.75101 0.199518
0.720301 0.813458 0.196302
0.719334 0.876056 0.200112
0.722282 0.938598 0.196612
0.530415 0.750964 0.237694
0.533036 0.813346 0.234418
0.531729 0.875934 0.238289
0.534873 0.938507 0.234768
0.595834 0.75095 0.234555
0.592719 0.813376 0.237823
0.59623 0.875931 0.234523
0.595294 0.938508 0.238237
0.655376 0.750992 0.237653
0.657961 0.813386 0.234449
0.656673 0.875957 0.238255
0.659845 0.938452 0.234854
0.720757 0.751008 0.234513
0.717497 0.813417 0.237857
0.721271 0.875905 0.234465
0.720051 0.938487 0.238242
0.533283 0.784361 0.0261865
0.532547 0.843134 0.0262373
0.529773 0.909563 0.0261987
0.534572 0.967618 0.0263177
0.59275 0.780976 0.0261296
0.593249 0.846831 0.0261821
0.596051 0.905439 0.0261705
0.593027 0.972708 0.0261683
0.65825 0.7847 0.0261273
0.657422 0.843079 0.0261853
0.654746 0.909674 0.0261559
0.659478 0.967723 0.0262718
0.717719 0.780809 0.0261272
0.718312 0.846958 0.0261735
0.721001 0.905368 0.0261972
0.718155 0.972746 0.0261747
0.530091 0.780489 0.064416
0.530262 0.847364 0.0644391
0.535111 0.904902 0.0645099
0.531526 0.97282 0.0645774
0.596196 0.784873 0.0643266
0.595451 0.842665 0.064446
0.59287 0.910268 0.0644164
0.598214 0.967587 0.0645204
0.6549 0.780585 0.0643149
0.65528 0.847635 0.0644137
0.65999 0.904812 0.0644809
0.656303 0.972879 0.0645256
0.721158 0.784941 0.0643497
0.720422 0.842565 0.0644361
0.717874 0.910534 0.0644101
0.723247 0.967642 0.0644898
0.533887 0.78517 0.102586
0.533796 0.842276 0.102689
0.531266 0.910524 0.102766
0.535972 0.967548 0.102826
0.592532 0.780227 0.102557
0.592219 0.847753 0.102618
0.598961 0.904778 0.102726
0.594242 0.97284 0.102745
0.658932 0.785187 0.102537
0.658772 0.842303 0.102643
0.656141 0.91059 0.102733
0.660901 0.967627 0.102747
0.717314 0.78027 0.102559
0.717195 0.847806 0.102643
0.723879 0.904839 0.102717
0.719102 0.972907 0.102731
0.529925 0.780062 0.140805
0.52937 0.84761 0.140898
0.536759 0.904607 0.140959
0.531821 0.972807 0.141005
0.596624 0.785218 0.140783
0.596481 0.842042 0.140834
0.593897 0.910447 0.140939
0.598405 0.96771 0.14098
0.654734 0.780163 0.140793
0.654345 0.847868 0.140861
0.661727 0.904568 0.140927
0.656523 0.973006 0.140974
0.721386 0.785261 0.14078
0.72141 0.842064 0.140866
0.718815 0.91054 0.140945
0.723348 0.96768 0.140972
0.533999 0.785229 0.178988
0.533997 0.841818 0.179056
0.531382 0.910467 0.179171
0.536148 0.967523 0.179198
0.592282 0.779925 0.178966
0.59182 0.847719 0.179059
0.599378 0.904684 0.179156
0.59411 0.97292 0.17922
0.659 0.785407 0.178983
0.658958 0.841914 0.179034
0.656188 0.910549 0.179129
0.660966 0.967591 0.179163
0.717162 0.779954 0.179004
0.716568 0.847788 0.179082
0.72433 0.904675 0.179116
0.719032 0.973036 0.179188
0.529776 0.779857 0.21717
0.529195 0.847651 0.217269
0.536961 0.904475 0.217336
0.531517 0.972972 0.217379
0.596435 0.785187 0.21716
0.596517 0.84185 0.217236
0.593702 0.910518 0.217337
0.598658 0.967583 0.217369
0.654697 0.779857 0.217189
0.654254 0.847817 0.217254
0.661855 0.90452 0.217293
0.656555 0.972742 0.217362
0.721352 0.785367 0.217205
0.721331 0.841817 0.21724
0.718697 0.910464 0.217287
0.723474 0.967571 0.217367
0.500513 0.780689 0.196867
0.749955 0.843135 0.23793
0.500224 0.846944 0.0446708
0.500298 0.904878 0.0466208
0.562893 0.780193 0.00636174
0.562658 0.847066 0.00679203
0.562363 0.90506 0.00817817
0.562577 0.972411 0.00599517
0.625196 0.784127 0.00780086
0.625007 0.842717 0.00756051
0.62499 0.909779 0.00615559
0.624937 0.967477 0.00805459
0.687871 0.78035 0.00635193
0.687627 0.846975 0.0067369
0.687308 0.905113 0.00815577
0.687513 0.972463 0.0059886
0.500334 0.845672 0.196737
0.502368 0.971929 0.0440998
0.562961 0.784092 0.0464001
0.562729 0.842527 0.046111
0.562855 0.909515 0.0439382
0.564893 0.967533 0.0466085
0.625532 0.780038 0.0441578
0.625175 0.847109 0.044733
0.625238 0.904944 0.0465448
0.627265 0.972055 0.044048
0.687799 0.784204 0.0463322
0.687635 0.842507 0.0460998
0.687729 0.909575 0.0439535
0.689902 0.967636 0.0465647
0.502598 0.909138 0.0821404
0.502798 0.96774 0.08488
0.563134 0.780162 0.0824021
0.562917 0.846654 0.0825559
0.56518 0.90517 0.0850577
0.56521 0.971363 0.0822576
0.625493 0.784053 0.0846707
0.625212 0.842745 0.0846245
0.627487 0.909262 0.0820763
0.627642 0.967862 0.0848838
0.687969 0.780168 0.0822746
0.687875 0.846681 0.0825854
0.690105 0.905361 0.0850532
0.690172 0.971401 0.0821706
0.500073 0.967494 0.00819232
0.502818 0.905734 0.123435
0.502806 0.970966 0.120495
0.562981 0.78358 0.123006
0.562748 0.843252 0.123141
0.565372 0.908501 0.120162
0.565278 0.968118 0.123132
0.625511 0.780613 0.120539
0.625324 0.845963 0.120467
0.627734 0.905819 0.123379
0.627793 0.970938 0.120435
0.68787 0.78353 0.123056
0.687652 0.843334 0.123214
0.690303 0.908521 0.120142
0.690166 0.968146 0.123069
0.502969 0.908213 0.158322
0.502842 0.968394 0.161302
0.56304 0.780747 0.158673
0.562813 0.845718 0.158532
0.565464 0.906088 0.161646
0.565386 0.970721 0.158637
0.625483 0.783456 0.161255
0.625216 0.843514 0.161455
0.627923 0.908121 0.158311
0.627746 0.96832 0.161348
0.687961 0.780758 0.158681
0.687741 0.845712 0.158502
0.690345 0.906098 0.161697
0.690224 0.970719 0.158624
0.502955 0.906106 0.199878
0.502887 0.970497 0.196814
0.562951 0.783402 0.199427
0.562696 0.84347 0.199641
0.565424 0.908058 0.196459
0.565365 0.968418 0.199629
0.625415 0.78071 0.196843
0.625306 0.845645 0.196726
0.62787 0.905969 0.19993
0.627776 0.970521 0.196842
0.687813 0.783384 0.199523
0.687634 0.843416 0.199678
0.690408 0.908127 0.196434
0.690235 0.968349 0.199587
0.50295 0.908143 0.234704
0.502813 0.968335 0.237789
0.562924 0.780446 0.235137
0.562825 0.845698 0.234925
0.565381 0.905941 0.238187
0.565297 0.970424 0.234926
0.625316 0.783417 0.237676
0.625121 0.84321 0.237868
0.627892 0.908052 0.23465
0.627743 0.968241 0.237792
0.687848 0.780483 0.235129
0.687665 0.845793 0.234955
0.690331 0.905982 0.238058
0.690212 0.97055 0.235024
0.500447 0.783504 0.237713
0.50029 0.784128 0.00782849
0.500507 0.783461 0.161224
0.500261 0.842614 0.084727
0.500132 0.84273 0.00768098
0.500614 0.780649 0.120564
0.500625 0.77989 0.0443048
0.500331 0.84596 0.120469
0.500229 0.843176 0.23794
0.500531 0.783925 0.0847722
0.500231 0.843448 0.161496
0.533158 0.750912 0.272755
0.529988 0.813326 0.276057
0.533786 0.875788 0.272724
0.532577 0.938354 0.276389
0.592608 0.750958 0.275908
0.595254 0.813316 0.272683
0.594124 0.875851 0.276425
0.597363 0.938444 0.272953
0.658257 0.751013 0.272642
0.654934 0.81335 0.276047
0.658674 0.875787 0.272638
0.657451 0.938336 0.276395
0.717622 0.75094 0.275912
0.720228 0.813333 0.272686
0.719005 0.875905 0.276437
0.722225 0.938401 0.272938
0.530181 0.750897 0.314178
0.532641 0.81325 0.310927
0.53155 0.875763 0.314678
0.534487 0.938289 0.311108
0.595475 0.750928 0.310899
0.592296 0.813287 0.314251
0.595885 0.87575 0.310829
0.595099 0.9383 0.314575
0.655106 0.750889 0.314204
0.657499 0.813264 0.31092
0.656522 0.87577 0.314674
0.659313 0.938264 0.311115
0.720261 0.750891 0.310979
0.717318 0.813265 0.314218
0.720958 0.875712 0.310861
0.720099 0.938237 0.314598
0.532916 0.750887 0.349347
0.530136 0.813296 0.352529
0.532993 0.875665 0.349061
0.53274 0.938199 0.352727
0.592746 0.750946 0.3524
0.594592 0.813238 0.349211
0.594191 0.875772 0.352798
0.596745 0.938209 0.349295
0.657562 0.750862 0.349244
0.655175 0.81325 0.352502
0.658066 0.875644 0.34905
0.657681 0.938252 0.352778
0.717676 0.750916 0.352369
0.719718 0.81321 0.34923
0.719095 0.875747 0.352763
0.721529 0.938226 0.349249
0.530419 0.750932 0.390555
0.531627 0.813295 0.387622
0.53237 0.875846 0.390885
0.532789 0.938263 0.387285
0.594681 0.750964 0.387649
0.593087 0.813323 0.390732
0.594663 0.875794 0.387234
0.596262 0.938316 0.39087
0.655349 0.750927 0.390604
0.656569 0.813299 0.38754
0.65749 0.875822 0.391024
0.65783 0.938295 0.387366
0.719667 0.75093 0.387588
0.717899 0.813306 0.39067
0.71933 0.87575 0.387288
0.721212 0.938309 0.390835
0.531762 0.750992 0.425997
0.531057 0.813521 0.428756
0.530468 0.87584 0.425713
0.533823 0.938444 0.429081
0.593258 0.751013 0.42878
0.593418 0.813447 0.426009
0.594808 0.87596 0.429082
0.593033 0.938411 0.425549
0.656644 0.750949 0.426017
0.655964 0.813457 0.428833
0.655408 0.875851 0.425722
0.658917 0.938483 0.429177
0.71819 0.751023 0.428616
0.71848 0.813371 0.425947
0.719608 0.875966 0.429027
0.718002 0.938395 0.425358
0.530761 0.751091 0.466705
0.530944 0.813523 0.464524
0.531885 0.875962 0.466811
0.529606 0.938347 0.464197
0.594073 0.751024 0.464496
0.593852 0.813551 0.466898
0.592824 0.875967 0.464333
0.59507 0.938484 0.467001
0.65582 0.750944 0.46668
0.655653 0.813423 0.46446
0.65711 0.875967 0.466929
0.654681 0.938415 0.464123
0.71885 0.751093 0.464592
0.718539 0.813515 0.466842
0.717929 0.875987 0.464236
0.72017 0.938505 0.46708
0.749793 0.781718 0.426139
0.533918 0.785132 0.255376
0.534173 0.841698 0.255429
0.53124 0.910284 0.255539
0.536097 0.967466 0.255554
0.592106 0.77978 0.255391
0.591636 0.847558 0.255469
0.599347 0.904507 0.255498
0.593918 0.972943 0.255533
0.658796 0.785297 0.255382
0.658964 0.841707 0.255424
0.656222 0.910203 0.25551
0.661022 0.967313 0.255534
0.717162 0.779912 0.255393
0.716457 0.847605 0.255461
0.72422 0.904409 0.255491
0.71903 0.972847 0.255579
0.529628 0.77969 0.293641
0.528945 0.847473 0.293712
0.536794 0.904374 0.293694
0.531227 0.972739 0.293727
0.596227 0.785173 0.293614
0.596486 0.841646 0.293629
0.593561 0.91022 0.293693
0.598499 0.967426 0.293713
0.654542 0.779803 0.293608
0.653881 0.847457 0.293686
0.661634 0.904329 0.293675
0.656224 0.972704 0.293719
0.721232 0.784952 0.29361
0.72124 0.841665 0.293606
0.718442 0.910281 0.293695
0.723315 0.967189 0.293731
0.533789 0.78493 0.331893
0.534001 0.841602 0.331895
0.530805 0.910193 0.331856
0.535884 0.96712 0.331898
0.59199 0.77974 0.33183
0.591108 0.847427 0.33189
0.59914 0.904247 0.331865
0.593613 0.972668 0.331894
0.658554 0.785013 0.331864
0.658852 0.841564 0.331865
0.655735 0.91021 0.331898
0.660743 0.967219 0.331919
0.716926 0.779815 0.331845
0.716198 0.847322 0.331876
0.724059 0.904263 0.331865
0.718548 0.97263 0.33189
0.529397 0.779903 0.370119
0.528742 0.847364 0.37014
0.536434 0.904307 0.369988
0.531132 0.97271 0.370081
0.59629 0.785104 0.370147
0.596401 0.841662 0.370067
0.593018 0.910306 0.370008
0.598436 0.967292 0.370073
0.654367 0.779737 0.370101
0.653657 0.84736 0.370119
0.661382 0.904254 0.37007
0.656036 0.972762 0.370104
0.721079 0.785051 0.370113
0.721409 0.841724 0.370071
0.718017 0.910177 0.370004
0.723317 0.967239 0.37006
0.533483 0.784812 0.408368
0.533733 0.842121 0.40828
0.529861 0.910171 0.408239
0.535877 0.967067 0.408271
0.591757 0.780054 0.408388
0.591396 0.847275 0.408334
0.597482 0.904356 0.40825
0.593131 0.972731 0.40825
0.6587 0.78493 0.40836
0.658905 0.841915 0.408274
0.654761 0.910223 0.408309
0.660759 0.967093 0.408262
0.716547 0.78002 0.408296
0.716193 0.847189 0.408363
0.722463 0.904204 0.408226
0.718444 0.972845 0.408228
0.529034 0.780488 0.446584
0.529114 0.846793 0.446582
0.533669 0.904603 0.44644
0.529913 0.972446 0.446521
0.595965 0.784592 0.44661
0.595862 0.842485 0.44654
0.591306 0.909658 0.446555
0.596931 0.967105 0.44647
0.65391 0.780422 0.446567
0.654017 0.846803 0.446574
0.658558 0.904511 0.446484
0.654916 0.97246 0.446492
0.720947 0.784547 0.4466
0.720686 0.842324 0.446511
0.716314 0.909737 0.446518
0.721989 0.966855 0.446426
0.53276 0.784172 0.484853
0.532328 0.843149 0.484829
0.528541 0.908644 0.484828
0.532617 0.967366 0.484766
0.591262 0.780764 0.484915
0.591383 0.846406 0.484887
0.595043 0.90503 0.484757
0.591198 0.971542 0.484766
0.657687 0.784031 0.484867
0.657414 0.842708 0.484817
0.653633 0.908733 0.484769
0.657685 0.967505 0.484723
0.71641 0.780919 0.484896
0.716554 0.84649 0.484852
0.719962 0.904917 0.484746
0.716274 0.97159 0.484705
0.749639 0.844218 0.390872
0.502814 0.905757 0.276362
0.502683 0.970376 0.273092
0.562704 0.783403 0.275876
0.56249 0.843198 0.276222
0.565409 0.908071 0.272837
0.565196 0.968037 0.276084
0.625172 0.780355 0.273352
0.625148 0.845673 0.27309
0.627679 0.905799 0.276289
0.627675 0.970536 0.273079
0.687659 0.783492 0.275876
0.687411 0.843033 0.276137
0.690158 0.908047 0.272921
0.690057 0.968167 0.275999
0.50034 0.780452 0.273346
0.749932 0.782607 0.39069
0.502661 0.907665 0.310914
0.502572 0.968278 0.314281
0.562666 0.780452 0.31149
0.562524 0.845591 0.311219
0.565124 0.905988 0.314545
0.564997 0.970172 0.311231
0.625068 0.783347 0.314078
0.624749 0.843204 0.314423
0.627614 0.907779 0.311034
0.627456 0.968206 0.314215
0.68754 0.780467 0.311564
0.687484 0.845455 0.311287
0.690083 0.905871 0.314536
0.689882 0.970017 0.311337
0.502444 0.906084 0.352719
0.502425 0.969651 0.349468
0.562608 0.783058 0.352403
0.56234 0.843556 0.352749
0.564944 0.907436 0.349108
0.564998 0.96845 0.352409
0.624992 0.780759 0.349793
0.624881 0.845171 0.349483
0.627495 0.906076 0.352809
0.627383 0.969757 0.349504
0.687497 0.782908 0.352389
0.687324 0.843402 0.35266
0.689875 0.907451 0.349179
0.68992 0.968624 0.352466
0.749732 0.90823 0.428994
0.502264 0.906542 0.38744
0.502365 0.969553 0.390837
0.562437 0.781141 0.388047
0.562473 0.844618 0.387681
0.564719 0.90721 0.390798
0.564814 0.968612 0.387539
0.625005 0.782519 0.39068
0.624791 0.844308 0.39087
0.627258 0.906534 0.38741
0.627309 0.96981 0.390728
0.687399 0.781138 0.387957
0.687463 0.844612 0.387705
0.689631 0.907309 0.390846
0.689846 0.968754 0.387622
0.502147 0.967735 0.425899
0.562407 0.782387 0.428971
0.562288 0.845247 0.428852
0.562472 0.905725 0.425872
0.564571 0.97143 0.428885
0.624883 0.781765 0.42616
0.624812 0.844271 0.42603
0.624727 0.908415 0.429045
0.627139 0.967725 0.425888
0.687376 0.782219 0.428976
0.687178 0.845044 0.428912
0.68743 0.905778 0.425967
0.68968 0.971609 0.428829
0.749634 0.906205 0.464271
0.562339 0.782139 0.46448
0.562408 0.844289 0.46451
0.561957 0.908307 0.467087
0.562158 0.967876 0.464377
0.624796 0.782137 0.467185
0.624645 0.845352 0.466997
0.62465 0.906122 0.464254
0.624562 0.971498 0.467082
0.687167 0.781988 0.464465
0.687266 0.844255 0.464533
0.687056 0.908613 0.467008
0.687279 0.96798 0.464369
0.500036 0.782629 0.390642
0.749807 0.845218 0.349406
0.749716 0.844294 0.426007
0.500299 0.845732 0.273054
0.749692 0.971588 0.466931
0.749823 0.782153 0.467116
0.749739 0.84311 0.314396
0.500074 0.780767 0.34981
0.74961 0.845302 0.466872
0.500129 0.783365 0.314197
0.749993 0.783225 0.314107
0.749972 0.780526 0.349793
0.56186 0.784383 0.505202
0.52759 0.750955 0.542871
0.532019 0.813415 0.541826
0.527362 0.875968 0.54281
0.531923 0.938408 0.541602
0.594978 0.751009 0.541715
0.590235 0.813459 0.542889
0.595105 0.875911 0.541693
0.589964 0.938381 0.54284
0.652981 0.751004 0.542813
0.657461 0.813441 0.541772
0.653013 0.87597 0.542848
0.657454 0.938438 0.541537
0.719841 0.751046 0.541764
0.715861 0.813544 0.542931
0.719721 0.876001 0.54164
0.715704 0.938436 0.542755
0.529973 0.75097 0.580541
0.529219 0.813439 0.581012
0.529904 0.875921 0.580393
0.529467 0.938432 0.580775
0.653399 0.813457 0.504769
0.592628 0.813476 0.580567
0.591682 0.875948 0.580939
0.59224 0.938365 0.580296
0.655017 0.751098 0.580475
0.654386 0.813511 0.581
0.654999 0.87597 0.580445
0.65447 0.938495 0.580845
0.717781 0.813546 0.580369
0.716898 0.876029 0.580985
0.717571 0.938369 0.5803
0.529299 0.813465 0.619417
0.529341 0.87595 0.619568
0.529464 0.938375 0.619381
0.591645 0.813426 0.619784
0.591994 0.875903 0.619528
0.591918 0.938427 0.619556
0.654299 0.81348 0.619445
0.654254 0.875978 0.619573
0.654543 0.938497 0.619404
0.717074 0.813367 0.619609
0.71708 0.875926 0.619423
0.716997 0.938494 0.619517
0.529348 0.813373 0.658308
0.529743 0.875948 0.658303
0.529417 0.938484 0.658313
0.624434 0.971788 0.502789
0.592044 0.81342 0.658366
0.591868 0.875964 0.658464
0.592036 0.938452 0.658302
0.720446 0.813573 0.503007
0.654328 0.813506 0.658406
0.654412 0.875943 0.658368
0.654514 0.93848 0.658304
0.717594 0.813468 0.658193
0.717108 0.876029 0.658264
0.717014 0.938509 0.658189
0.529624 0.813461 0.697081
0.529354 0.875962 0.697139
0.529218 0.938409 0.697076
0.749064 0.845194 0.579527
0.591935 0.813504 0.697135
0.591939 0.876024 0.697301
0.591731 0.938438 0.697135
0.654704 0.813507 0.69709
0.654646 0.87609 0.697179
0.654697 0.938559 0.697114
0.716961 0.813529 0.697051
0.71726 0.87606 0.697033
0.716899 0.938586 0.697037
0.529701 0.750898 0.735871
0.529562 0.813436 0.735919
0.529263 0.875953 0.735902
0.528958 0.938405 0.735853
0.592267 0.750997 0.735959
0.592406 0.813541 0.736016
0.591953 0.87609 0.735881
0.592053 0.938522 0.736052
0.654638 0.751041 0.735884
0.654689 0.813644 0.7359
0.654645 0.876181 0.735905
0.654443 0.938628 0.735882
0.717078 0.751073 0.735815
0.717059 0.813632 0.735817
0.71723 0.876214 0.735881
0.716734 0.938652 0.735874
0.529182 0.781135 0.5232
0.529354 0.845807 0.523167
0.532089 0.905855 0.523082
0.52899 0.970837 0.523033
0.594583 0.783493 0.523184
0.59436 0.843338 0.523207
0.591631 0.908331 0.523103
0.594615 0.968083 0.522986
0.654295 0.781132 0.523185
0.654298 0.845861 0.523143
0.657115 0.905765 0.523065
0.654049 0.970959 0.523034
0.719609 0.783561 0.52316
0.719503 0.843521 0.523153
0.716805 0.908546 0.523076
0.719827 0.968155 0.522984
0.531362 0.782764 0.561581
0.531027 0.844033 0.561535
0.529599 0.90786 0.561479
0.531419 0.968933 0.56137
0.592161 0.781657 0.561588
0.592299 0.845398 0.56156
0.593651 0.906463 0.561464
0.591837 0.970256 0.561375
0.656318 0.782917 0.561553
0.656114 0.844087 0.561517
0.654668 0.907873 0.561466
0.65661 0.968983 0.561355
0.717267 0.781581 0.561574
0.71743 0.845527 0.561517
0.718859 0.906462 0.561428
0.717272 0.970397 0.561368
0.528945 0.78209 0.600191
0.529293 0.844987 0.600159
0.529703 0.90711 0.600094
0.529273 0.96981 0.600063
0.592095 0.782371 0.60026
0.59204 0.844525 0.600249
0.591817 0.907365 0.600137
0.592394 0.969361 0.600079
0.654262 0.781981 0.600196
0.654292 0.844951 0.600182
0.654687 0.907056 0.60012
0.654142 0.969922 0.600031
0.717344 0.782512 0.600126
0.717376 0.844518 0.600148
0.717034 0.907428 0.600104
0.71743 0.969443 0.599987
0.529666 0.782176 0.638934
0.529607 0.84463 0.638967
0.529641 0.90732 0.638929
0.529722 0.969584 0.638906
0.592236 0.782159 0.63903
0.592026 0.844797 0.639053
0.592326 0.907149 0.63897
0.592049 0.969818 0.638922
0.654794 0.782389 0.638974
0.654799 0.844656 0.638966
0.654603 0.907284 0.638924
0.654801 0.969671 0.638875
0.717164 0.782038 0.638921
0.71717 0.844823 0.638899
0.717326 0.907155 0.638853
0.71725 0.969831 0.638824
0.529589 0.78228 0.677723
0.529474 0.844746 0.677735
0.529623 0.907127 0.677742
0.529511 0.969761 0.677683
0.592166 0.782085 0.677759
0.592114 0.844779 0.677814
0.592143 0.907218 0.67782
0.5922 0.969728 0.677761
0.654839 0.782287 0.677768
0.654692 0.844814 0.677759
0.654739 0.907191 0.677761
0.654481 0.969762 0.677704
0.717519 0.782288 0.677703
0.717466 0.84472 0.677646
0.717168 0.907271 0.677677
0.717144 0.96972 0.677613
0.529841 0.782259 0.716513
0.529742 0.844749 0.716519
0.529237 0.907124 0.716518
0.529316 0.969513 0.716453
0.592328 0.782222 0.716568
0.592071 0.844665 0.716602
0.592052 0.9074 0.716609
0.592003 0.969551 0.716624
0.65477 0.782255 0.716531
0.654745 0.844928 0.716556
0.654659 0.907353 0.716537
0.654778 0.969924 0.716511
0.717306 0.782406 0.716475
0.717351 0.844804 0.716492
0.717441 0.907418 0.716484
0.717355 0.969731 0.716441
0.749144 0.969446 0.735737
0.749291 0.842536 0.542984
0.686945 0.842413 0.504988
0.561968 0.967518 0.505063
0.624367 0.904845 0.505155
0.561994 0.842366 0.505045
0.686959 0.967584 0.505096
0.654266 0.750937 0.619629
0.592155 0.750959 0.697192
0.591975 0.750922 0.658323
0.561394 0.779809 0.541684
0.561224 0.847219 0.541723
0.561328 0.904705 0.542995
0.561299 0.972164 0.541377
0.624059 0.784643 0.543156
0.624119 0.842152 0.542981
0.623856 0.909787 0.54161
0.623964 0.967315 0.543032
0.68656 0.779931 0.54165
0.686471 0.846955 0.541701
0.686617 0.904977 0.543018
0.686564 0.971919 0.541381
0.716794 0.750987 0.658315
0.749192 0.781804 0.61971
0.686831 0.909508 0.502896
0.56144 0.782567 0.580402
0.561452 0.844121 0.580218
0.561319 0.907466 0.579512
0.561478 0.969449 0.580262
0.623817 0.781834 0.579617
0.623872 0.8451 0.57964
0.623922 0.906864 0.580232
0.623722 0.969837 0.579258
0.686523 0.782689 0.580393
0.686532 0.844328 0.580208
0.686384 0.907565 0.579472
0.686592 0.96948 0.580233
0.749139 0.969724 0.658122
0.749319 0.967276 0.543025
0.749029 0.782043 0.579545
0.561328 0.78217 0.61948
0.561389 0.844586 0.619478
0.561541 0.907157 0.619567
0.561429 0.969571 0.619358
0.624011 0.782211 0.619556
0.623928 0.844629 0.61965
0.623988 0.907267 0.619372
0.624084 0.969626 0.619621
0.686465 0.78232 0.619363
0.686502 0.844569 0.619434
0.686533 0.907137 0.619528
0.686485 0.969749 0.619147
0.654582 0.750988 0.69718
0.657987 0.751052 0.503082
0.529462 0.750851 0.658271
0.749153 0.909274 0.541648
0.561555 0.782157 0.658269
0.561547 0.844377 0.658317
0.561539 0.907411 0.658263
0.561659 0.969561 0.658341
0.624231 0.782049 0.65834
0.624016 0.844921 0.658248
0.624002 0.907252 0.658383
0.62405 0.969583 0.658188
0.686674 0.782573 0.658423
0.686663 0.844709 0.6583
0.686557 0.906978 0.658134
0.686549 0.969972 0.658353
0.749165 0.784608 0.543073
0.749145 0.96978 0.619485
0.749071 0.969905 0.696926
0.561691 0.78209 0.697221
0.561561 0.844939 0.697166
0.561418 0.907194 0.69726
0.561466 0.969468 0.697205
0.624163 0.782262 0.697141
0.624021 0.844809 0.697213
0.624014 0.907432 0.697125
0.623904 0.9697 0.697208
0.686786 0.782152 0.697034
0.686662 0.84488 0.697098
0.686765 0.907225 0.697193
0.686588 0.969823 0.69699
0.529268 0.750893 0.619554
0.749317 0.782432 0.69705
0.561685 0.782313 0.735962
0.561435 0.844767 0.736003
0.561213 0.907409 0.735891
0.561203 0.969421 0.735939
0.624355 0.782223 0.7359
0.624185 0.845088 0.735975
0.624142 0.907157 0.736083
0.624127 0.969903 0.735973
0.686792 0.782276 0.735866
0.686754 0.845038 0.735998
0.686778 0.907504 0.735852
0.686683 0.969964 0.73598
0.624295 0.847056 0.503104
0.653688 0.93843 0.504713
0.716998 0.750969 0.580892
0.532621 0.751042 0.502994
0.591172 0.750972 0.504769
0.716005 0.876033 0.504835
0.590886 0.875905 0.504807
0.528539 0.813485 0.50479
0.528708 0.9384 0.504796
0.687014 0.784552 0.505109
0.71607 0.751017 0.504699
0.59162 0.75095 0.580931
0.720381 0.938339 0.502621
0.595752 0.938355 0.502641
0.749145 0.907311 0.619226
0.749364 0.779876 0.502987
0.624417 0.779907 0.503035
0.561845 0.90952 0.502926
0.658072 0.875864 0.502823
0.591714 0.750999 0.619485
0.532889 0.87589 0.502984
0.595424 0.813452 0.502984
0.654689 0.751021 0.658298
0.749221 0.906853 0.580265
0.749241 0.844614 0.619649
0.749076 0.969646 0.579303
0.529457 0.750969 0.697047
0.717299 0.751017 0.697118
0.716726 0.750946 0.619377
0.749283 0.781664 0.658246
0.749169 0.844612 0.697108
0.74936 0.84487 0.658169
0.749179 0.90742 0.658254
0.749271 0.782346 0.735872
0.749255 0.844822 0.735889
0.74923 0.907478 0.697079
0.749231 0.907699 0.735871
0.749414 0.84722 0.503131
0.749474 0.904972 0.505045
0.749449 0.971695 0.502721
0.529172 0.750962 0.774602
0.529307 0.81348 0.7747
0.528919 0.876023 0.774706
0.528642 0.938503 0.774786
0.592212 0.751115 0.77474
0.591959 0.813666 0.774779
0.59164 0.876152 0.77473
0.591928 0.938644 0.774732
0.654744 0.751211 0.774718
0.654941 0.813742 0.774721
0.654698 0.876175 0.774733
0.654542 0.938555 0.774689
0.717241 0.751182 0.774594
0.717084 0.813654 0.77466
0.717648 0.87618 0.774785
0.717261 0.938716 0.774778
0.529135 0.751068 0.813465
0.529145 0.81348 0.813468
0.529224 0.875982 0.813521
0.528979 0.938517 0.813453
0.592288 0.751234 0.813413
0.592265 0.813638 0.813446
0.592119 0.876082 0.813605
0.591845 0.938548 0.813513
0.654769 0.751272 0.813444
0.655272 0.813779 0.813512
0.654778 0.876255 0.813543
0.654738 0.938652 0.813576
0.717271 0.751151 0.813525
0.717373 0.813685 0.813628
0.717613 0.876289 0.813576
0.717306 0.938702 0.813595
0.529396 0.751067 0.852188
0.529449 0.813506 0.85234
0.5292 0.87603 0.852217
0.528804 0.938571 0.852262
0.592474 0.751157 0.852215
0.592348 0.813648 0.852303
0.591962 0.876148 0.852205
0.592138 0.938594 0.852354
0.655167 0.751247 0.85222
0.655085 0.813677 0.852334
0.655136 0.876155 0.852401
0.654795 0.93871 0.852304
0.71772 0.751164 0.852371
0.71785 0.813727 0.852413
0.717693 0.876286 0.852387
0.718043 0.938787 0.852409
0.529965 0.813543 0.891215
0.530238 0.876069 0.891062
0.529689 0.938567 0.891316
0.592776 0.813603 0.891092
0.592529 0.876164 0.891129
0.59237 0.938633 0.890957
0.655203 0.813569 0.891189
0.655429 0.876127 0.891037
0.654873 0.938704 0.891106
0.718223 0.813654 0.891117
0.717951 0.876198 0.891221
0.717799 0.93878 0.891009
0.530324 0.813601 0.929873
0.530012 0.876178 0.930179
0.529488 0.938656 0.929786
0.592607 0.813689 0.930032
0.592348 0.876258 0.929711
0.592263 0.938643 0.930123
0.655126 0.813658 0.929754
0.655143 0.87623 0.930031
0.654799 0.938741 0.929814
0.718023 0.813688 0.930142
0.717736 0.87624 0.929782
0.717821 0.938813 0.930096
0.531007 0.813552 0.969155
0.530162 0.876213 0.968336
0.530647 0.938746 0.96942
0.59291 0.813566 0.96821
0.593319 0.876139 0.969266
0.592516 0.938747 0.968197
0.656106 0.813606 0.969094
0.655162 0.876175 0.968199
0.655639 0.938697 0.969249
0.717867 0.813608 0.968298
0.718393 0.876288 0.969244
0.717702 0.938869 0.96818
0.530606 0.78132 0.987888
0.530826 0.846075 0.987936
0.532265 0.906314 0.987974
0.52981 0.971673 0.987976
0.594918 0.783598 0.987873
0.594281 0.843683 0.987879
0.592344 0.908754 0.987888
0.595054 0.968415 0.98793
0.655724 0.781345 0.987842
0.655955 0.846103 0.987829
0.657274 0.906169 0.987927
0.654817 0.971493 0.987898
0.719902 0.783675 0.987891
0.719344 0.843826 0.987902
0.717502 0.908908 0.987937
0.720044 0.968598 0.987974
0.52973 0.78225 0.755311
0.529574 0.844788 0.755345
0.529288 0.907255 0.75533
0.529166 0.969739 0.755321
0.592398 0.782238 0.755362
0.592184 0.844839 0.755358
0.592006 0.907258 0.755373
0.591914 0.969902 0.755369
0.654832 0.782427 0.755326
0.654773 0.844958 0.75538
0.654935 0.907446 0.755331
0.654774 0.969781 0.755333
0.717359 0.782348 0.755247
0.717374 0.844997 0.755302
0.717451 0.90749 0.755323
0.717429 0.969803 0.755337
0.529619 0.782186 0.794031
0.529618 0.844796 0.79411
0.529256 0.907219 0.79413
0.529109 0.969825 0.794132
0.592279 0.782398 0.79414
0.592193 0.844873 0.794162
0.59219 0.907376 0.794119
0.591899 0.969918 0.794129
0.655048 0.782476 0.79412
0.655161 0.845132 0.794153
0.654867 0.907436 0.794152
0.654704 0.969725 0.794168
0.717639 0.782493 0.794148
0.717573 0.844872 0.794202
0.717432 0.907517 0.7942
0.717288 0.970005 0.79415
0.529901 0.78253 0.832909
0.529794 0.844546 0.832977
0.529543 0.90737 0.832893
0.529193 0.969826 0.832913
0.592489 0.782346 0.83287
0.592404 0.84485 0.832904
0.592247 0.907454 0.832928
0.592108 0.96978 0.832911
0.655248 0.782561 0.832924
0.655214 0.844964 0.832926
0.655106 0.907394 0.832957
0.655013 0.969929 0.832922
0.717709 0.78234 0.833015
0.717689 0.845024 0.833012
0.717779 0.907608 0.833032
0.717705 0.969922 0.832981
0.530246 0.782388 0.87173
0.529978 0.844683 0.871723
0.529893 0.907462 0.871691
0.529652 0.969608 0.871694
0.592661 0.782212 0.871672
0.592612 0.845035 0.87168
0.592566 0.907307 0.871661
0.59233 0.969997 0.871658
0.655482 0.782447 0.871707
0.655325 0.844814 0.871718
0.655063 0.907521 0.871682
0.65517 0.969954 0.871673
0.717989 0.782353 0.871783
0.718077 0.84506 0.871769
0.717968 0.907432 0.87174
0.717891 0.970125 0.871681
0.530474 0.782203 0.910564
0.530126 0.845066 0.910539
0.53007 0.907171 0.910577
0.529789 0.970086 0.910506
0.59297 0.782455 0.910455
0.592954 0.844869 0.910445
0.592568 0.907769 0.910464
0.592529 0.969679 0.910456
0.655414 0.782205 0.910473
0.655235 0.84502 0.910492
0.655503 0.907473 0.91047
0.65489 0.970169 0.910488
0.718342 0.782516 0.910529
0.718202 0.844837 0.910517
0.717925 0.907693 0.910498
0.717938 0.969872 0.910505
0.530727 0.782558 0.949326
0.530549 0.844644 0.949341
0.529682 0.907914 0.949374
0.530153 0.969445 0.949359
0.59275 0.782019 0.94924
0.592543 0.845402 0.94926
0.592965 0.906997 0.949305
0.592159 0.970537 0.949255
0.65576 0.782742 0.949256
0.6554 0.844579 0.949237
0.654893 0.907956 0.94927
0.655386 0.969518 0.949293
0.717821 0.78198 0.949249
0.717727 0.845332 0.949288
0.718201 0.907173 0.949285
0.717429 0.970579 0.949273
0.749958 0.845075 0.852385
0.749306 0.90788 0.774745
0.749965 0.907424 0.891163
0.561675 0.78233 0.774651
0.561481 0.844927 0.774722
0.561139 0.907529 0.774817
0.561012 0.969845 0.774767
0.624202 0.782503 0.774717
0.624146 0.844911 0.774785
0.624069 0.907294 0.774638
0.624018 0.969873 0.774772
0.68689 0.782526 0.774725
0.68696 0.845022 0.774792
0.686828 0.907324 0.7748
0.686653 0.969784 0.774745
0.749919 0.844539 0.969311
0.749308 0.844552 0.774728
0.718738 0.751043 0.969035
0.749875 0.970266 0.891042
0.561533 0.782327 0.813576
0.561481 0.844663 0.813575
0.561389 0.907149 0.813442
0.561188 0.969799 0.81353
0.624518 0.78263 0.813468
0.624423 0.844791 0.813426
0.624175 0.907594 0.813466
0.624022 0.96994 0.813515
0.687126 0.782318 0.81349
0.6872 0.845381 0.813584
0.687009 0.907391 0.813576
0.686991 0.969742 0.813552
0.530581 0.75091 0.968333
0.749404 0.782102 0.81368
0.561863 0.782222 0.852266
0.561774 0.844981 0.852326
0.561552 0.907782 0.852234
0.561363 0.96969 0.852195
0.624549 0.782543 0.852249
0.624451 0.844833 0.85225
0.624379 0.907333 0.852275
0.624258 0.970112 0.852251
0.687314 0.782546 0.852361
0.687242 0.844936 0.852301
0.687139 0.907506 0.852396
0.687072 0.969891 0.852352
0.749888 0.970197 0.852229
0.655482 0.751097 0.930014
0.74919 0.782553 0.77466
0.530357 0.751019 0.930064
0.562253 0.782516 0.891121
0.562068 0.844519 0.891056
0.561891 0.907456 0.891147
0.561658 0.969772 0.891216
0.624807 0.782104 0.891047
0.62478 0.84503 0.891034
0.62459 0.907261 0.891147
0.624462 0.970161 0.891033
0.687409 0.782726 0.891227
0.68735 0.844636 0.891173
0.687258 0.907598 0.891035
0.687034 0.969694 0.891126
0.593618 0.751053 0.969043
0.592719 0.751079 0.929726
0.717957 0.751048 0.929721
0.56252 0.782299 0.929825
0.562158 0.845037 0.929769
0.56188 0.907645 0.930191
0.561699 0.96989 0.929795
0.624829 0.782448 0.929959
0.624676 0.84505 0.930021
0.624628 0.907359 0.929685
0.624292 0.970143 0.930067
0.68746 0.782615 0.929701
0.687338 0.84485 0.929775
0.687195 0.907565 0.930093
0.687098 0.969803 0.929792
0.749892 0.907551 0.929796
0.749697 0.969838 0.969109
0.749296 0.969718 0.774891
0.655586 0.750975 0.968229
0.562505 0.782 0.969917
0.562274 0.845089 0.969815
0.562239 0.907178 0.969062
0.561895 0.970107 0.970188
0.625125 0.782469 0.969153
0.624905 0.844527 0.969294
0.624551 0.90769 0.970154
0.624517 0.969917 0.968933
0.687512 0.781835 0.969907
0.687429 0.845286 0.969686
0.687272 0.907163 0.96902
0.686901 0.970058 0.97021
0.592622 0.751028 0.891062
0.530227 0.751072 0.891137
0.655411 0.751059 0.891038
0.717714 0.751127 0.891228
0.749928 0.782516 0.85236
0.749618 0.907648 0.813596
0.749729 0.970112 0.930163
0.749553 0.844961 0.813606
0.749637 0.907924 0.970187
0.500101 0.782545 0.969073
0.74947 0.969818 0.813579
0.749921 0.907489 0.852333
0.779927 0.00141242 0.00861575
0.786525 0.0638918 0.0059741
0.781274 0.126308 0.00854952
0.787093 0.188506 0.00586468
0.847829 0.00153635 0.00587738
0.843591 0.0639515 0.00867127
0.849544 0.126239 0.00598074
0.843946 0.188607 0.00858015
0.905092 0.00134513 0.00860881
0.9116 0.0638425 0.00603541
0.906391 0.12628 0.00860542
0.91231 0.18853 0.00590487
0.972843 0.00134788 0.00592072
0.968612 0.0638854 0.00869071
0.974506 0.126166 0.00602292
0.969225 0.188661 0.00848495
0.785716 0.00132594 0.044119
0.781617 0.0637108 0.0471181
0.785683 0.126227 0.0443349
0.781996 0.188619 0.047114
0.843915 0.00125481 0.0471889
0.848067 0.0637991 0.0443176
0.844552 0.126268 0.0471605
0.848413 0.188577 0.0442894
0.910693 0.00128197 0.0441986
0.906937 0.0637516 0.0471796
0.910838 0.126177 0.0443128
0.907094 0.188647 0.0471314
0.968913 0.00120322 0.04719
0.973423 0.0636714 0.0443759
0.96948 0.126185 0.0471783
0.973704 0.188625 0.0443159
0.781848 0.00115809 0.0853902
0.785515 0.0637081 0.0824774
0.782286 0.126174 0.0853213
0.785722 0.18859 0.0824747
0.847842 0.00117653 0.0823984
0.844739 0.0637009 0.0852971
0.848192 0.126149 0.0826248
0.845116 0.188618 0.0853413
0.907069 0.0011284 0.0853648
0.910552 0.0636264 0.0825426
0.907535 0.126154 0.0853775
0.91085 0.188592 0.0824413
0.972916 0.00111921 0.0823785
0.969782 0.0636302 0.0854818
0.973117 0.126139 0.0825307
0.970173 0.18865 0.0854098
0.785218 0.0011998 0.120524
0.782381 0.0636586 0.123575
0.785554 0.12616 0.120637
0.782669 0.188583 0.123606
0.844774 0.00115003 0.123595
0.847864 0.0636723 0.120657
0.845083 0.126123 0.123623
0.84838 0.188617 0.120685
0.910129 0.00113976 0.120608
0.907427 0.0636119 0.123612
0.910709 0.126094 0.120759
0.907631 0.188556 0.123619
0.969913 0.00105097 0.12366
0.972857 0.0635611 0.120644
0.970204 0.126122 0.123616
0.97326 0.18861 0.120726
0.782607 0.00108186 0.161849
0.785263 0.0636173 0.158821
0.782538 0.126114 0.161853
0.785702 0.188562 0.158746
0.847453 0.00110091 0.158611
0.845152 0.0636142 0.161804
0.847978 0.126103 0.158837
0.845199 0.188592 0.16183
0.907584 0.00108386 0.161868
0.910099 0.063544 0.158798
0.907591 0.126058 0.161829
0.910658 0.188568 0.158832
0.972546 0.00104683 0.158691
0.970169 0.0635483 0.161836
0.973065 0.126072 0.158906
0.970224 0.188568 0.161886
0.784746 0.0010438 0.196855
0.78266 0.0635845 0.200056
0.78525 0.126059 0.197049
0.782377 0.188547 0.200064
0.845204 0.00101775 0.200043
0.847509 0.0634905 0.196844
0.845208 0.126031 0.199986
0.847965 0.188524 0.196955
0.909844 0.00105583 0.19692
0.90778 0.0635601 0.19998
0.910056 0.12602 0.196986
0.907685 0.188532 0.200016
0.97025 0.00104952 0.200037
0.972437 0.0635221 0.196927
0.97029 0.126014 0.200013
0.972729 0.18854 0.197009
0.782483 9.73476e-04 0.238231
0.78478 0.0635124 0.235121
0.782536 0.126026 0.238195
0.785128 0.188518 0.235172
0.847369 9.86241e-04 0.234886
0.845065 0.0634495 0.238161
0.847587 0.1259 0.235162
0.845077 0.188444 0.238149
0.907772 9.76656e-04 0.238152
0.909888 0.0635179 0.235054
0.907608 0.125968 0.238189
0.910186 0.188482 0.235153
0.972382 9.75723e-04 0.234976
0.970316 0.0634276 0.238221
0.972534 0.125993 0.235061
0.970239 0.188506 0.238293
0.781587 0.0352513 0.0263612
0.7854 0.0930656 0.0264084
0.782322 0.160027 0.0263954
0.785447 0.217726 0.0262996
0.848063 0.0305229 0.0264417
0.844517 0.0977704 0.0264193
0.847964 0.155445 0.026393
0.845214 0.222289 0.0263212
0.906821 0.0351603 0.0264207
0.910568 0.0930252 0.0264342
0.907658 0.159903 0.0264013
0.910746 0.217693 0.0263362
0.973098 0.0303937 0.0264591
0.969881 0.0975275 0.0264744
0.973227 0.155495 0.026428
0.970188 0.222407 0.0263714
0.785669 0.0303979 0.0646137
0.782154 0.097651 0.0646109
0.785869 0.155484 0.064638
0.78245 0.222445 0.0646001
0.844351 0.0352756 0.0646175
0.84837 0.0931016 0.0646712
0.844984 0.160058 0.0646757
0.848589 0.217904 0.0645801
0.91094 0.0305081 0.0646644
0.907186 0.0976859 0.0646798
0.911108 0.155476 0.0646525
0.907639 0.222536 0.0646073
0.969413 0.0352812 0.0647011
0.973469 0.0929546 0.0647202
0.969929 0.160102 0.0647009
0.973692 0.217876 0.0646348
0.781821 0.0352371 0.102817
0.785876 0.0929825 0.102835
0.782164 0.160116 0.102863
0.786248 0.21769 0.102852
0.848229 0.0304387 0.102824
0.844563 0.0976468 0.102866
0.848797 0.155424 0.102911
0.844832 0.222573 0.102838
0.906747 0.0352074 0.102837
0.910993 0.0929434 0.102921
0.907303 0.16008 0.102916
0.911282 0.217642 0.102857
0.973418 0.0301977 0.102906
0.96959 0.0977235 0.102924
0.973792 0.15539 0.102918
0.96981 0.222697 0.102886
0.785931 0.0302581 0.141057
0.781966 0.0978639 0.141064
0.786259 0.155278 0.141085
0.78218 0.222781 0.141057
0.844314 0.0352431 0.141033
0.848598 0.0928757 0.141065
0.84466 0.160215 0.141117
0.848875 0.217686 0.141091
0.910986 0.0303204 0.141073
0.906984 0.0976483 0.141122
0.91126 0.155344 0.141131
0.907296 0.2227 0.141074
0.969296 0.0351836 0.141092
0.973635 0.0928344 0.141124
0.969462 0.160158 0.141153
0.973886 0.217774 0.141103
0.78169 0.0352475 0.179255
0.786253 0.0928262 0.179276
0.781924 0.160207 0.179282
0.786236 0.217576 0.179258
0.84854 0.0300812 0.179215
0.844312 0.0976687 0.179253
0.84871 0.155315 0.179298
0.844555 0.222671 0.179267
0.90667 0.0351791 0.179271
0.911298 0.0927053 0.179283
0.90702 0.160198 0.179324
0.911241 0.217664 0.179268
0.973661 0.030202 0.179273
0.969399 0.0977216 0.179317
0.973834 0.155285 0.179369
0.969685 0.222742 0.179308
0.786108 0.0302161 0.217419
0.781736 0.0976788 0.217456
0.786129 0.155257 0.217487
0.781849 0.222732 0.217445
0.844062 0.0352604 0.217393
0.848595 0.0925584 0.217439
0.844349 0.160097 0.217478
0.848695 0.217581 0.217435
0.911091 0.0301881 0.217423
0.906671 0.097744 0.21748
0.911337 0.155231 0.217501
0.906882 0.22268 0.21747
0.96912 0.0352996 0.217427
0.97374 0.0925586 0.217494
0.969442 0.160283 0.217497
0.973786 0.217544 0.217489
0.752375 0.0354673 0.00623785
0.752794 0.092145 0.00827041
0.752774 0.160256 0.00644348
0.753048 0.216692 0.00798891
0.81504 0.0300117 0.00841398
0.815156 0.0977554 0.00638699
0.815574 0.154463 0.00813842
0.815455 0.222511 0.00639546
0.877559 0.0354292 0.00631639
0.877974 0.0920888 0.00831128
0.878002 0.160376 0.00652219
0.878287 0.216749 0.00805444
0.940188 0.0299978 0.00846322
0.94033 0.0978028 0.00643413
0.940756 0.154509 0.00817442
0.9407 0.222558 0.00634855
0.75258 0.0301866 0.0465119
0.752648 0.0966961 0.0443407
0.752805 0.155214 0.0464884
0.752919 0.221738 0.0443695
0.815081 0.0342814 0.0442594
0.815268 0.0928808 0.0465431
0.815382 0.159186 0.0444708
0.81559 0.217529 0.0463182
0.877817 0.0302581 0.0466789
0.877838 0.0966538 0.0443891
0.878064 0.155184 0.0464041
0.878119 0.221716 0.044363
0.940283 0.0343357 0.0442726
0.940464 0.092707 0.0465671
0.940556 0.159175 0.0444293
0.940753 0.217466 0.0463956
0.752672 0.0338441 0.0824437
0.752834 0.0930123 0.0847237
0.752898 0.158678 0.0825371
0.753146 0.21797 0.0848482
0.815167 0.0304573 0.0847951
0.81533 0.0965059 0.0824173
0.815607 0.155431 0.0848256
0.815655 0.22126 0.0824386
0.877713 0.0337392 0.0823796
0.877994 0.0930554 0.0848787
0.878107 0.158684 0.0825157
0.878235 0.217838 0.08475
0.940324 0.0303968 0.0849156
0.940391 0.0961871 0.0824972
0.940647 0.155572 0.0849037
0.940751 0.221335 0.0824512
0.752775 0.030724 0.123146
0.752892 0.0960692 0.12065
0.753046 0.1556 0.123187
0.753236 0.221185 0.120605
0.815246 0.0337063 0.12056
0.81538 0.0930952 0.123049
0.815636 0.158758 0.120636
0.815732 0.217859 0.123086
0.877742 0.0306711 0.123065
0.877938 0.0961782 0.120657
0.878114 0.155516 0.123218
0.878251 0.221263 0.120629
0.940252 0.0334133 0.12057
0.940485 0.0929913 0.123177
0.940661 0.158569 0.120643
0.940737 0.218049 0.123185
0.752789 0.0332428 0.158727
0.752971 0.0932156 0.161334
0.753031 0.158539 0.15875
0.753091 0.217872 0.161326
0.815298 0.0308392 0.161377
0.815403 0.0959159 0.158695
0.815527 0.155583 0.161401
0.815612 0.221117 0.158812
0.877783 0.0332765 0.158776
0.877905 0.0932007 0.16144
0.878084 0.158427 0.158835
0.878193 0.218032 0.161409
0.94032 0.030824 0.161401
0.940497 0.0958277 0.15883
0.940599 0.155519 0.161512
0.940704 0.221074 0.158751
0.752729 0.0308169 0.199603
0.752879 0.0958395 0.196825
0.752895 0.155544 0.199566
0.752974 0.221103 0.196901
0.815242 0.0330478 0.196827
0.815358 0.0932637 0.199635
0.815425 0.158345 0.196948
0.815497 0.218023 0.199606
0.877739 0.0308912 0.19964
0.877868 0.0956231 0.196899
0.877994 0.155742 0.19967
0.878076 0.220837 0.196938
0.94025 0.0330498 0.196889
0.940386 0.0932856 0.199734
0.940453 0.158165 0.196998
0.940518 0.2182 0.199575
0.752663 0.0330747 0.234916
0.752678 0.0933064 0.237849
0.752777 0.158261 0.235051
0.752858 0.218149 0.237841
0.815139 0.0307671 0.237826
0.815215 0.0955434 0.235106
0.815297 0.155682 0.237868
0.815399 0.220764 0.235042
0.877728 0.0330255 0.234979
0.877721 0.0932046 0.237869
0.877843 0.158068 0.235078
0.877937 0.218046 0.237826
0.940263 0.0307913 0.237841
0.940341 0.0954642 0.235103
0.940389 0.155778 0.237857
0.940459 0.220731 0.235083
0.784809 8.68758e-04 0.273112
0.782272 0.0633892 0.276375
0.784715 0.12591 0.273296
0.782618 0.188459 0.276423
0.844874 8.68243e-04 0.27633
0.847206 0.0633906 0.273224
0.844932 0.125849 0.276365
0.847368 0.188411 0.273186
0.909769 9.47625e-04 0.273121
0.907459 0.0634278 0.276344
0.909873 0.125923 0.273256
0.907582 0.188428 0.276438
0.969988 8.47436e-04 0.276358
0.972282 0.0633571 0.273206
0.97015 0.1259 0.276385
0.972543 0.188427 0.27317
0.782634 7.61418e-04 0.314511
0.784321 0.0633085 0.311382
0.782717 0.125893 0.314552
0.784585 0.188481 0.311326
0.846703 8.00965e-04 0.31125
0.845008 0.0633334 0.3145
0.846914 0.125921 0.311336
0.845293 0.188464 0.314552
0.907591 8.05539e-04 0.314551
0.909392 0.0632915 0.311327
0.907783 0.125858 0.314434
0.909638 0.188416 0.311304
0.971831 7.79308e-04 0.311154
0.97023 0.0632833 0.314466
0.972133 0.125807 0.311332
0.970396 0.188428 0.314511
0.783935 7.06798e-04 0.349433
0.783093 0.0632237 0.352626
0.78373 0.125834 0.349388
0.78321 0.188426 0.352737
0.84534 7.73382e-04 0.352581
0.846359 0.0632935 0.349456
0.84573 0.125834 0.35262
0.846375 0.188412 0.349377
0.908819 7.49843e-04 0.34947
0.908077 0.0632588 0.352552
0.908766 0.125822 0.349398
0.908251 0.188375 0.352574
0.970542 7.77546e-04 0.352609
0.971225 0.0632726 0.349309
0.970782 0.125783 0.352589
0.971406 0.188349 0.349149
0.783846 6.94507e-04 0.390698
0.782773 0.0632455 0.387369
0.783697 0.12583 0.390667
0.782945 0.188388 0.38735
0.84531 7.21848e-04 0.387424
0.846076 0.0633338 0.390633
0.84544 0.125867 0.387355
0.846375 0.188402 0.390715
0.908587 7.29159e-04 0.390738
0.9079 0.0632335 0.387413
0.908827 0.125772 0.390571
0.907983 0.188408 0.387335
0.970445 6.83739e-04 0.387332
0.971123 0.0632473 0.390653
0.970371 0.125843 0.387293
0.971387 0.188348 0.390674
0.780973 0.0010053 0.425517
0.786247 0.0633705 0.428845
0.780875 0.126006 0.425633
0.786315 0.188465 0.428885
0.847997 8.58128e-04 0.428798
0.843343 0.0635196 0.425612
0.848716 0.125928 0.42882
0.843518 0.188531 0.425517
0.905868 9.36428e-04 0.425519
0.910983 0.0633767 0.428756
0.90587 0.125988 0.425528
0.911106 0.188417 0.428798
0.972946 8.83538e-04 0.428891
0.968379 0.0634129 0.425435
0.97369 0.125876 0.428855
0.968627 0.188538 0.42551
0.783445 0.00107147 0.467015
0.778728 0.0635163 0.464103
0.783681 0.125958 0.467099
0.778675 0.188503 0.464149
0.841484 8.63891e-04 0.463914
0.846128 0.0635036 0.467041
0.840988 0.125999 0.46414
0.846463 0.188483 0.467084
0.908125 0.00101867 0.466955
0.903608 0.0634622 0.464212
0.908827 0.126007 0.466967
0.903568 0.188514 0.46411
0.966512 9.33062e-04 0.463996
0.970902 0.0635354 0.46698
0.965785 0.125991 0.464008
0.971621 0.188457 0.46698
0.781271 0.0352224 0.255581
0.785879 0.0926008 0.255641
0.781573 0.160174 0.255664
0.786132 0.217622 0.255624
0.848451 0.030006 0.255545
0.843988 0.0976007 0.25563
0.848584 0.155057 0.255629
0.844224 0.22264 0.25561
0.906531 0.0353077 0.255564
0.910967 0.0926323 0.255627
0.906598 0.160147 0.255634
0.911226 0.217525 0.25565
0.973616 0.029967 0.25559
0.969098 0.0976787 0.255645
0.97371 0.155038 0.255628
0.969207 0.222898 0.255633
0.785863 0.0299387 0.293753
0.781182 0.0976581 0.293823
0.786057 0.155132 0.293806
0.78158 0.222786 0.29379
0.843748 0.0349874 0.293728
0.84837 0.092529 0.29379
0.843906 0.160152 0.293768
0.848581 0.217496 0.293763
0.910881 0.0299255 0.29372
0.906365 0.0976005 0.293763
0.911172 0.154973 0.29375
0.906674 0.222877 0.293743
0.968832 0.0351164 0.293712
0.973481 0.0924395 0.293765
0.969173 0.160175 0.293759
0.973701 0.217436 0.293742
0.781072 0.0350338 0.331925
0.785929 0.0924736 0.331936
0.7813 0.160323 0.331943
0.785991 0.217489 0.331951
0.848307 0.0299195 0.331878
0.843716 0.097707 0.331916
0.848564 0.155004 0.331921
0.843976 0.222923 0.331922
0.90608 0.0349971 0.331881
0.910993 0.0924669 0.331875
0.906378 0.16015 0.331863
0.911135 0.217414 0.331873
0.973305 0.0297861 0.331854
0.968781 0.0976377 0.331901
0.973569 0.154895 0.331864
0.96902 0.222949 0.331876
0.785887 0.0297809 0.370068
0.781329 0.0976602 0.370038
0.785951 0.154794 0.370061
0.781249 0.222904 0.370078
0.843535 0.0351253 0.370027
0.848405 0.0925068 0.370023
0.843794 0.160311 0.370048
0.848513 0.217412 0.370066
0.910717 0.0298209 0.370024
0.906118 0.0976124 0.369994
0.910936 0.15492 0.369989
0.906472 0.22292 0.369988
0.968625 0.0351668 0.37
0.973372 0.0923416 0.370006
0.968876 0.16036 0.369968
0.97345 0.217294 0.369994
0.781238 0.0352236 0.408165
0.785648 0.0923938 0.408184
0.781465 0.160387 0.408187
0.785599 0.217343 0.408181
0.848024 0.029977 0.408151
0.843796 0.0977042 0.408154
0.848279 0.154988 0.408173
0.844078 0.222855 0.40813
0.906137 0.0351258 0.408123
0.910723 0.0923846 0.40811
0.90654 0.160265 0.408117
0.910755 0.21738 0.408141
0.973067 0.0297979 0.408131
0.968854 0.0977375 0.408115
0.97306 0.154902 0.40813
0.969015 0.222989 0.408098
0.784137 0.0297636 0.446426
0.780765 0.0974007 0.446405
0.784364 0.1547 0.446447
0.781063 0.222625 0.446398
0.842846 0.0348616 0.446349
0.846641 0.0922385 0.446435
0.843212 0.160008 0.4464
0.846479 0.217184 0.446396
0.909058 0.0298335 0.446388
0.905477 0.0972991 0.446362
0.909079 0.154825 0.446395
0.906021 0.222584 0.446323
0.967751 0.0349654 0.446314
0.97145 0.092141 0.446359
0.968316 0.159997 0.446315
0.971618 0.217309 0.44637
0.778884 0.0341603 0.484703
0.782326 0.092526 0.484704
0.77899 0.159007 0.484664
0.782358 0.217806 0.48467
0.844958 0.0297675 0.484639
0.841527 0.0965982 0.4847
0.844938 0.155125 0.484687
0.842081 0.221525 0.484643
0.903935 0.0339817 0.484717
0.907355 0.0926355 0.484681
0.904013 0.159097 0.484646
0.907216 0.21769 0.48467
0.969722 0.0300021 0.484613
0.966532 0.096678 0.484617
0.96981 0.155046 0.484587
0.966754 0.221525 0.484593
0.752542 0.0305567 0.276023
0.752522 0.0954815 0.273265
0.752664 0.15569 0.276097
0.752801 0.220613 0.273181
0.815026 0.0330049 0.273068
0.815054 0.0930989 0.276054
0.815157 0.157887 0.273231
0.815234 0.218194 0.276027
0.87753 0.0306643 0.275974
0.877553 0.0954925 0.273252
0.877704 0.155595 0.276065
0.87776 0.220612 0.2732
0.940066 0.032939 0.273135
0.940179 0.0932196 0.276068
0.940327 0.158063 0.273183
0.940374 0.218017 0.276066
0.752392 0.0324662 0.311324
0.752429 0.0932727 0.314302
0.752626 0.157785 0.311367
0.752657 0.218438 0.314271
0.814848 0.0309069 0.314243
0.814922 0.095114 0.311318
0.815079 0.155981 0.3143
0.815151 0.220238 0.311405
0.87741 0.0325427 0.311286
0.877508 0.093306 0.314269
0.877643 0.157746 0.311229
0.877727 0.218515 0.314182
0.939974 0.0308101 0.314195
0.940068 0.0950696 0.311311
0.940213 0.155946 0.314177
0.940294 0.220316 0.311313
0.7524 0.0312294 0.352469
0.75244 0.0943936 0.349527
0.75251 0.156502 0.352468
0.752509 0.219657 0.349476
0.814804 0.0321072 0.349474
0.814925 0.0937733 0.352465
0.814998 0.157003 0.349523
0.815085 0.218946 0.352409
0.87734 0.0312673 0.352399
0.87746 0.0945415 0.349427
0.877518 0.156482 0.352443
0.87768 0.219712 0.349462
0.939857 0.0321038 0.349459
0.939913 0.0938828 0.352411
0.940011 0.156943 0.349453
0.940126 0.218935 0.35237
0.752324 0.0311733 0.38776
0.752333 0.0946089 0.390469
0.752404 0.156289 0.387789
0.752426 0.219946 0.390572
0.814769 0.0321087 0.390519
0.814799 0.093808 0.387732
0.814902 0.157149 0.390548
0.814937 0.218767 0.387794
0.877171 0.0312509 0.387651
0.87733 0.0945757 0.390542
0.877442 0.156291 0.387676
0.877524 0.219977 0.390515
0.939736 0.0318414 0.390439
0.939794 0.0937721 0.387632
0.939837 0.157158 0.390428
0.939975 0.218689 0.387691
0.752331 0.0344751 0.428517
0.752679 0.0918551 0.426176
0.752501 0.159602 0.428509
0.752678 0.216859 0.426218
0.814895 0.0294557 0.425995
0.814846 0.0972244 0.428483
0.815151 0.154328 0.42614
0.814939 0.222208 0.428254
0.877182 0.0343317 0.428493
0.877547 0.0919213 0.42594
0.877395 0.159524 0.4285
0.877693 0.216975 0.426172
0.93978 0.0295041 0.425939
0.939827 0.096988 0.428391
0.940089 0.15443 0.426085
0.939991 0.222088 0.428347
0.812149 0.0345894 0.466772
0.812261 0.0921851 0.464584
0.812202 0.159725 0.466674
0.81251 0.217065 0.464722
0.8746 0.0298983 0.464472
0.874605 0.0974487 0.466743
0.874756 0.154429 0.464468
0.874845 0.222422 0.466417
0.937019 0.0344231 0.46676
0.937188 0.0922122 0.464502
0.937131 0.160096 0.46658
0.93739 0.216909 0.464558
0.999509 0.0972776 0.466524
0.999732 0.154375 0.464564
0.999558 0.03013 0.464376
0.999802 0.222287 0.466491
0.96621 0.125976 0.504705
0.999158 0.0924101 0.542869
0.782287 0.12595 0.502679
0.782287 8.55691e-04 0.502716
0.841501 8.96406e-04 0.50479
0.937343 0.217569 0.504702
0.777736 8.41905e-04 0.542661
0.782281 0.063343 0.541501
0.778424 0.125977 0.542665
0.78235 0.188444 0.541434
0.999082 0.0946359 0.696969
0.840793 0.0633737 0.54281
0.845095 0.125853 0.541364
0.840801 0.188537 0.542656
0.903241 9.54152e-04 0.542734
0.90754 0.0634541 0.541374
0.903047 0.126023 0.542633
0.907546 0.188449 0.54142
0.969888 8.32202e-04 0.541406
0.965698 0.0634502 0.542614
0.970147 0.125907 0.541383
0.965799 0.188414 0.542662
0.78001 8.5604e-04 0.580257
0.779719 0.0634152 0.58062
0.779959 0.125911 0.580166
0.779794 0.188388 0.580676
0.842205 0.00100859 0.580765
0.842449 0.0634183 0.580223
0.842235 0.125977 0.580772
0.842787 0.188416 0.580028
0.904921 8.96745e-04 0.580176
0.904593 0.0634275 0.580775
0.905219 0.125869 0.580154
0.904924 0.188506 0.580605
0.966797 9.62419e-04 0.580718
0.967252 0.0633504 0.580243
0.967042 0.125909 0.580709
0.967419 0.188338 0.580204
0.966161 9.30385e-04 0.50474
0.779585 9.22674e-04 0.619327
0.779621 0.0633517 0.619137
0.779457 0.12584 0.619317
0.779669 0.188301 0.619086
0.999032 0.032421 0.735916
0.841944 9.34088e-04 0.619277
0.841997 0.0634819 0.619466
0.842232 0.125922 0.619203
0.841872 0.188421 0.619376
0.874654 0.221918 0.503074
0.904334 9.57109e-04 0.61948
0.90438 0.0634238 0.619271
0.904529 0.125942 0.619398
0.904649 0.188396 0.61919
0.967031 9.48075e-04 0.619374
0.966792 0.0634229 0.619423
0.967029 0.125837 0.619223
0.966979 0.188351 0.61942
0.90398 0.0634618 0.504764
0.779436 0.0010694 0.658137
0.779557 0.0634441 0.658116
0.779588 0.125818 0.657959
0.779631 0.188257 0.658041
0.842119 0.00100178 0.658191
0.84213 0.0634375 0.65808
0.842239 0.125899 0.658187
0.842193 0.188419 0.658092
0.904523 9.50698e-04 0.658267
0.904468 0.0634348 0.658202
0.904773 0.125958 0.658066
0.904499 0.188511 0.658058
0.967097 0.00105243 0.658221
0.966873 0.0634257 0.658145
0.966999 0.125862 0.658199
0.967149 0.188358 0.658118
0.779333 0.00111288 0.697047
0.779587 0.0635518 0.697017
0.779432 0.125999 0.696933
0.779599 0.1884 0.696838
0.841998 0.00106278 0.697111
0.841778 0.0635322 0.696992
0.841836 0.125986 0.696813
0.842048 0.188452 0.696925
0.904555 0.00109893 0.697108
0.904414 0.0635795 0.697021
0.904483 0.126005 0.696968
0.904464 0.188451 0.696922
0.966785 0.00108051 0.697104
0.967053 0.0634276 0.697032
0.966978 0.125923 0.696987
0.967079 0.188443 0.696933
0.779248 0.0010208 0.735746
0.779804 0.0636188 0.735783
0.77942 0.126156 0.735706
0.779606 0.188553 0.73576
0.842308 0.00107903 0.735815
0.842241 0.0636846 0.735828
0.842003 0.126163 0.735775
0.841897 0.188587 0.735742
0.904369 0.00108341 0.735893
0.904448 0.0635833 0.735875
0.904565 0.126159 0.735834
0.904608 0.188576 0.73582
0.967011 0.00109734 0.735912
0.966873 0.0635615 0.735857
0.96696 0.126044 0.735688
0.96721 0.188546 0.735731
0.782101 0.0306462 0.522945
0.779549 0.0959943 0.522982
0.782575 0.15574 0.522922
0.779822 0.220905 0.522894
0.841649 0.0335243 0.522958
0.844506 0.0930261 0.522938
0.841694 0.158519 0.522929
0.84416 0.218396 0.522884
0.90715 0.0307429 0.522963
0.904287 0.0960773 0.522952
0.907372 0.155814 0.52293
0.904736 0.220912 0.522902
0.966749 0.0334518 0.522935
0.96954 0.0932425 0.522911
0.967084 0.158437 0.522915
0.969668 0.218246 0.522889
0.77956 0.0325502 0.561323
0.781446 0.0938872 0.561287
0.779678 0.157815 0.561282
0.781249 0.219019 0.561205
0.844136 0.0313385 0.561296
0.842464 0.0954257 0.561339
0.844447 0.15633 0.561252
0.842637 0.220446 0.561235
0.904757 0.0328882 0.561326
0.906474 0.0939156 0.561268
0.90479 0.157894 0.56128
0.906291 0.219155 0.561208
0.968763 0.0313895 0.561307
0.967239 0.095278 0.561296
0.969279 0.156469 0.561304
0.967484 0.220179 0.561286
0.779916 0.0319798 0.599933
0.779326 0.0949434 0.599882
0.780002 0.156784 0.599878
0.779642 0.219774 0.599846
0.84187 0.0324008 0.599997
0.842492 0.0944659 0.599974
0.84196 0.157463 0.599936
0.842373 0.219364 0.599854
0.904701 0.0319408 0.6
0.904449 0.0948845 0.599951
0.904984 0.156945 0.599903
0.904571 0.219787 0.599905
0.966785 0.0323468 0.600013
0.967191 0.0943927 0.599948
0.966739 0.157383 0.599976
0.967438 0.219419 0.599919
0.779642 0.0321967 0.638747
0.779882 0.0944473 0.638658
0.779589 0.157087 0.638666
0.77984 0.219318 0.638629
0.842322 0.0321816 0.638811
0.842161 0.094757 0.638781
0.842539 0.156992 0.638757
0.842396 0.219781 0.638694
0.904671 0.0322285 0.638831
0.904889 0.0944613 0.638775
0.904714 0.157403 0.638738
0.904961 0.219655 0.63867
0.967216 0.0321685 0.638811
0.967196 0.0947186 0.63879
0.967533 0.156994 0.638769
0.967201 0.219663 0.63875
0.779869 0.0324638 0.677584
0.779876 0.0947321 0.677547
0.779829 0.157069 0.677484
0.779858 0.219636 0.677435
0.842304 0.0322937 0.677667
0.842306 0.0945508 0.677562
0.842146 0.157251 0.677547
0.842471 0.219646 0.677481
0.904521 0.0323726 0.677718
0.904673 0.0947485 0.677596
0.904718 0.157122 0.677542
0.904807 0.21965 0.67751
0.967142 0.0322811 0.677626
0.967151 0.0945422 0.677623
0.967165 0.157161 0.677616
0.967172 0.219647 0.677527
0.779578 0.0322382 0.716383
0.779736 0.0947129 0.716401
0.779674 0.15728 0.716338
0.779673 0.219508 0.716261
0.842023 0.032368 0.716484
0.842224 0.0948889 0.716385
0.842178 0.157398 0.716347
0.842092 0.21969 0.716301
0.90451 0.0324634 0.716466
0.904805 0.0948148 0.716409
0.904664 0.157279 0.716403
0.904701 0.219597 0.716327
0.967147 0.0322611 0.71648
0.967177 0.0947491 0.716411
0.967039 0.157329 0.71639
0.967148 0.21975 0.716294
0.999223 0.159477 0.541405
0.97061 0.18838 0.50259
0.81206 0.0930623 0.50484
0.84551 0.18843 0.502708
0.874502 0.0300918 0.504839
0.90405 0.188493 0.504724
0.93704 0.09273 0.504863
0.812452 0.217603 0.50447
0.999129 0.156957 0.580265
0.999252 0.219869 0.735556
0.998898 0.031986 0.5801
0.999061 0.0946369 0.619355
0.811618 0.0299035 0.542959
0.811693 0.0967394 0.541547
0.811858 0.155118 0.542998
0.811639 0.222069 0.54158
0.874141 0.0344874 0.541313
0.874228 0.0922426 0.5428
0.874158 0.159585 0.541234
0.874401 0.217391 0.542586
0.936706 0.0300275 0.542932
0.936624 0.0970717 0.541495
0.936812 0.154806 0.542981
0.936794 0.221997 0.541443
0.998824 0.0947582 0.579365
0.999108 0.156979 0.619168
0.999061 0.21984 0.57928
0.811522 0.0325032 0.579238
0.811716 0.0944027 0.580057
0.81167 0.157443 0.579153
0.811742 0.219502 0.579811
0.874144 0.032102 0.58012
0.874077 0.0948728 0.579356
0.874296 0.156889 0.580129
0.874197 0.219922 0.579355
0.936391 0.0322416 0.57933
0.936679 0.0943959 0.580005
0.936566 0.157355 0.579179
0.936849 0.219615 0.579945
0.845029 9.12672e-04 0.541372
0.999032 0.094579 0.735817
0.999205 0.219487 0.619319
0.999221 0.219646 0.658059
0.811736 0.0323718 0.619527
0.811625 0.0946447 0.619124
0.811724 0.156984 0.619469
0.811708 0.219385 0.619221
0.874021 0.0322239 0.619355
0.874203 0.0946686 0.619381
0.874149 0.157245 0.619082
0.874214 0.219576 0.61932
0.936546 0.0321509 0.619482
0.936576 0.0947089 0.619247
0.936706 0.157074 0.619495
0.936793 0.21966 0.619089
0.999375 0.0970064 0.502879
0.998976 0.032267 0.619258
0.999021 0.0322387 0.696952
0.999582 0.221633 0.502879
0.811666 0.0320972 0.658037
0.81162 0.0948355 0.658117
0.81173 0.156891 0.65804
0.811764 0.219624 0.658008
0.874209 0.0321165 0.658228
0.874259 0.0947325 0.65815
0.87431 0.157203 0.65819
0.874259 0.219975 0.657991
0.93648 0.0320372 0.658232
0.93666 0.0946967 0.658195
0.936673 0.157182 0.658018
0.936725 0.219797 0.658089
0.999157 0.157021 0.658192
0.999134 0.157194 0.735686
0.811577 0.0322596 0.697134
0.811562 0.0946699 0.697082
0.811583 0.157296 0.696945
0.811642 0.219683 0.696778
0.874022 0.0322508 0.697159
0.874007 0.0947817 0.697114
0.874084 0.157083 0.697028
0.874161 0.219812 0.696787
0.936526 0.0325421 0.696991
0.936558 0.0946875 0.696936
0.936597 0.157312 0.696956
0.936558 0.21963 0.696824
0.999108 0.0322851 0.658225
0.999314 0.217443 0.542669
0.999216 0.219606 0.697026
0.999116 0.0946736 0.658092
0.811551 0.0323856 0.735784
0.811663 0.0950279 0.735831
0.811611 0.157118 0.735773
0.811547 0.219915 0.735799
0.874109 0.0324059 0.735787
0.874182 0.0949987 0.73574
0.874053 0.157509 0.735901
0.874041 0.219642 0.73575
0.936466 0.032208 0.735816
0.936541 0.0949074 0.735838
0.93669 0.157361 0.735811
0.936697 0.21967 0.735674
0.907989 8.95281e-04 0.502739
0.845289 0.0633621 0.502543
0.841731 0.125965 0.5048
0.874658 0.155217 0.504978
0.908186 0.12601 0.502611
0.970231 0.0634826 0.502586
0.779423 0.188494 0.504673
0.779092 0.0634489 0.504853
0.936939 0.0343858 0.502853
0.812069 0.158981 0.502709
0.937077 0.159402 0.502808
0.81193 0.0338281 0.502811
0.8745 0.0966902 0.502901
0.998914 0.0342874 0.541501
0.99912 0.157104 0.696962
0.999574 0.15487 0.50464
0.999303 0.030216 0.504799
0.778989 0.00117119 0.77465
0.779217 0.0636645 0.774607
0.779032 0.12605 0.774643
0.779059 0.188537 0.774591
0.841996 0.00121615 0.774569
0.84193 0.0635607 0.774698
0.842249 0.126133 0.77459
0.841774 0.18866 0.774522
0.904458 0.00108417 0.774752
0.904602 0.0636198 0.774649
0.904679 0.126184 0.774555
0.904654 0.188676 0.774519
0.966826 0.00115134 0.77468
0.966998 0.0636544 0.77466
0.966862 0.126148 0.774635
0.967105 0.18862 0.774566
0.779846 0.00112849 0.813601
0.780233 0.0636272 0.813546
0.780424 0.126087 0.813466
0.780092 0.188598 0.813414
0.842507 0.00112587 0.813539
0.842525 0.0636263 0.813538
0.84209 0.126112 0.813385
0.842244 0.188635 0.813415
0.90474 0.00108939 0.813407
0.904545 0.0637568 0.81347
0.904534 0.12627 0.813444
0.904717 0.188644 0.813331
0.966611 0.00120363 0.813596
0.966784 0.0636109 0.813488
0.966913 0.126071 0.813502
0.967076 0.188593 0.813387
0.780744 0.00127031 0.852293
0.779137 0.0636955 0.852319
0.78047 0.126123 0.852278
0.779251 0.188493 0.852223
0.842292 0.00120432 0.852321
0.842935 0.0636929 0.852374
0.842298 0.126148 0.852345
0.842401 0.188577 0.852214
0.904951 0.00113978 0.852363
0.90468 0.0636012 0.8523
0.90483 0.12612 0.852431
0.904928 0.188642 0.852258
0.967226 0.00113104 0.852349
0.967209 0.0636596 0.852481
0.966586 0.126106 0.852286
0.96747 0.188539 0.852222
0.780575 0.00121849 0.891163
0.780015 0.0636986 0.891252
0.780169 0.126117 0.891122
0.779692 0.188479 0.891215
0.998861 0.0326545 0.774671
0.842739 0.00121595 0.891255
0.842838 0.063692 0.891061
0.842738 0.12612 0.891247
0.842691 0.188524 0.891046
0.904962 0.00116756 0.891232
0.904891 0.0636076 0.891419
0.905165 0.126136 0.891142
0.904851 0.188573 0.891302
0.967262 0.00107826 0.891386
0.96718 0.0636564 0.891195
0.967057 0.126133 0.891309
0.967313 0.188564 0.891116
0.779862 0.00133164 0.930174
0.779446 0.0636378 0.929766
0.780085 0.126011 0.930179
0.779495 0.18848 0.929698
0.842108 0.0013365 0.929893
0.842506 0.063721 0.930213
0.841984 0.126148 0.929812
0.842703 0.188468 0.930314
0.904918 0.00119485 0.930351
0.904831 0.0637154 0.929956
0.905145 0.126092 0.930258
0.904938 0.188542 0.929805
0.967579 0.00116799 0.929892
0.967507 0.0636439 0.930357
0.967315 0.126093 0.929841
0.967809 0.188501 0.93027
0.780193 0.00141072 0.968295
0.779727 0.0636546 0.969551
0.780679 0.126134 0.968175
0.779566 0.188432 0.969462
0.84296 0.001375 0.969627
0.843393 0.063862 0.96829
0.842164 0.12608 0.969579
0.8435 0.188485 0.968127
0.905503 0.00133171 0.968261
0.905012 0.0636618 0.969634
0.906018 0.126104 0.968245
0.904847 0.188489 0.969553
0.968017 0.00119816 0.969634
0.968462 0.0637378 0.968295
0.967252 0.126117 0.969681
0.968788 0.188514 0.968206
0.783628 0.0308259 0.988102
0.780927 0.0967322 0.988052
0.783456 0.155544 0.988023
0.781306 0.221308 0.987914
0.8432 0.0344712 0.988079
0.846003 0.0933491 0.988084
0.843858 0.159041 0.988021
0.846095 0.217817 0.987957
0.908789 0.030803 0.988145
0.906185 0.0966427 0.988103
0.908586 0.15555 0.988061
0.906322 0.221463 0.988002
0.968251 0.0344148 0.988116
0.971198 0.0931858 0.988118
0.968792 0.159023 0.988056
0.971333 0.218011 0.987968
0.779692 0.0323171 0.755216
0.779549 0.095018 0.755204
0.779714 0.157289 0.755188
0.779412 0.21981 0.755102
0.842109 0.0324398 0.755244
0.842256 0.0947835 0.755231
0.842163 0.15741 0.755194
0.842047 0.219828 0.755092
0.904525 0.0322761 0.755289
0.904644 0.0948147 0.755214
0.904736 0.157392 0.755196
0.904532 0.219945 0.755091
0.966967 0.0323678 0.755252
0.967043 0.0949907 0.755185
0.967092 0.157293 0.755132
0.967256 0.219806 0.755073
0.779913 0.0324412 0.794102
0.77994 0.0947859 0.79405
0.779617 0.157208 0.79405
0.779693 0.219776 0.793982
0.842648 0.0323268 0.794063
0.842472 0.0947825 0.794021
0.842356 0.157456 0.793976
0.84226 0.219843 0.793906
0.904741 0.0324442 0.794087
0.904723 0.0950088 0.794023
0.904585 0.157498 0.793972
0.90478 0.219817 0.793899
0.96697 0.0323214 0.794071
0.966957 0.0948801 0.794058
0.967017 0.157294 0.794016
0.967197 0.2199 0.793922
0.780137 0.0324651 0.832937
0.78027 0.0948436 0.832913
0.780211 0.157429 0.832842
0.779747 0.219723 0.83279
0.842604 0.0324644 0.832915
0.842839 0.0950403 0.832927
0.842545 0.157293 0.832861
0.842518 0.219788 0.832786
0.904889 0.0323782 0.832914
0.904865 0.095015 0.832924
0.904928 0.157398 0.832886
0.904829 0.219762 0.832777
0.967216 0.0325312 0.832964
0.967187 0.0947781 0.832915
0.966966 0.157224 0.832841
0.967189 0.219875 0.83274
0.78032 0.0326787 0.871742
0.780159 0.0948265 0.871727
0.780314 0.157451 0.871664
0.780163 0.219581 0.871665
0.842792 0.032399 0.871723
0.842699 0.0950166 0.871755
0.842688 0.15728 0.871746
0.842602 0.219721 0.871607
0.905098 0.0324237 0.871802
0.905102 0.0946715 0.871814
0.905092 0.157422 0.871753
0.905095 0.219715 0.871675
0.967238 0.0323887 0.871851
0.967286 0.0950462 0.871813
0.967384 0.157295 0.871753
0.967259 0.219779 0.871659
0.780424 0.0324005 0.910591
0.779999 0.0948743 0.910536
0.780334 0.157042 0.910516
0.780168 0.219768 0.910485
0.842818 0.0326721 0.910606
0.842841 0.0948545 0.91059
0.842627 0.157512 0.910583
0.843113 0.219483 0.910544
0.905266 0.0322 0.910722
0.90511 0.0951235 0.910688
0.905398 0.15723 0.910629
0.905255 0.219877 0.910553
0.967421 0.0326762 0.910673
0.967738 0.094653 0.910682
0.967434 0.157527 0.910677
0.967887 0.219573 0.910521
0.779562 0.0330701 0.949359
0.780516 0.0942349 0.949333
0.779788 0.157965 0.949296
0.780298 0.218918 0.949272
0.8429 0.0320635 0.949454
0.842389 0.0955596 0.949385
0.843002 0.156465 0.9494
0.842288 0.220362 0.949324
0.904649 0.0331652 0.949483
0.905658 0.0942588 0.949464
0.904961 0.157951 0.949387
0.905759 0.218911 0.949371
0.968096 0.0318128 0.949485
0.967263 0.0955286 0.949442
0.967875 0.156605 0.949444
0.96776 0.220469 0.949342
0.998927 0.0949568 0.852333
0.999675 0.0320931 0.970369
0.999739 0.156523 0.970118
0.998927 0.219966 0.813382
0.811551 0.0322988 0.774625
0.811602 0.0947651 0.77454
0.8114 0.157482 0.774685
0.811247 0.219876 0.774499
0.874232 0.0324907 0.774538
0.87417 0.0948151 0.77455
0.874121 0.157433 0.774422
0.874149 0.219738 0.774385
0.93654 0.0324678 0.774684
0.936584 0.0948834 0.77453
0.936646 0.157283 0.774584
0.936706 0.219853 0.774516
0.999115 0.219881 0.774526
0.999048 0.0324035 0.852384
0.811981 0.0323576 0.813471
0.812089 0.0946861 0.813473
0.812045 0.157317 0.813287
0.811805 0.22015 0.813352
0.874436 0.0321741 0.81349
0.874399 0.0951786 0.813415
0.874293 0.157334 0.813401
0.874285 0.219582 0.813344
0.936547 0.0325757 0.813457
0.936602 0.0949699 0.813501
0.936668 0.157464 0.813317
0.936622 0.219744 0.81324
0.999425 0.219989 0.891076
0.812144 0.0331159 0.852388
0.812092 0.0944239 0.852383
0.812115 0.157828 0.852338
0.811716 0.219624 0.852186
0.874649 0.0320387 0.852241
0.874658 0.0950321 0.85236
0.874542 0.157286 0.852354
0.874565 0.220085 0.85224
0.936887 0.032416 0.852341
0.936773 0.0945527 0.852326
0.936831 0.157642 0.852376
0.93694 0.219678 0.852124
0.812274 0.0327507 0.891176
0.812175 0.0947362 0.891339
0.812138 0.157582 0.891191
0.812048 0.219407 0.891229
0.874692 0.0322908 0.891331
0.874786 0.0950097 0.891251
0.874662 0.15721 0.891268
0.874622 0.219907 0.890919
0.93692 0.0326104 0.891293
0.936926 0.0946726 0.891358
0.937007 0.15759 0.891247
0.937106 0.219505 0.891277
0.999522 0.0947559 0.930388
0.998912 0.15752 0.813457
0.812103 0.0327709 0.930194
0.812053 0.0945703 0.929731
0.811971 0.157786 0.930089
0.812127 0.219599 0.929752
0.874655 0.0323903 0.930022
0.874485 0.0951766 0.930322
0.874632 0.157031 0.929935
0.874735 0.219937 0.93031
0.936974 0.0324603 0.930423
0.937201 0.0949271 0.929912
0.93712 0.157337 0.930316
0.937358 0.21953 0.929861
0.999672 0.157244 0.929985
0.999128 0.0323448 0.891332
0.812134 0.0330347 0.968973
0.811808 0.0942755 0.970092
0.812054 0.158065 0.968968
0.812146 0.218696 0.969942
0.874643 0.032227 0.970369
0.874771 0.0955999 0.969089
0.874644 0.156656 0.970078
0.874865 0.220549 0.968981
0.937324 0.0328171 0.969014
0.937224 0.0943661 0.970182
0.937285 0.158198 0.96901
0.937408 0.218827 0.97011
0.998836 0.0948748 0.774573
0.998819 0.0323994 0.813444
0.999213 0.157105 0.891297
0.999214 0.0949386 0.891155
0.998889 0.157398 0.774566
0.998936 0.0945765 0.813392
0.998926 0.15721 0.852261
0.999083 0.219792 0.852193
0.999494 0.0324793 0.929935
0.999729 0.0957431 0.968921
0.99967 0.2201 0.930099
0.78135 0.250795 0.00838639
0.785712 0.313154 0.0056198
0.779791 0.375759 0.0081154
0.78375 0.438132 0.00594133
0.843216 0.313307 0.00836101
0.846858 0.375679 0.00586819
0.842539 0.438211 0.00787502
0.906527 0.250897 0.00856741
0.910873 0.313211 0.00565508
0.904998 0.375735 0.00812687
0.908867 0.438106 0.0060152
0.974728 0.250916 0.00585103
0.968229 0.313448 0.00842092
0.971958 0.375758 0.00586549
0.96754 0.438261 0.00777783
0.786274 0.250906 0.0442028
0.782007 0.313295 0.0471622
0.785535 0.375657 0.0436077
0.780599 0.438235 0.0466097
0.844483 0.251031 0.0470619
0.849246 0.313275 0.0439743
0.843779 0.375856 0.0468891
0.846479 0.438227 0.0440555
0.911548 0.25094 0.0442142
0.90708 0.313379 0.0470679
0.910494 0.375748 0.04384
0.905677 0.438312 0.0465722
0.969522 0.251088 0.047191
0.974412 0.313352 0.0439172
0.968966 0.375862 0.0469012
0.971604 0.438275 0.0440416
0.782668 0.251003 0.0853599
0.786053 0.313289 0.0821671
0.782145 0.37576 0.0853346
0.783412 0.438282 0.0818913
0.848608 0.250998 0.0823688
0.845494 0.313363 0.085444
0.847106 0.375892 0.0818017
0.843519 0.438429 0.0849441
0.907629 0.251019 0.0854
0.911219 0.31341 0.0822142
0.907484 0.375846 0.0854017
0.908709 0.438364 0.0819543
0.973527 0.251056 0.0823417
0.970441 0.313445 0.0855083
0.972201 0.37591 0.0819974
0.968743 0.438481 0.0849165
0.785988 0.251014 0.120539
0.783152 0.313365 0.123673
0.784578 0.37591 0.120017
0.780977 0.438425 0.123247
0.845155 0.251036 0.12365
0.848781 0.313438 0.120348
0.84479 0.375894 0.123581
0.845954 0.438403 0.120106
0.910885 0.251023 0.120488
0.908151 0.313453 0.123712
0.909803 0.37601 0.120054
0.906091 0.438514 0.123221
0.970271 0.25107 0.123642
0.973761 0.313422 0.120436
0.969698 0.375995 0.123652
0.971185 0.438584 0.120137
0.782503 0.25101 0.161894
0.786218 0.313424 0.15852
0.782178 0.375896 0.161804
0.783459 0.438426 0.158238
0.848345 0.251063 0.158678
0.845503 0.313432 0.161982
0.847202 0.375982 0.158166
0.843562 0.438496 0.161536
0.907712 0.251053 0.161862
0.911228 0.313474 0.158589
0.907132 0.375957 0.16187
0.908537 0.438553 0.158223
0.973374 0.251037 0.158747
0.970557 0.313426 0.161896
0.972194 0.376068 0.158233
0.968591 0.438642 0.161534
0.785578 0.251 0.196888
0.783029 0.313402 0.200086
0.784389 0.375953 0.196382
0.780956 0.438498 0.199723
0.845229 0.250971 0.200038
0.848483 0.313453 0.196738
0.844571 0.375953 0.200106
0.845816 0.438571 0.196309
0.910522 0.251035 0.196896
0.908009 0.313495 0.200137
0.909248 0.376063 0.196336
0.905863 0.438568 0.199719
0.970289 0.251057 0.200138
0.973532 0.313518 0.196703
0.969565 0.376044 0.200092
0.97082 0.438584 0.19649
0.782608 0.251012 0.23822
0.785715 0.31346 0.234858
0.782112 0.37598 0.238287
0.783188 0.438546 0.23452
0.847979 0.250948 0.235063
0.845384 0.313404 0.238328
0.846637 0.376044 0.234509
0.843423 0.438598 0.237942
0.907625 0.250981 0.238309
0.910833 0.313494 0.234858
0.907092 0.375964 0.238296
0.908038 0.438522 0.234569
0.972937 0.250987 0.235021
0.970397 0.31344 0.238354
0.97168 0.37605 0.234545
0.968374 0.4386 0.237958
0.783356 0.284537 0.0262409
0.781575 0.341875 0.02614
0.784198 0.409384 0.0262114
0.780774 0.46778 0.0261698
0.847338 0.27985 0.026175
0.847865 0.347028 0.0262031
0.842782 0.405091 0.0261993
0.846298 0.471417 0.0262024
0.90869 0.284655 0.0262773
0.906633 0.342094 0.0261705
0.909248 0.409216 0.0262735
0.905943 0.467927 0.0261562
0.972409 0.279944 0.0262129
0.972905 0.34712 0.0262013
0.967919 0.405224 0.0261901
0.971358 0.471348 0.0261334
0.785528 0.279802 0.0644904
0.786855 0.347214 0.0644595
0.779526 0.404404 0.0644045
0.784026 0.4722 0.0644105
0.845719 0.284985 0.0645123
0.844863 0.341954 0.0644863
0.847398 0.409892 0.0645121
0.842845 0.467835 0.0644139
0.910568 0.279912 0.0645111
0.911834 0.347274 0.0644545
0.904679 0.404638 0.0644956
0.909288 0.472104 0.0644297
0.970664 0.285146 0.0645441
0.969687 0.342 0.0645113
0.97235 0.409729 0.0645166
0.968113 0.467946 0.0644267
0.782605 0.285084 0.102753
0.782133 0.3418 0.102708
0.784936 0.410061 0.102655
0.780237 0.467629 0.102612
0.848416 0.279885 0.102756
0.849601 0.347435 0.102653
0.841736 0.404723 0.102673
0.846886 0.472428 0.102611
0.907745 0.285157 0.102769
0.907224 0.341974 0.102758
0.91005 0.410189 0.102696
0.905371 0.467708 0.10262
0.973569 0.279947 0.10279
0.974603 0.347582 0.102766
0.96688 0.404871 0.102743
0.971994 0.472512 0.102646
0.786144 0.2798 0.141006
0.787221 0.347501 0.140877
0.779254 0.404625 0.140874
0.784427 0.472573 0.140822
0.844962 0.285403 0.140996
0.844692 0.341811 0.140913
0.847368 0.410289 0.140889
0.842695 0.467626 0.140828
0.911087 0.279951 0.141002
0.912152 0.34764 0.140962
0.904174 0.4047 0.140893
0.909556 0.472701 0.14082
0.969937 0.28521 0.141012
0.969743 0.341934 0.141001
0.972477 0.410428 0.140942
0.967758 0.467816 0.140855
0.782337 0.285255 0.179191
0.782124 0.341856 0.179091
0.78479 0.410225 0.179061
0.78003 0.467621 0.179021
0.848681 0.27991 0.179212
0.849429 0.347616 0.179116
0.841556 0.404538 0.179081
0.84683 0.472806 0.178997
0.907331 0.285355 0.179223
0.907135 0.342009 0.179153
0.90977 0.410385 0.179087
0.905115 0.467691 0.179047
0.973762 0.279929 0.179224
0.974503 0.347695 0.179149
0.966561 0.404834 0.179115
0.971892 0.472863 0.179054
0.786036 0.279943 0.217388
0.786705 0.347714 0.217294
0.77902 0.404574 0.217268
0.784296 0.472826 0.217208
0.844659 0.285234 0.217422
0.844402 0.341834 0.217362
0.847076 0.41049 0.217266
0.842478 0.467661 0.217239
0.911157 0.279852 0.217419
0.911761 0.347755 0.217286
0.903981 0.404553 0.217286
0.90926 0.472807 0.217253
0.969558 0.285433 0.217407
0.969594 0.341925 0.217364
0.972193 0.410503 0.217298
0.967407 0.467725 0.217248
0.752767 0.284489 0.00684324
0.750746 0.342042 0.00609643
0.750639 0.408305 0.161733
0.750712 0.467442 0.00640159
0.815541 0.279207 0.00745508
0.813148 0.346824 0.00782339
0.813136 0.404742 0.0062219
0.813108 0.471157 0.00791138
0.877949 0.284532 0.00690602
0.875891 0.341907 0.00610932
0.875576 0.408908 0.00812237
0.875757 0.467311 0.00642958
0.940751 0.279232 0.00743108
0.938393 0.346926 0.00787507
0.938229 0.404703 0.00624494
0.938235 0.471136 0.00778881
0.753162 0.279728 0.0457909
0.753331 0.346524 0.0465792
0.750816 0.404903 0.0439348
0.750773 0.470838 0.0464245
0.815735 0.284389 0.0446982
0.815873 0.342051 0.0440551
0.813278 0.408784 0.0467665
0.813378 0.467505 0.0443613
0.878332 0.279706 0.0457949
0.878331 0.346602 0.0466355
0.875945 0.405004 0.0440189
0.875912 0.470895 0.0464322
0.940834 0.284526 0.044709
0.940922 0.34209 0.0440354
0.938373 0.408869 0.0467838
0.938478 0.467635 0.0443181
0.753126 0.283718 0.0824929
0.753484 0.342866 0.0820801
0.75081 0.468041 0.0822935
0.815807 0.280323 0.0843504
0.815968 0.345785 0.0849121
0.813265 0.405705 0.0818723
0.813257 0.470621 0.0848358
0.878285 0.283804 0.0826342
0.87864 0.343118 0.0820569
0.875831 0.408148 0.0852988
0.875932 0.468073 0.0822536
0.940853 0.280266 0.084451
0.940972 0.345846 0.0849799
0.938486 0.405817 0.0819663
0.938422 0.47067 0.0848959
0.753258 0.280432 0.122838
0.753462 0.345781 0.12324
0.750461 0.408776 0.00804146
0.815806 0.283726 0.120706
0.816144 0.343126 0.120131
0.81323 0.408167 0.123524
0.813345 0.468065 0.120478
0.878364 0.280335 0.122769
0.87858 0.345946 0.123219
0.875809 0.40583 0.120043
0.87583 0.470617 0.123104
0.94076 0.283707 0.120706
0.941186 0.343106 0.120317
0.938344 0.408361 0.123575
0.938461 0.468164 0.120517
0.753163 0.283704 0.158826
0.753571 0.343093 0.158341
0.750672 0.405734 0.120087
0.815733 0.280384 0.161163
0.815951 0.345895 0.161459
0.813218 0.405829 0.15826
0.813242 0.470583 0.161268
0.878263 0.283614 0.158857
0.878546 0.343025 0.158394
0.875681 0.408329 0.161785
0.875848 0.46822 0.158627
0.940743 0.280367 0.161193
0.940979 0.34596 0.161515
0.93819 0.405924 0.158267
0.938353 0.470749 0.161351
0.753011 0.280386 0.199311
0.753243 0.345794 0.199527
0.815672 0.283487 0.197025
0.815929 0.343124 0.196664
0.813018 0.408163 0.199904
0.813216 0.468261 0.196796
0.878136 0.280552 0.199387
0.878227 0.345937 0.19968
0.875545 0.405966 0.196481
0.875642 0.470726 0.19955
0.940693 0.283543 0.196964
0.940947 0.343227 0.196701
0.938004 0.408261 0.199977
0.93818 0.468259 0.196872
0.752972 0.28352 0.235161
0.753247 0.343222 0.234856
0.815451 0.280449 0.237627
0.815615 0.345747 0.237872
0.812961 0.406041 0.234705
0.812977 0.47054 0.237839
0.878059 0.283474 0.235199
0.878282 0.343356 0.234866
0.875421 0.408086 0.238163
0.875558 0.468384 0.235054
0.940516 0.280407 0.237669
0.940633 0.345865 0.237804
0.937918 0.406043 0.234655
0.937964 0.470571 0.23777
0.75075 0.468198 0.158631
0.75058 0.405819 0.196473
0.750762 0.470612 0.123077
0.750673 0.470707 0.199479
0.849526 0.250797 0.00578394
0.750602 0.408065 0.0852924
0.750539 0.468337 0.23506
0.750447 0.40816 0.238092
0.785049 0.250992 0.273185
0.782921 0.313402 0.276506
0.78395 0.376024 0.272702
0.780768 0.438598 0.276144
0.845062 0.250954 0.276504
0.847808 0.313425 0.272985
0.844492 0.376015 0.27649
0.845258 0.438605 0.272725
0.910159 0.250955 0.273055
0.908032 0.313416 0.276544
0.909035 0.376049 0.272679
0.90584 0.438641 0.276095
0.970224 0.250971 0.276477
0.973073 0.313477 0.272992
0.969557 0.376017 0.276534
0.970429 0.438659 0.272692
0.782808 0.25098 0.31464
0.784833 0.313428 0.311141
0.782313 0.375984 0.314765
0.782558 0.43858 0.310939
0.847004 0.250942 0.311216
0.845892 0.313455 0.314686
0.845904 0.376098 0.31077
0.843739 0.438646 0.314445
0.907973 0.250962 0.31462
0.909804 0.313425 0.311082
0.90729 0.37608 0.314674
0.907489 0.43862 0.310905
0.972292 0.250953 0.311184
0.970916 0.313411 0.314691
0.970989 0.376098 0.310765
0.968666 0.438608 0.314382
0.784076 0.250926 0.349374
0.783378 0.313422 0.352805
0.783266 0.376042 0.348941
0.780837 0.438574 0.352595
0.845711 0.250965 0.352769
0.847109 0.313496 0.349169
0.844807 0.376059 0.352868
0.844914 0.438697 0.349059
0.9092 0.250954 0.349249
0.908613 0.313439 0.352798
0.908397 0.376094 0.348917
0.906014 0.438632 0.352657
0.970762 0.250898 0.352786
0.971979 0.31345 0.349111
0.970003 0.376051 0.352927
0.969837 0.438697 0.349082
0.78414 0.250899 0.390818
0.782995 0.31348 0.387229
0.783062 0.3759 0.391097
0.781725 0.43854 0.387555
0.845415 0.251012 0.387329
0.847186 0.31357 0.390916
0.84486 0.376163 0.387139
0.8439 0.438627 0.390604
0.909187 0.25096 0.39076
0.908203 0.313562 0.387075
0.908203 0.376054 0.391117
0.906712 0.438648 0.387432
0.970345 0.25101 0.387195
0.97213 0.313469 0.390957
0.969933 0.37617 0.387132
0.969302 0.438659 0.390576
0.780934 0.250954 0.425473
0.784975 0.313402 0.429152
0.780002 0.376076 0.425829
0.781722 0.438492 0.428692
0.848762 0.250922 0.428886
0.84301 0.313688 0.425512
0.84541 0.376046 0.428895
0.843489 0.438539 0.425881
0.906137 0.251006 0.425383
0.910143 0.313454 0.429125
0.905312 0.376127 0.425723
0.907111 0.438579 0.428823
0.973845 0.250897 0.42883
0.968125 0.313659 0.425473
0.970624 0.37599 0.42893
0.968354 0.438597 0.425836
0.784301 0.250957 0.467018
0.779401 0.313439 0.464252
0.782932 0.375954 0.466845
0.780493 0.438523 0.4643
0.841188 0.251032 0.464062
0.846367 0.313469 0.466876
0.842564 0.376034 0.464343
0.844288 0.438494 0.46665
0.909226 0.250875 0.466944
0.904495 0.313457 0.464116
0.907809 0.37597 0.466754
0.905736 0.438601 0.464329
0.966324 0.251017 0.464085
0.971272 0.313384 0.466787
0.967652 0.375969 0.464309
0.969822 0.438493 0.466635
0.750407 0.405917 0.272886
0.750024 0.406912 0.39073
0.781892 0.285402 0.255559
0.781826 0.34194 0.255534
0.784504 0.410537 0.255472
0.779643 0.467621 0.255441
0.848485 0.279795 0.255603
0.849176 0.347714 0.255489
0.841349 0.404665 0.255472
0.846787 0.472925 0.255438
0.906933 0.285547 0.255562
0.906771 0.341802 0.255539
0.909563 0.410533 0.255456
0.9046 0.467716 0.255434
0.973603 0.27985 0.25559
0.974112 0.347767 0.255496
0.966261 0.40463 0.255482
0.971618 0.473094 0.255446
0.785842 0.279794 0.293764
0.786495 0.347715 0.293684
0.778822 0.404549 0.293687
0.784192 0.472954 0.293635
0.844276 0.285483 0.293743
0.844154 0.341752 0.293696
0.846909 0.410671 0.29365
0.842093 0.467649 0.293649
0.910969 0.279656 0.293719
0.911585 0.34776 0.293679
0.903677 0.404755 0.29362
0.909126 0.472976 0.293627
0.969276 0.285545 0.293751
0.969353 0.341796 0.293696
0.972013 0.410677 0.293632
0.96714 0.467627 0.293627
0.781865 0.285552 0.331933
0.781676 0.341766 0.331894
0.784254 0.410665 0.331833
0.779372 0.46756 0.331835
0.84831 0.279739 0.331878
0.848879 0.348012 0.331845
0.841026 0.40458 0.331838
0.846581 0.4732 0.331825
0.906818 0.285597 0.331877
0.906753 0.341821 0.331857
0.909565 0.41075 0.331787
0.904506 0.467523 0.331805
0.973533 0.279666 0.331897
0.974031 0.347946 0.33179
0.966115 0.404571 0.33182
0.971681 0.47301 0.331773
0.785595 0.279724 0.37007
0.786084 0.347829 0.370014
0.778648 0.404577 0.370035
0.784006 0.472888 0.370003
0.844611 0.285573 0.370024
0.843935 0.341837 0.370011
0.846943 0.410697 0.369913
0.841623 0.467811 0.369963
0.910595 0.279783 0.370005
0.911227 0.348158 0.369986
0.903705 0.404555 0.370008
0.909182 0.473028 0.369955
0.969668 0.285746 0.370005
0.969061 0.341727 0.369987
0.97208 0.410776 0.369914
0.966892 0.467885 0.369958
0.782885 0.285415 0.408187
0.780439 0.34174 0.408289
0.784042 0.410193 0.408159
0.779031 0.467882 0.408193
0.847226 0.279832 0.408208
0.847371 0.34828 0.408142
0.841502 0.405053 0.408128
0.846516 0.472569 0.408131
0.907753 0.285627 0.408119
0.90556 0.341766 0.408212
0.909325 0.410424 0.40813
0.904172 0.467803 0.40817
0.972206 0.279626 0.408184
0.972538 0.348135 0.40814
0.96651 0.404973 0.408111
0.971554 0.47262 0.408118
0.782692 0.27949 0.446443
0.782974 0.347408 0.446431
0.778974 0.405411 0.446436
0.783566 0.472233 0.446396
0.844932 0.285191 0.446344
0.842244 0.342471 0.446445
0.846207 0.409782 0.446345
0.841682 0.468066 0.446367
0.90774 0.279417 0.446406
0.9083 0.347616 0.446368
0.903989 0.405473 0.446362
0.908663 0.472256 0.446313
0.970026 0.285091 0.446307
0.967206 0.342489 0.4464
0.971313 0.409732 0.446307
0.966837 0.46807 0.446342
0.781295 0.284025 0.484697
0.779411 0.343108 0.484671
0.783207 0.409485 0.484557
0.77915 0.468385 0.484607
0.843596 0.280552 0.484621
0.844455 0.346612 0.484609
0.841518 0.405896 0.484625
0.845253 0.471787 0.484565
0.905758 0.283913 0.4846
0.904615 0.343215 0.484556
0.908101 0.409315 0.484522
0.904377 0.468457 0.484572
0.968724 0.280475 0.48457
0.969875 0.346571 0.484554
0.966602 0.405838 0.484515
0.970768 0.471787 0.484555
0.752817 0.280727 0.275885
0.753013 0.345643 0.276045
0.815322 0.283208 0.273325
0.815618 0.34336 0.273007
0.812777 0.408062 0.276365
0.812904 0.468393 0.273173
0.877852 0.280734 0.275815
0.877984 0.345642 0.276094
0.875293 0.406183 0.272792
0.875343 0.470559 0.276031
0.940458 0.283228 0.273331
0.940694 0.343409 0.273087
0.937801 0.408173 0.27633
0.937906 0.468448 0.27322
0.752695 0.282819 0.311617
0.75301 0.343831 0.311318
0.815221 0.281081 0.313937
0.815417 0.345167 0.314191
0.812749 0.406504 0.310992
0.812827 0.470253 0.314275
0.877751 0.282844 0.311459
0.878021 0.343854 0.311244
0.875199 0.407686 0.314584
0.87539 0.468823 0.311351
0.940323 0.281009 0.31405
0.940502 0.345128 0.314188
0.937821 0.40649 0.310881
0.937859 0.470171 0.314178
0.75264 0.281448 0.352178
0.752745 0.34498 0.352434
0.750313 0.468537 0.31135
0.815214 0.282488 0.34983
0.815386 0.343941 0.349458
0.812561 0.407803 0.352672
0.812713 0.468705 0.349496
0.87766 0.281336 0.3521
0.877937 0.344965 0.35238
0.875193 0.406541 0.349108
0.875239 0.470344 0.352437
0.940332 0.282341 0.349749
0.940493 0.343997 0.349403
0.9377 0.407646 0.352682
0.937803 0.468834 0.349457
0.752695 0.281337 0.388276
0.752564 0.345168 0.387671
0.815108 0.282886 0.389967
0.815095 0.343915 0.390537
0.812693 0.407047 0.387378
0.812531 0.469824 0.390507
0.877719 0.281338 0.388266
0.877735 0.345201 0.38759
0.875139 0.407086 0.390732
0.875169 0.469139 0.38751
0.940095 0.282857 0.38994
0.940252 0.344025 0.390441
0.937834 0.407385 0.387301
0.937639 0.469831 0.390558
0.752379 0.284569 0.427597
0.815187 0.279442 0.427002
0.812699 0.346583 0.42614
0.812308 0.406 0.428739
0.812453 0.469544 0.425734
0.877403 0.284486 0.42759
0.875184 0.342791 0.428452
0.875076 0.408055 0.425633
0.875 0.469311 0.428736
0.940194 0.27963 0.426911
0.937885 0.346482 0.426134
0.937536 0.405911 0.428768
0.937717 0.46983 0.425776
0.750387 0.470671 0.276093
0.812727 0.284791 0.465546
0.812359 0.342655 0.466464
0.812585 0.408016 0.464022
0.812352 0.469245 0.466789
0.875008 0.279674 0.465361
0.874981 0.346372 0.464569
0.874874 0.406141 0.466922
0.875031 0.469923 0.46415
0.937681 0.284593 0.465685
0.937447 0.342751 0.466432
0.937576 0.408198 0.464023
0.937543 0.469258 0.466756
0.750195 0.470312 0.352419
0.750014 0.279671 0.465558
0.750142 0.469123 0.387653
0.750107 0.342633 0.428524
0.750204 0.407839 0.314545
0.75013 0.40639 0.349168
0.841676 0.251001 0.504601
0.937344 0.408989 0.504811
0.970607 0.313545 0.502882
0.842084 0.250969 0.658046
0.777905 0.251047 0.542556
0.782197 0.313527 0.541499
0.777993 0.37606 0.542508
0.782435 0.43863 0.541442
0.845234 0.250994 0.541335
0.84101 0.313478 0.542488
0.845147 0.376069 0.541517
0.841001 0.438592 0.542561
0.903504 0.251032 0.542421
0.907418 0.313552 0.541503
0.903582 0.376084 0.542355
0.907622 0.43865 0.541464
0.970126 0.250905 0.541558
0.966057 0.313535 0.542498
0.970045 0.376116 0.541504
0.965841 0.438542 0.542467
0.780136 0.313459 0.58054
0.780165 0.376109 0.580189
0.779871 0.438568 0.580609
0.842538 0.313391 0.580147
0.842511 0.375955 0.580443
0.842541 0.438611 0.580127
0.905109 0.313526 0.580534
0.905075 0.376083 0.580111
0.904796 0.438393 0.580471
0.967635 0.313548 0.580201
0.967291 0.376006 0.580563
0.967672 0.438576 0.580229
0.779617 0.313386 0.619118
0.779433 0.375969 0.619216
0.779534 0.438511 0.619142
0.842222 0.313402 0.619148
0.842243 0.375954 0.619005
0.842078 0.438417 0.619249
0.904596 0.313446 0.61915
0.90469 0.375973 0.61924
0.904697 0.438441 0.619101
0.967181 0.31336 0.619259
0.967207 0.375925 0.619139
0.967263 0.438406 0.619329
0.779822 0.313307 0.657915
0.780025 0.375868 0.657963
0.779769 0.438453 0.658027
0.84213 0.313404 0.657968
0.841883 0.375871 0.658012
0.842173 0.438363 0.657962
0.904732 0.313445 0.658037
0.904749 0.37587 0.657948
0.904575 0.438337 0.65811
0.96738 0.313459 0.657988
0.967369 0.375855 0.658015
0.96712 0.438306 0.658015
0.779557 0.250788 0.696813
0.779576 0.313282 0.696734
0.77973 0.375854 0.696664
0.779476 0.43841 0.696729
0.842166 0.250958 0.696896
0.841905 0.313419 0.69684
0.842029 0.375917 0.696838
0.842029 0.438381 0.69692
0.904584 0.25098 0.696923
0.904471 0.313506 0.696856
0.904456 0.375866 0.696878
0.904574 0.438315 0.696779
0.967014 0.250911 0.696831
0.967294 0.313443 0.696839
0.967382 0.375929 0.696785
0.967066 0.438317 0.696907
0.779198 0.250941 0.735591
0.77942 0.313433 0.735491
0.779398 0.375942 0.735602
0.779134 0.438367 0.73558
0.842116 0.251032 0.735552
0.841874 0.313448 0.735607
0.841909 0.375882 0.735656
0.841704 0.438352 0.735716
0.904512 0.250988 0.735585
0.904714 0.31351 0.735512
0.904181 0.375912 0.735648
0.904577 0.438328 0.735752
0.967087 0.251029 0.735678
0.966942 0.313512 0.735636
0.967135 0.375927 0.735684
0.967198 0.438276 0.735693
0.780589 0.281211 0.522925
0.781674 0.346102 0.522859
0.779092 0.406236 0.522813
0.782233 0.471166 0.522905
0.843257 0.283419 0.522871
0.842611 0.343613 0.522853
0.844792 0.408569 0.522878
0.842006 0.468831 0.522843
0.906189 0.281158 0.522838
0.907028 0.346016 0.522781
0.904281 0.406445 0.522778
0.907526 0.47095 0.522839
0.968131 0.283327 0.52288
0.967315 0.343706 0.522861
0.970095 0.408374 0.522811
0.966804 0.468758 0.522858
0.780766 0.282749 0.561191
0.780108 0.344271 0.561209
0.781591 0.407947 0.561176
0.779728 0.469405 0.561258
0.843535 0.281528 0.561156
0.843769 0.345231 0.561166
0.842481 0.406904 0.561185
0.844205 0.470497 0.561189
0.905721 0.282616 0.561244
0.905004 0.344337 0.561186
0.906773 0.407766 0.561126
0.904875 0.469351 0.561228
0.968248 0.281617 0.561219
0.968932 0.345332 0.56116
0.967308 0.406809 0.561192
0.96949 0.470487 0.561185
0.779849 0.281962 0.599797
0.780006 0.34496 0.599801
0.77952 0.407159 0.599815
0.779898 0.469979 0.599883
0.842286 0.282173 0.599827
0.842103 0.344402 0.599792
0.842493 0.407372 0.599788
0.841988 0.469551 0.599862
0.90484 0.281973 0.599852
0.904921 0.345001 0.599821
0.904572 0.407046 0.59981
0.905117 0.469824 0.599822
0.967285 0.282195 0.599901
0.96704 0.344554 0.599865
0.967472 0.407351 0.599885
0.96698 0.469574 0.599889
0.779906 0.28215 0.638555
0.779901 0.344706 0.63855
0.779941 0.407293 0.638596
0.779674 0.46959 0.638642
0.84234 0.282022 0.638611
0.842511 0.344765 0.638572
0.842203 0.407049 0.638602
0.84245 0.469693 0.638624
0.904891 0.282264 0.63867
0.904839 0.344534 0.638684
0.905034 0.407278 0.638644
0.904803 0.469498 0.638689
0.967367 0.28206 0.638667
0.967622 0.344704 0.638642
0.967328 0.407134 0.638672
0.967623 0.469724 0.6387
0.779847 0.281949 0.67735
0.779923 0.344362 0.677334
0.77991 0.407041 0.677437
0.779949 0.46976 0.677427
0.842253 0.282203 0.677439
0.842084 0.344671 0.677415
0.842538 0.407123 0.677442
0.842352 0.469546 0.677435
0.904808 0.282201 0.677484
0.905006 0.344678 0.677486
0.904845 0.407018 0.677443
0.904757 0.469653 0.677478
0.967326 0.282229 0.677483
0.967473 0.344644 0.677496
0.967475 0.407206 0.677471
0.967191 0.469535 0.677491
0.779525 0.282043 0.716198
0.779672 0.344558 0.716163
0.779828 0.407152 0.71616
0.779604 0.469741 0.716183
0.842202 0.282293 0.716226
0.842221 0.344608 0.716257
0.842137 0.406996 0.716296
0.842233 0.469612 0.716282
0.904854 0.282215 0.716221
0.904826 0.344872 0.716248
0.904732 0.407129 0.716259
0.904783 0.469365 0.71629
0.967395 0.282162 0.716224
0.967422 0.344655 0.716254
0.967299 0.407145 0.71627
0.967269 0.469641 0.716316
0.999331 0.282212 0.65797
0.874886 0.3467 0.504403
0.999087 0.282163 0.579673
0.999385 0.342646 0.541428
0.999759 0.405248 0.502625
0.999316 0.469568 0.658102
0.811762 0.280102 0.542063
0.811702 0.347023 0.542493
0.811604 0.405123 0.54122
0.811778 0.472042 0.542733
0.874539 0.284536 0.54187
0.874398 0.342708 0.541521
0.874512 0.409431 0.542756
0.874261 0.467593 0.541222
0.936897 0.280166 0.542115
0.936858 0.34699 0.542504
0.936854 0.405196 0.541092
0.936943 0.472086 0.542933
0.999251 0.344947 0.579899
0.999401 0.407143 0.658002
0.999321 0.344719 0.619096
0.99934 0.469914 0.580152
0.811776 0.282244 0.579485
0.811695 0.344673 0.579222
0.811846 0.407319 0.579909
0.811551 0.469927 0.579171
0.874353 0.28205 0.579592
0.8743 0.344845 0.579769
0.874126 0.407215 0.579141
0.874346 0.469941 0.580056
0.936832 0.28243 0.5796
0.936691 0.344788 0.579175
0.936865 0.407475 0.579959
0.936734 0.469386 0.579088
0.999465 0.409636 0.542845
0.999372 0.407273 0.619366
0.999905 0.346574 0.504627
0.999259 0.469714 0.619077
0.811793 0.28205 0.619208
0.811861 0.344761 0.619264
0.811715 0.407307 0.619068
0.81166 0.469851 0.619315
0.8743 0.281935 0.61918
0.874412 0.344773 0.619141
0.874314 0.407293 0.619405
0.874201 0.469815 0.619019
0.936754 0.282232 0.619177
0.936793 0.344658 0.619294
0.936779 0.407328 0.61912
0.936765 0.469649 0.619356
0.811856 0.467765 0.502706
0.999032 0.406973 0.579132
0.812179 0.342764 0.503191
0.874642 0.405363 0.502583
0.81169 0.282187 0.657859
0.811717 0.344373 0.657862
0.811759 0.407206 0.658186
0.811796 0.469659 0.657918
0.87425 0.282113 0.65794
0.874173 0.344813 0.658106
0.874214 0.406938 0.657816
0.874253 0.469682 0.658036
0.936849 0.282344 0.657986
0.936868 0.344675 0.658018
0.936849 0.406982 0.658074
0.936761 0.469542 0.658011
0.999255 0.282003 0.619265
0.999323 0.407198 0.73558
0.937304 0.467764 0.502514
0.811524 0.281901 0.69679
0.811548 0.344642 0.696809
0.811742 0.406989 0.696757
0.811608 0.469794 0.696817
0.874155 0.282232 0.696824
0.874038 0.344699 0.696813
0.874157 0.40731 0.696856
0.874117 0.469592 0.69696
0.936726 0.282139 0.696822
0.936812 0.34473 0.696958
0.936638 0.406928 0.696952
0.936709 0.46945 0.696916
0.999083 0.469473 0.696941
0.999291 0.284429 0.541957
0.99934 0.46739 0.541137
0.999466 0.344548 0.6581
0.811527 0.281922 0.735584
0.811535 0.344796 0.735619
0.811496 0.407124 0.735638
0.811349 0.469615 0.73557
0.874118 0.282454 0.73563
0.874046 0.344498 0.735683
0.873971 0.407196 0.735707
0.873991 0.469645 0.735677
0.936694 0.282154 0.735574
0.936725 0.344932 0.735607
0.936544 0.406845 0.735645
0.936687 0.46942 0.735762
0.812166 0.409089 0.505073
0.904352 0.438554 0.504335
0.812428 0.284375 0.5039
0.967334 0.250913 0.658107
0.904812 0.251009 0.658059
0.937349 0.284351 0.503543
0.77894 0.438517 0.504456
0.783501 0.250978 0.502899
0.7801 0.250861 0.580115
0.966917 0.375996 0.504409
0.84179 0.376023 0.504517
0.779248 0.313515 0.50462
0.999755 0.471437 0.505016
0.908473 0.250968 0.502775
0.874763 0.47159 0.50487
0.77968 0.250736 0.657899
0.845822 0.313509 0.50274
0.904362 0.313481 0.504513
0.779546 0.250826 0.619244
0.966647 0.250926 0.504638
0.907991 0.376067 0.502656
0.874843 0.280072 0.503928
0.782859 0.376078 0.502653
0.967356 0.250916 0.5806
0.842393 0.250966 0.580544
0.905328 0.25092 0.580201
0.96705 0.250817 0.619248
0.904678 0.250886 0.619273
0.842118 0.250841 0.619162
0.845291 0.438632 0.502777
0.937303 0.342853 0.502921
0.970357 0.438518 0.502703
0.999355 0.344583 0.735689
0.999396 0.407187 0.69693
0.999041 0.469499 0.735792
0.999634 0.280383 0.503775
0.999294 0.282019 0.696821
0.999409 0.344816 0.696832
0.999156 0.28234 0.735661
0.778896 0.25104 0.774472
0.779232 0.313342 0.774402
0.778795 0.375841 0.774438
0.779011 0.438343 0.774492
0.842166 0.250952 0.774446
0.841613 0.313373 0.774441
0.842093 0.375867 0.774396
0.841651 0.438351 0.774533
0.904719 0.251073 0.77448
0.904482 0.31345 0.774348
0.904442 0.375872 0.774432
0.904468 0.438368 0.774456
0.967201 0.251081 0.774472
0.967371 0.313529 0.774436
0.967423 0.375951 0.774479
0.967075 0.438378 0.774516
0.778907 0.251001 0.813383
0.7791 0.31334 0.81342
0.778962 0.375815 0.813323
0.778952 0.438256 0.813373
0.842192 0.251078 0.813326
0.842059 0.313479 0.813328
0.842085 0.375849 0.813255
0.842179 0.43814 0.813262
0.904531 0.251086 0.813282
0.904886 0.313484 0.813292
0.904615 0.375828 0.813158
0.904803 0.438315 0.813323
0.966903 0.251112 0.813313
0.966754 0.313553 0.813242
0.96736 0.375915 0.813349
0.967151 0.438391 0.813366
0.779789 0.250873 0.852314
0.779928 0.313343 0.852223
0.779825 0.375736 0.852269
0.779896 0.438231 0.852113
0.842431 0.250971 0.852151
0.842154 0.313316 0.852213
0.842288 0.375811 0.852144
0.842538 0.43821 0.852249
0.905149 0.251095 0.852219
0.904577 0.313421 0.852056
0.905208 0.375796 0.852158
0.904721 0.438289 0.852078
0.967292 0.251075 0.852184
0.967725 0.313533 0.852272
0.967431 0.375935 0.85213
0.967312 0.43838 0.852271
0.780029 0.313277 0.89113
0.780056 0.375703 0.891011
0.780309 0.438249 0.89111
0.8425 0.313287 0.890956
0.842696 0.375764 0.891212
0.842642 0.438224 0.890915
0.904886 0.313358 0.891176
0.904935 0.375727 0.89093
0.905232 0.438283 0.891166
0.96758 0.313461 0.89097
0.967624 0.375857 0.891098
0.967574 0.4383 0.890931
0.779766 0.313207 0.929576
0.780357 0.375621 0.93007
0.780433 0.43818 0.929669
0.842823 0.313157 0.930053
0.842772 0.375696 0.929686
0.84286 0.438176 0.930031
0.904944 0.313354 0.929722
0.905257 0.375746 0.930084
0.905507 0.43829 0.929651
0.968325 0.313336 0.930095
0.96776 0.375801 0.929662
0.967873 0.43826 0.929876
0.780346 0.313213 0.969341
0.780853 0.375574 0.968044
0.781041 0.438103 0.969033
0.843744 0.31321 0.968137
0.843387 0.375689 0.969307
0.843436 0.438109 0.968159
0.90564 0.313343 0.969395
0.905948 0.375686 0.968121
0.906293 0.438247 0.969138
0.968782 0.313312 0.968116
0.968506 0.375772 0.969182
0.968438 0.438241 0.968174
0.782626 0.280199 0.987839
0.782857 0.346138 0.987833
0.780675 0.405649 0.987858
0.782715 0.470555 0.987839
0.844603 0.283674 0.987887
0.843115 0.343091 0.987875
0.845351 0.40838 0.987929
0.843425 0.468284 0.987877
0.907911 0.280217 0.98789
0.908033 0.346165 0.987899
0.905747 0.405721 0.987919
0.907749 0.470658 0.98787
0.96984 0.283848 0.987929
0.968389 0.343079 0.987859
0.970506 0.408402 0.987875
0.968586 0.468621 0.987786
0.779665 0.282097 0.754984
0.77973 0.344601 0.755006
0.779412 0.40713 0.755024
0.779541 0.469662 0.755102
0.842033 0.282112 0.755044
0.841923 0.34457 0.755066
0.841998 0.407172 0.75511
0.842016 0.469593 0.755119
0.90473 0.282247 0.754991
0.904657 0.344737 0.755017
0.904658 0.40713 0.755088
0.904731 0.469593 0.755103
0.967227 0.282267 0.755026
0.967399 0.344806 0.755017
0.967456 0.407054 0.755063
0.967134 0.469405 0.755162
0.779719 0.282106 0.79392
0.779514 0.344625 0.793903
0.779381 0.407015 0.793899
0.779367 0.469435 0.794002
0.842211 0.282173 0.793886
0.842029 0.344512 0.793838
0.842101 0.407071 0.793884
0.842122 0.469485 0.79393
0.904672 0.282144 0.793873
0.904792 0.344646 0.793825
0.904804 0.407118 0.793861
0.904815 0.469532 0.793964
0.967284 0.282359 0.79387
0.967396 0.344758 0.793913
0.96746 0.407129 0.79396
0.967497 0.469532 0.794006
0.780191 0.281982 0.832837
0.780023 0.344526 0.832814
0.779925 0.406904 0.832792
0.780056 0.469453 0.832805
0.842363 0.282191 0.832763
0.84242 0.344617 0.832695
0.842474 0.407052 0.832699
0.842368 0.469431 0.832717
0.904838 0.282166 0.832718
0.905002 0.344627 0.83268
0.905126 0.40696 0.832707
0.905031 0.469543 0.832716
0.967625 0.282287 0.83271
0.967468 0.344597 0.832761
0.967568 0.407181 0.83277
0.96768 0.469558 0.832828
0.780085 0.282081 0.871686
0.780384 0.344377 0.871642
0.780453 0.406995 0.87162
0.780487 0.469384 0.871593
0.842809 0.28197 0.871616
0.842577 0.34457 0.871605
0.842638 0.406786 0.871617
0.84289 0.469694 0.871586
0.905237 0.2823 0.871575
0.905315 0.34438 0.871543
0.905258 0.407055 0.871545
0.90517 0.469329 0.871566
0.967558 0.281996 0.871655
0.967759 0.344751 0.871607
0.967765 0.406988 0.871593
0.967653 0.469628 0.871608
0.780232 0.281828 0.910417
0.780416 0.344693 0.910421
0.780483 0.406697 0.910448
0.780715 0.469651 0.910435
0.84284 0.282225 0.910471
0.842818 0.344121 0.910458
0.843259 0.407119 0.910427
0.843034 0.469337 0.910445
0.905309 0.281927 0.910485
0.905411 0.344785 0.91045
0.905463 0.406687 0.910394
0.905644 0.469704 0.910379
0.967806 0.282317 0.910462
0.967896 0.344403 0.910427
0.9681 0.407126 0.910326
0.968183 0.469363 0.910309
0.780217 0.282636 0.949227
0.780137 0.343715 0.9492
0.78099 0.407214 0.94921
0.780489 0.468996 0.949179
0.842927 0.281374 0.949269
0.843205 0.344938 0.94928
0.842883 0.406456 0.949257
0.843349 0.469801 0.949215
0.905425 0.282802 0.949279
0.90519 0.34394 0.949268
0.906104 0.407446 0.94926
0.905581 0.469216 0.949192
0.968081 0.281444 0.949307
0.968571 0.345097 0.949262
0.967992 0.406595 0.949186
0.968316 0.469813 0.949131
0.999987 0.46924 0.890994
0.842354 0.250823 0.969512
0.999177 0.407177 0.774468
0.967423 0.251016 0.891143
0.81143 0.281713 0.774462
0.811299 0.344774 0.774539
0.811246 0.406805 0.774568
0.811293 0.469832 0.77462
0.8741 0.282375 0.774464
0.874049 0.344354 0.774426
0.874084 0.407355 0.774472
0.874024 0.469548 0.774539
0.936673 0.282381 0.774457
0.936681 0.344554 0.774392
0.936655 0.407156 0.774441
0.936635 0.469627 0.774552
0.967457 0.250984 0.929678
0.999192 0.344608 0.774529
0.842405 0.250831 0.929712
0.811634 0.282134 0.813307
0.811422 0.344907 0.81326
0.811369 0.406956 0.813377
0.811614 0.468888 0.81331
0.874255 0.282665 0.813337
0.874208 0.344494 0.813205
0.874409 0.407098 0.813281
0.874206 0.46963 0.813352
0.93675 0.282416 0.813287
0.936845 0.344872 0.813295
0.936871 0.406834 0.813214
0.936981 0.469792 0.813313
0.99961 0.469364 0.852309
0.999381 0.407145 0.813458
0.811861 0.281757 0.85237
0.812076 0.344442 0.852175
0.812092 0.407376 0.852123
0.812167 0.469374 0.852168
0.87445 0.282197 0.852148
0.874281 0.344897 0.852066
0.87449 0.406716 0.852102
0.874483 0.469412 0.85207
0.937027 0.282641 0.852069
0.937023 0.344537 0.852091
0.937008 0.40716 0.852027
0.937026 0.469865 0.852102
0.999753 0.344738 0.891141
0.999309 0.344537 0.8133
0.812103 0.281957 0.891078
0.81223 0.344723 0.891087
0.812258 0.406889 0.891136
0.812378 0.46944 0.891058
0.874637 0.282096 0.890961
0.87465 0.344446 0.89102
0.874858 0.407138 0.890983
0.874778 0.46955 0.891141
0.937135 0.282556 0.891198
0.937146 0.344404 0.89105
0.937211 0.40683 0.891022
0.937364 0.469639 0.891054
0.999406 0.469493 0.813407
0.779792 0.25083 0.890971
0.999178 0.469755 0.774532
0.812047 0.2819 0.929922
0.812259 0.344274 0.92994
0.812498 0.40678 0.92968
0.812616 0.469534 0.929888
0.874831 0.281754 0.929987
0.874848 0.34451 0.929793
0.874995 0.407081 0.930042
0.875139 0.469286 0.929767
0.937274 0.282432 0.930092
0.93734 0.344351 0.93011
0.937514 0.407013 0.929742
0.937562 0.46974 0.929828
0.999158 0.282307 0.813255
0.905384 0.250893 0.930181
0.812503 0.282763 0.96936
0.812572 0.343941 0.968986
0.812609 0.406812 0.970034
0.812885 0.46948 0.969072
0.87504 0.281333 0.969574
0.875052 0.344669 0.970141
0.875328 0.406972 0.969104
0.875158 0.469178 0.969869
0.93766 0.282833 0.969258
0.937725 0.344165 0.969048
0.937737 0.406801 0.970085
0.937975 0.469628 0.969134
0.906446 0.250862 0.968102
0.999129 0.282209 0.774442
0.750217 0.406806 0.968981
0.999617 0.281916 0.89113
0.967612 0.250951 0.969618
0.77998 0.250754 0.930099
0.842524 0.250851 0.891149
0.905038 0.250992 0.891081
0.781337 0.250787 0.968072
0.750103 0.4691 0.969817
0.750057 0.469341 0.929742
0.999865 0.281796 0.929839
0.999536 0.407242 0.85219
0.99959 0.344694 0.852183
0.999385 0.282418 0.852284
0.999888 0.407304 0.890839
0.999982 0.407036 0.929943
0.78015 0.500641 0.00775914
0.783464 0.563139 0.00610785
0.780038 0.625818 0.00760438
0.783271 0.688401 0.0061114
0.846361 0.500614 0.00609287
0.842701 0.563255 0.00768166
0.845976 0.625742 0.00612214
0.842549 0.688366 0.00773152
0.90519 0.500639 0.00767841
0.908603 0.563156 0.00603933
0.905152 0.625787 0.00767759
0.908465 0.688349 0.0062243
0.971255 0.50069 0.0061029
0.9677 0.563281 0.00766167
0.97101 0.625778 0.00616386
0.967496 0.688395 0.00771175
0.78372 0.500646 0.0439263
0.780464 0.563211 0.0461898
0.783622 0.625774 0.0440078
0.780339 0.688417 0.046166
0.843085 0.500763 0.0463187
0.846117 0.563198 0.0440351
0.842877 0.625753 0.0461749
0.84614 0.688312 0.0440893
0.908767 0.500734 0.0440589
0.905467 0.563252 0.046148
0.908736 0.625749 0.0441
0.905238 0.688399 0.0461194
0.96821 0.500823 0.0462359
0.971237 0.563311 0.0439671
0.967814 0.625827 0.0461418
0.971228 0.688336 0.0441498
0.780808 0.500857 0.0846976
0.783532 0.563324 0.0820961
0.780561 0.62593 0.0844739
0.783536 0.688448 0.0820711
0.84596 0.500819 0.0820909
0.843179 0.56335 0.0845409
0.84595 0.625793 0.0821659
0.842868 0.688416 0.0845365
0.905982 0.500889 0.0846635
0.90848 0.563367 0.0821453
0.905627 0.625892 0.0845031
0.908561 0.688433 0.0821062
0.97105 0.500944 0.0820818
0.968318 0.563434 0.0846096
0.971122 0.625907 0.0821354
0.967894 0.688453 0.0845402
0.783563 0.500847 0.12017
0.780856 0.563434 0.122875
0.783382 0.625964 0.120139
0.780444 0.688491 0.122861
0.843421 0.500918 0.122974
0.845981 0.563419 0.120256
0.843191 0.625992 0.122873
0.845879 0.688532 0.120184
0.90864 0.500966 0.120174
0.905882 0.563487 0.122882
0.908413 0.626005 0.120242
0.905596 0.688502 0.122862
0.96842 0.501033 0.122988
0.971147 0.563508 0.120249
0.968155 0.626035 0.122829
0.970986 0.688542 0.120167
0.781068 0.500977 0.161273
0.783314 0.56345 0.158303
0.78066 0.625992 0.161129
0.783321 0.688517 0.158263
0.845883 0.500972 0.158336
0.843364 0.563498 0.161165
0.845655 0.626037 0.158348
0.843056 0.688553 0.161139
0.905971 0.501037 0.161274
0.908407 0.563539 0.158334
0.90559 0.626043 0.161117
0.908336 0.68853 0.15828
0.971042 0.501035 0.158316
0.96827 0.563552 0.161131
0.970958 0.626074 0.15836
0.96795 0.688587 0.161163
0.783321 0.500972 0.196466
0.780638 0.56351 0.199462
0.783217 0.625991 0.196433
0.780491 0.688541 0.19931
0.843276 0.501004 0.199509
0.845717 0.563502 0.196549
0.843045 0.626029 0.199366
0.845719 0.688533 0.196459
0.908248 0.501052 0.196532
0.90566 0.563527 0.199461
0.908229 0.62605 0.196507
0.905427 0.688566 0.19938
0.968317 0.501072 0.199508
0.970934 0.563575 0.196462
0.968056 0.626046 0.19934
0.970674 0.688536 0.196484
0.780803 0.501018 0.237789
0.783053 0.563513 0.234671
0.78035 0.62603 0.237569
0.7831 0.688498 0.234655
0.845466 0.501045 0.234673
0.843162 0.563562 0.237599
0.845509 0.626032 0.234672
0.842899 0.688479 0.237591
0.905792 0.501042 0.237731
0.908017 0.563543 0.234686
0.90552 0.626067 0.237599
0.908031 0.68847 0.234717
0.970571 0.501093 0.234639
0.968059 0.563534 0.237619
0.97066 0.626057 0.234701
0.967896 0.688529 0.237502
0.783805 0.533789 0.0261119
0.780202 0.593181 0.0260476
0.783772 0.658987 0.0260951
0.780063 0.718437 0.0261204
0.843044 0.530605 0.0261239
0.846279 0.59634 0.0261056
0.842717 0.65571 0.0260942
0.846187 0.721595 0.0261405
0.908839 0.533669 0.0260955
0.905529 0.593146 0.0260886
0.908629 0.658737 0.0261362
0.905027 0.718446 0.0261314
0.968012 0.530602 0.0260805
0.971296 0.596243 0.0260722
0.96787 0.655798 0.026115
0.971059 0.721502 0.0261565
0.780052 0.530338 0.0643261
0.783976 0.596751 0.0642913
0.779889 0.65558 0.0643051
0.783785 0.722057 0.064311
0.846706 0.534325 0.0643491
0.842591 0.592979 0.0642988
0.846449 0.659236 0.0643446
0.842247 0.71803 0.0643375
0.905185 0.530517 0.0643757
0.90913 0.596734 0.064328
0.904864 0.655685 0.0643468
0.908822 0.722007 0.0643678
0.971619 0.534457 0.0643271
0.967644 0.59305 0.0643224
0.971343 0.659306 0.0643389
0.967255 0.71819 0.0643824
0.784256 0.534744 0.102565
0.779796 0.593029 0.102501
0.784015 0.659708 0.102506
0.77962 0.717948 0.102539
0.842423 0.530367 0.102565
0.84667 0.597046 0.102562
0.842168 0.655483 0.102552
0.84645 0.722315 0.102533
0.909354 0.534737 0.102584
0.904864 0.593066 0.102577
0.909091 0.659661 0.102551
0.904703 0.717942 0.102575
0.96752 0.530485 0.102591
0.971673 0.59717 0.102559
0.967406 0.655518 0.102562
0.971567 0.722345 0.10256
0.779793 0.530275 0.140751
0.784315 0.597333 0.140745
0.77967 0.655398 0.140732
0.783927 0.722429 0.140761
0.846887 0.534899 0.140768
0.84214 0.592955 0.140765
0.846505 0.659959 0.140747
0.842163 0.717862 0.14075
0.905053 0.53029 0.140768
0.909181 0.597392 0.14076
0.904704 0.655436 0.140747
0.909026 0.722449 0.14078
0.971898 0.534957 0.140792
0.967398 0.593011 0.140755
0.971538 0.659933 0.14077
0.967226 0.717875 0.140766
0.784161 0.53507 0.17896
0.77964 0.592747 0.178949
0.78406 0.660022 0.178939
0.779528 0.717791 0.178929
0.842223 0.530255 0.178976
0.846625 0.597493 0.178955
0.842045 0.6554 0.17896
0.846448 0.722594 0.178951
0.909288 0.535084 0.178985
0.904655 0.5928 0.17897
0.90909 0.660034 0.178957
0.904626 0.717786 0.178968
0.967357 0.530353 0.178979
0.97172 0.597526 0.178953
0.967149 0.655436 0.178946
0.971364 0.722548 0.178962
0.779721 0.530145 0.217178
0.784126 0.597689 0.217136
0.779503 0.655275 0.21713
0.784008 0.722606 0.21714
0.846549 0.535028 0.217154
0.842062 0.592823 0.217158
0.84651 0.660107 0.217153
0.841925 0.717687 0.21716
0.904716 0.53026 0.217195
0.90914 0.597608 0.217154
0.90452 0.655357 0.217146
0.908816 0.72259 0.217175
0.971685 0.535174 0.217175
0.967251 0.592786 0.217176
0.971617 0.659979 0.21716
0.967 0.717786 0.217149
0.750602 0.593268 0.158515
0.750444 0.595747 0.199563
0.750665 0.595678 0.123165
0.750728 0.530471 0.120388
0.813156 0.529891 0.00623787
0.812941 0.596053 0.00793669
0.813013 0.655232 0.00611829
0.812779 0.721342 0.0080714
0.875579 0.533677 0.00795997
0.875613 0.592649 0.00616604
0.875403 0.658656 0.00801595
0.875441 0.717655 0.00607714
0.938176 0.530082 0.0061921
0.938019 0.596076 0.0078962
0.938071 0.655121 0.00617469
0.937807 0.721392 0.008074
0.750724 0.530078 0.044084
0.750534 0.71795 0.0060507
0.813172 0.533344 0.0464623
0.813109 0.59263 0.0440418
0.813049 0.658496 0.0464648
0.813001 0.717593 0.0440821
0.875845 0.530064 0.0441517
0.875679 0.595899 0.0464232
0.875563 0.655067 0.0441216
0.875442 0.721191 0.0465593
0.938248 0.533402 0.0464097
0.938254 0.592664 0.044111
0.938019 0.65853 0.0464642
0.937997 0.717568 0.0441483
0.750522 0.592683 0.0060192
0.750672 0.53307 0.161298
0.75047 0.658568 0.00799551
0.81319 0.530392 0.0821039
0.813099 0.595833 0.0847931
0.813129 0.655313 0.0821699
0.812904 0.721139 0.0847971
0.87573 0.533072 0.084858
0.875691 0.592938 0.0821631
0.875503 0.658308 0.0848136
0.875476 0.717746 0.0821922
0.938326 0.530504 0.0822502
0.938175 0.59573 0.084784
0.938128 0.655318 0.0822242
0.937944 0.721133 0.0848691
0.750652 0.533204 0.0848593
0.750401 0.655706 0.196739
0.750577 0.65513 0.0441036
0.813239 0.533142 0.123053
0.813115 0.593049 0.120275
0.812974 0.658421 0.123031
0.812888 0.71798 0.120413
0.875785 0.530518 0.120401
0.87563 0.595689 0.123128
0.875514 0.655632 0.120288
0.875488 0.720925 0.123087
0.938351 0.533412 0.123115
0.938239 0.593102 0.120382
0.938136 0.658385 0.123072
0.938012 0.717973 0.120438
0.750656 0.595939 0.0463782
0.750483 0.658485 0.0847488
0.813194 0.530765 0.158541
0.813048 0.595699 0.161352
0.812972 0.65563 0.158596
0.812881 0.720949 0.161313
0.875713 0.533145 0.161314
0.875538 0.593197 0.158525
0.875422 0.658284 0.161355
0.875417 0.71817 0.158617
0.938239 0.530728 0.158568
0.938064 0.595887 0.161374
0.938018 0.655539 0.158546
0.937905 0.721061 0.161295
0.812983 0.533173 0.199472
0.812952 0.593139 0.196748
0.812853 0.658377 0.199537
0.812862 0.718093 0.196729
0.875555 0.530635 0.196753
0.875431 0.595787 0.199543
0.875374 0.655601 0.196746
0.875283 0.720858 0.199577
0.938074 0.533369 0.199516
0.937995 0.593118 0.196716
0.937947 0.658314 0.199561
0.937815 0.718118 0.196775
0.750565 0.655523 0.120359
0.750428 0.59309 0.234851
0.750557 0.533356 0.00790175
0.812945 0.5308 0.234953
0.8128 0.595783 0.237716
0.812747 0.655501 0.234976
0.812756 0.720834 0.237736
0.875376 0.533221 0.23772
0.875427 0.593284 0.234913
0.87528 0.6582 0.237759
0.875231 0.718016 0.234944
0.937942 0.53079 0.234992
0.937912 0.595755 0.237724
0.937817 0.655702 0.234935
0.937715 0.720784 0.237665
0.750293 0.71796 0.23497
0.750406 0.532987 0.237736
0.750284 0.658334 0.237781
0.750652 0.592872 0.0821033
0.750501 0.717742 0.0821751
0.750378 0.718162 0.158519
0.750431 0.658276 0.161352
0.750564 0.530644 0.196798
0.750425 0.720943 0.123113
0.750458 0.721314 0.0464978
0.750333 0.720801 0.19955
0.78301 0.501077 0.272874
0.780429 0.563539 0.275883
0.78295 0.626013 0.272845
0.780146 0.688479 0.275804
0.843154 0.501043 0.275903
0.845461 0.563553 0.272879
0.842891 0.626008 0.275852
0.845573 0.688501 0.272777
0.907955 0.501053 0.272839
0.905501 0.563554 0.275837
0.908059 0.625993 0.272855
0.905309 0.688452 0.275817
0.968291 0.501114 0.276055
0.970703 0.56356 0.272776
0.967882 0.626014 0.275782
0.970643 0.688492 0.272844
0.780784 0.501021 0.314185
0.782612 0.56355 0.311103
0.78042 0.625962 0.314095
0.782763 0.688444 0.31109
0.845025 0.501086 0.310977
0.843152 0.563483 0.314057
0.845273 0.625981 0.311038
0.842577 0.688412 0.31406
0.905983 0.501108 0.314225
0.907589 0.563557 0.311008
0.905491 0.625957 0.314084
0.90778 0.68843 0.310961
0.970079 0.501113 0.311021
0.968304 0.563647 0.314097
0.970204 0.625969 0.311016
0.967811 0.688459 0.314074
0.782592 0.50107 0.349265
0.7805 0.563568 0.352289
0.782661 0.62602 0.349369
0.78021 0.68846 0.352219
0.843197 0.501129 0.352381
0.845065 0.563543 0.349292
0.842766 0.625962 0.352211
0.845092 0.68839 0.349287
0.907472 0.501105 0.349152
0.905476 0.563553 0.352294
0.907485 0.625983 0.349287
0.905156 0.688452 0.352189
0.968463 0.501135 0.352299
0.970074 0.5636 0.349338
0.967935 0.626031 0.352282
0.9701 0.688492 0.349277
0.780878 0.501096 0.39052
0.782293 0.563573 0.387553
0.780306 0.626021 0.390407
0.782332 0.688529 0.387704
0.84449 0.501099 0.387617
0.843169 0.56356 0.390326
0.844879 0.626045 0.387603
0.842546 0.688471 0.390312
0.905956 0.501078 0.390503
0.907362 0.563581 0.387521
0.905371 0.626082 0.390346
0.907418 0.688469 0.387579
0.969642 0.501205 0.387613
0.968175 0.5636 0.390331
0.96977 0.626072 0.387608
0.967797 0.68855 0.390424
0.781353 0.501107 0.426017
0.780913 0.563572 0.428491
0.781916 0.626018 0.426014
0.780322 0.688531 0.428481
0.843652 0.500999 0.428573
0.844283 0.563656 0.426026
0.8428 0.626061 0.428369
0.844299 0.688466 0.426111
0.90657 0.501156 0.425916
0.905741 0.563553 0.428438
0.907011 0.626109 0.426036
0.905392 0.688556 0.428558
0.968888 0.501074 0.428487
0.969273 0.563614 0.425964
0.968083 0.626083 0.428493
0.969504 0.688623 0.425984
0.781465 0.50105 0.466685
0.781576 0.563593 0.464431
0.780632 0.626021 0.466428
0.781595 0.688473 0.464443
0.843752 0.50107 0.464254
0.843144 0.56357 0.466507
0.844054 0.626077 0.464507
0.84334 0.688458 0.466537
0.906428 0.501055 0.466527
0.906407 0.563572 0.464479
0.905871 0.626035 0.466478
0.906705 0.688551 0.464425
0.968753 0.501137 0.464349
0.968557 0.563551 0.466417
0.969442 0.626037 0.464367
0.968399 0.688428 0.466544
0.999865 0.720438 0.428781
0.75027 0.532976 0.314166
0.784034 0.53516 0.255401
0.779498 0.592803 0.25535
0.783833 0.660099 0.255363
0.779438 0.717696 0.255362
0.842002 0.530279 0.255375
0.846476 0.59761 0.255338
0.841847 0.65528 0.255373
0.846199 0.722631 0.255332
0.908956 0.535137 0.255392
0.904626 0.592763 0.255372
0.908924 0.660101 0.25538
0.904402 0.717647 0.25535
0.967104 0.53023 0.255405
0.971397 0.597519 0.255372
0.966971 0.655347 0.255353
0.971156 0.722506 0.255357
0.77961 0.530229 0.293627
0.784017 0.597614 0.29358
0.779415 0.655232 0.29358
0.783707 0.722483 0.293596
0.846424 0.535255 0.293553
0.841901 0.592729 0.293592
0.846174 0.660065 0.293584
0.841795 0.717561 0.293543
0.904498 0.530209 0.293567
0.90894 0.597667 0.293585
0.904415 0.655107 0.293579
0.908639 0.722548 0.293573
0.971569 0.535375 0.29357
0.967099 0.592703 0.293577
0.971393 0.660096 0.29357
0.966889 0.717598 0.293593
0.783792 0.535201 0.331786
0.779224 0.592749 0.331802
0.783603 0.660034 0.331804
0.77912 0.717588 0.331803
0.841966 0.530275 0.331773
0.846321 0.597529 0.331805
0.841772 0.655149 0.331778
0.84602 0.722498 0.331814
0.908972 0.535409 0.331732
0.904257 0.592721 0.331757
0.908754 0.659983 0.331751
0.904235 0.717539 0.331766
0.967033 0.530288 0.331746
0.971551 0.597666 0.331827
0.966864 0.655173 0.331774
0.97115 0.722685 0.331807
0.779302 0.530418 0.369997
0.783704 0.597601 0.370026
0.778913 0.655462 0.370004
0.78335 0.722442 0.370024
0.846533 0.535126 0.369953
0.841561 0.592878 0.369992
0.846115 0.659984 0.369966
0.84148 0.717696 0.369989
0.904318 0.530309 0.369942
0.908852 0.597527 0.369974
0.904121 0.655327 0.369975
0.908561 0.72245 0.370014
0.971433 0.535008 0.36995
0.966726 0.59287 0.369967
0.97108 0.660068 0.369975
0.966587 0.717669 0.370019
0.783738 0.534964 0.408176
0.778981 0.59295 0.408213
0.783602 0.659741 0.408235
0.778959 0.718135 0.408255
0.84176 0.530574 0.40817
0.846239 0.597357 0.408155
0.841526 0.655625 0.40818
0.845812 0.722089 0.408241
0.908745 0.535034 0.408143
0.904295 0.59301 0.408198
0.90861 0.659793 0.408245
0.904072 0.717864 0.408233
0.966761 0.530668 0.40817
0.971229 0.597377 0.408178
0.966565 0.655645 0.408214
0.970907 0.722381 0.408257
0.779173 0.530825 0.446421
0.783148 0.596869 0.44639
0.778876 0.655753 0.446401
0.783413 0.722011 0.446508
0.846106 0.534691 0.446389
0.841756 0.593424 0.446425
0.846035 0.659301 0.446465
0.841775 0.718108 0.446493
0.90405 0.530762 0.446402
0.908375 0.596924 0.446403
0.904056 0.655743 0.44648
0.908118 0.722067 0.446509
0.971366 0.534649 0.446363
0.966948 0.593225 0.446418
0.971138 0.659537 0.446464
0.966554 0.7181 0.446496
0.783421 0.534308 0.484639
0.779407 0.593621 0.484665
0.783087 0.659018 0.484687
0.779637 0.718281 0.484775
0.841311 0.5309 0.484641
0.845041 0.596661 0.484694
0.841496 0.656096 0.484759
0.8449 0.721426 0.484813
0.908242 0.534217 0.48466
0.904204 0.593636 0.484677
0.907837 0.659002 0.484736
0.904164 0.718406 0.484804
0.96642 0.531113 0.484601
0.970054 0.596791 0.48461
0.966536 0.655911 0.484694
0.969942 0.721404 0.484758
0.999911 0.656292 0.425893
0.750175 0.531002 0.349615
0.812857 0.533249 0.276032
0.812796 0.593141 0.2731
0.812687 0.658292 0.275986
0.812612 0.717998 0.273218
0.875336 0.530784 0.273149
0.875233 0.595774 0.275955
0.875171 0.655608 0.273216
0.875137 0.720837 0.275915
0.93783 0.533138 0.275972
0.937869 0.59316 0.273223
0.937725 0.658327 0.275977
0.937612 0.717948 0.273251
0.812805 0.531039 0.311346
0.812717 0.595472 0.314199
0.812576 0.655659 0.311478
0.812462 0.72067 0.314195
0.875229 0.532745 0.314128
0.875158 0.593367 0.311379
0.875072 0.658176 0.314139
0.87493 0.717996 0.311431
0.937852 0.531222 0.311212
0.937716 0.595505 0.314205
0.937685 0.655684 0.311368
0.937479 0.720734 0.314173
0.750191 0.593426 0.311442
0.812648 0.53299 0.352361
0.812526 0.593294 0.349585
0.812448 0.658029 0.352321
0.81242 0.718023 0.349617
0.875181 0.531035 0.349478
0.875032 0.595581 0.352448
0.875011 0.655771 0.349519
0.874847 0.720507 0.352407
0.937672 0.532869 0.352286
0.937562 0.593489 0.349439
0.937464 0.65813 0.352325
0.937458 0.718143 0.34961
0.812611 0.531283 0.387697
0.81243 0.595455 0.390619
0.812301 0.655858 0.387691
0.812268 0.720495 0.390603
0.875064 0.532729 0.39049
0.875067 0.593608 0.387768
0.874886 0.658035 0.390613
0.874821 0.718303 0.387879
0.937662 0.531297 0.387712
0.937528 0.595489 0.390582
0.937479 0.65607 0.387745
0.937374 0.720485 0.390627
0.812457 0.532402 0.428724
0.812447 0.593955 0.425922
0.812297 0.657741 0.42888
0.812277 0.718786 0.426044
0.874951 0.53166 0.425855
0.874914 0.595288 0.428733
0.874824 0.656393 0.425969
0.87484 0.720192 0.428734
0.937462 0.532477 0.428844
0.937492 0.593918 0.426059
0.937425 0.657913 0.428903
0.937261 0.71891 0.426102
0.999981 0.720569 0.352383
0.812455 0.532088 0.464199
0.81241 0.59514 0.466731
0.812245 0.656482 0.464168
0.81254 0.719683 0.466783
0.874791 0.532274 0.467006
0.874803 0.594108 0.464303
0.874889 0.657524 0.467046
0.874827 0.719181 0.46457
0.937463 0.531953 0.464043
0.937425 0.594899 0.466722
0.937358 0.656672 0.464347
0.937311 0.720038 0.466896
0.999794 0.719252 0.464502
0.999863 0.718563 0.387859
0.750391 0.53064 0.273236
0.999916 0.65805 0.390609
0.750332 0.595769 0.276066
0.750009 0.718203 0.311378
0.750029 0.595743 0.352505
0.750129 0.658206 0.314144
0.75013 0.720917 0.275939
0.750179 0.655545 0.273224
0.750074 0.53182 0.42586
0.777839 0.501054 0.542556
0.782145 0.563613 0.541602
0.778154 0.626098 0.542573
0.782405 0.688563 0.541723
0.844961 0.501158 0.541459
0.840377 0.563486 0.542654
0.84532 0.625961 0.541585
0.840181 0.688515 0.542703
0.903342 0.50107 0.542509
0.907728 0.563619 0.541566
0.90317 0.626024 0.542678
0.907585 0.68854 0.541723
0.970136 0.501073 0.541435
0.965859 0.563542 0.542541
0.969996 0.626101 0.541643
0.96563 0.688535 0.542738
0.77949 0.501041 0.580345
0.779171 0.563493 0.580713
0.779628 0.626086 0.580268
0.779241 0.688455 0.580752
0.842287 0.501023 0.580614
0.842475 0.563521 0.580266
0.842136 0.62593 0.580707
0.842549 0.688521 0.580421
0.905213 0.501 0.580191
0.904835 0.563364 0.580676
0.905271 0.625994 0.580398
0.904494 0.688502 0.580885
0.967131 0.500929 0.580646
0.967729 0.563523 0.580186
0.966845 0.62594 0.580724
0.967805 0.688574 0.580315
0.779154 0.500957 0.619331
0.779269 0.563545 0.619201
0.778841 0.625944 0.61938
0.779292 0.68843 0.619338
0.841928 0.500949 0.619215
0.842169 0.563416 0.619325
0.842045 0.625987 0.619208
0.841957 0.688427 0.619497
0.904578 0.50087 0.619355
0.904411 0.563421 0.619257
0.904494 0.625884 0.619395
0.904509 0.688437 0.619443
0.967127 0.500922 0.619237
0.966833 0.563399 0.619444
0.967128 0.625925 0.619332
0.966936 0.688467 0.619551
0.779769 0.500985 0.657978
0.779268 0.563444 0.658076
0.779333 0.625923 0.658173
0.779274 0.688323 0.658198
0.841999 0.500847 0.65796
0.842219 0.563347 0.657967
0.842158 0.625816 0.658162
0.842267 0.688289 0.658202
0.90456 0.50082 0.65801
0.904673 0.563311 0.6581
0.904772 0.625821 0.658218
0.904542 0.688357 0.658279
0.967333 0.500808 0.658125
0.967257 0.563374 0.658057
0.967202 0.625874 0.658167
0.967149 0.688357 0.65834
0.779182 0.500909 0.696878
0.77929 0.563339 0.696925
0.779427 0.62583 0.696927
0.779607 0.688379 0.697038
0.842199 0.500892 0.696838
0.841883 0.563316 0.696948
0.84212 0.62578 0.69698
0.841964 0.688336 0.697055
0.904607 0.500813 0.696859
0.904564 0.563286 0.696923
0.904407 0.625879 0.696969
0.904558 0.688406 0.697062
0.966876 0.500817 0.696828
0.967086 0.563416 0.696925
0.967018 0.625869 0.697094
0.967193 0.688418 0.697086
0.779396 0.500849 0.735582
0.779235 0.56333 0.735728
0.779547 0.625813 0.735771
0.7794 0.688419 0.735764
0.841788 0.500776 0.735729
0.841866 0.563258 0.735769
0.841576 0.625804 0.735807
0.841758 0.688404 0.73586
0.904419 0.500773 0.73568
0.904227 0.563281 0.735808
0.904475 0.62583 0.735728
0.904721 0.688327 0.735881
0.966732 0.500766 0.735686
0.967164 0.563315 0.735822
0.966967 0.625861 0.735747
0.967201 0.688461 0.735827
0.779198 0.531438 0.522939
0.781928 0.595968 0.522996
0.779241 0.656448 0.523054
0.782072 0.720793 0.523106
0.844977 0.533671 0.522897
0.842062 0.593736 0.523008
0.844807 0.65838 0.523077
0.841797 0.718862 0.523164
0.904338 0.531532 0.522945
0.907188 0.596015 0.523024
0.904135 0.656303 0.523066
0.907082 0.720916 0.523123
0.970293 0.533647 0.522835
0.967162 0.593887 0.522919
0.969951 0.658432 0.523011
0.966914 0.718776 0.52309
0.781703 0.532773 0.561306
0.779705 0.59434 0.561339
0.781532 0.657895 0.561386
0.779636 0.719385 0.561493
0.841992 0.531766 0.561274
0.84388 0.595377 0.561339
0.842228 0.65661 0.561436
0.844002 0.720294 0.561451
0.907063 0.532766 0.561237
0.905122 0.594239 0.561391
0.906655 0.657879 0.561396
0.90488 0.719291 0.561521
0.967282 0.531725 0.561227
0.969029 0.595352 0.561283
0.967236 0.656729 0.5614
0.968987 0.720533 0.561452
0.779151 0.532079 0.599979
0.779622 0.594961 0.599944
0.779138 0.657032 0.600024
0.77977 0.719865 0.60012
0.842577 0.532449 0.599897
0.842014 0.59447 0.599956
0.84247 0.657524 0.60002
0.841853 0.719573 0.600123
0.904319 0.531945 0.599918
0.90489 0.594828 0.599975
0.904438 0.657138 0.600054
0.904979 0.719949 0.600163
0.967674 0.532496 0.599894
0.967307 0.594575 0.599965
0.967346 0.657353 0.60004
0.967029 0.719527 0.600162
0.779716 0.532396 0.638693
0.779402 0.594744 0.638742
0.779767 0.657198 0.638805
0.779656 0.719551 0.638893
0.842352 0.532064 0.638652
0.842346 0.594777 0.638694
0.8424 0.656998 0.638789
0.842269 0.719655 0.638922
0.904885 0.532159 0.638738
0.904755 0.594643 0.63877
0.904847 0.6571 0.638855
0.904712 0.719513 0.63895
0.967201 0.531996 0.638725
0.967234 0.594746 0.638784
0.96721 0.657087 0.638875
0.967507 0.719585 0.638984
0.779739 0.532131 0.677475
0.779727 0.59451 0.677523
0.779775 0.657226 0.677601
0.779876 0.719545 0.677625
0.842277 0.532168 0.677473
0.842212 0.594506 0.677544
0.842189 0.657083 0.677621
0.84223 0.719583 0.677708
0.904777 0.532012 0.677519
0.904758 0.594573 0.67759
0.904698 0.657145 0.677658
0.904994 0.719563 0.677727
0.967407 0.532162 0.677502
0.967287 0.594621 0.677639
0.967322 0.656922 0.677706
0.967378 0.719633 0.677773
0.779535 0.532162 0.716269
0.779826 0.594585 0.716311
0.779908 0.657075 0.716349
0.77972 0.71972 0.716403
0.842103 0.532042 0.716309
0.842025 0.594523 0.716351
0.841994 0.657019 0.716423
0.842166 0.719637 0.71647
0.904794 0.532124 0.716307
0.904682 0.594516 0.716362
0.904747 0.657178 0.716419
0.904811 0.719607 0.716506
0.966872 0.532051 0.716325
0.967014 0.594575 0.71641
0.967013 0.65719 0.716453
0.967193 0.719674 0.716497
0.874544 0.721831 0.505062
0.874483 0.655038 0.502846
0.999133 0.717545 0.541535
0.970358 0.563648 0.502822
0.999274 0.719376 0.65837
0.998916 0.532096 0.735747
0.81151 0.530063 0.541227
0.811671 0.596937 0.542862
0.811648 0.654899 0.541531
0.811561 0.72231 0.543079
0.874352 0.534681 0.542922
0.874229 0.592259 0.541552
0.874139 0.659798 0.543081
0.874109 0.717291 0.541644
0.936876 0.530027 0.541136
0.936893 0.59713 0.54287
0.936639 0.654893 0.541316
0.936729 0.722076 0.543018
0.999178 0.59523 0.580105
0.999123 0.719826 0.73598
0.999047 0.531867 0.579176
0.77897 0.688479 0.504575
0.811432 0.532348 0.580227
0.811278 0.594721 0.579339
0.811468 0.657404 0.580263
0.811302 0.71912 0.579453
0.874071 0.532014 0.579103
0.874244 0.594926 0.580112
0.873997 0.656932 0.579293
0.874165 0.720314 0.580276
0.936857 0.532473 0.58018
0.936659 0.594206 0.579394
0.936725 0.657653 0.580274
0.936567 0.719321 0.579479
0.8121 0.534251 0.505017
0.998849 0.656711 0.579306
0.999034 0.532011 0.696994
0.999018 0.657234 0.619513
0.811453 0.532204 0.619046
0.81147 0.594844 0.619346
0.811437 0.657178 0.619181
0.811676 0.719347 0.619589
0.874298 0.532076 0.619412
0.874203 0.594738 0.61918
0.874295 0.657135 0.619405
0.874112 0.719904 0.619374
0.936567 0.532199 0.619033
0.936705 0.594723 0.619337
0.936577 0.657191 0.619207
0.936724 0.719586 0.619606
0.999062 0.594567 0.61922
0.999186 0.532132 0.657895
0.999158 0.532028 0.619464
0.778913 0.56361 0.50439
0.811671 0.53224 0.657949
0.811546 0.594562 0.657967
0.811668 0.657097 0.65809
0.811806 0.71908 0.658279
0.874216 0.532049 0.658124
0.874192 0.594612 0.658194
0.87421 0.656943 0.658214
0.874212 0.719795 0.658351
0.936794 0.532042 0.658191
0.936744 0.594677 0.65819
0.936699 0.657185 0.658308
0.936818 0.719462 0.658186
0.999119 0.594606 0.658116
0.999193 0.595072 0.697112
0.937347 0.534088 0.505089
0.812103 0.71739 0.503172
0.81155 0.532057 0.696839
0.811646 0.594477 0.696856
0.811718 0.657007 0.697057
0.811679 0.719654 0.696998
0.874154 0.532022 0.696983
0.874107 0.594348 0.696973
0.87413 0.657271 0.69706
0.874216 0.719597 0.697014
0.93674 0.532203 0.696828
0.936619 0.594615 0.697056
0.936665 0.657232 0.696988
0.936739 0.719898 0.697212
0.999157 0.656955 0.697162
0.903647 0.688453 0.504643
0.999402 0.534404 0.543013
0.999228 0.65958 0.543125
0.811342 0.53222 0.735665
0.811477 0.594298 0.735717
0.811449 0.657199 0.73581
0.81155 0.719838 0.73584
0.873895 0.531795 0.73564
0.873892 0.594899 0.735652
0.873885 0.657099 0.735792
0.874094 0.719566 0.735894
0.936552 0.532079 0.735763
0.936504 0.594502 0.735737
0.936658 0.657224 0.735914
0.936664 0.719639 0.735928
0.841342 0.625998 0.504564
0.782748 0.501132 0.502834
0.874632 0.596588 0.504942
0.970503 0.688503 0.502944
0.96679 0.501083 0.504453
0.999022 0.594501 0.735843
0.87461 0.530266 0.502638
0.783086 0.626073 0.502924
0.845507 0.563535 0.502742
0.904161 0.563625 0.50447
0.937093 0.592849 0.502875
0.999256 0.719627 0.697081
0.907985 0.501113 0.502904
0.845461 0.688523 0.503106
0.936925 0.717272 0.503042
0.812113 0.592513 0.503095
0.907713 0.626086 0.503056
0.937055 0.659252 0.505115
0.841599 0.501036 0.504488
0.999198 0.592708 0.541403
0.966442 0.626067 0.504507
0.812109 0.659155 0.505169
0.999155 0.720469 0.580318
0.999192 0.657134 0.658094
0.999106 0.71967 0.619425
0.999094 0.65716 0.735811
0.999552 0.721997 0.504962
0.999648 0.655141 0.502664
0.999843 0.530471 0.502495
0.999711 0.596723 0.504683
0.77885 0.500788 0.774606
0.778737 0.563227 0.774519
0.779151 0.625819 0.77463
0.779388 0.688481 0.774643
0.841992 0.50082 0.774591
0.841977 0.563262 0.774556
0.842253 0.625761 0.774548
0.842076 0.688389 0.774621
0.904563 0.500774 0.774515
0.904578 0.563236 0.774506
0.904744 0.62575 0.774653
0.904702 0.688383 0.77462
0.967079 0.500731 0.774567
0.96721 0.563338 0.774556
0.967035 0.625903 0.774611
0.967353 0.688369 0.774615
0.779455 0.500801 0.813404
0.779228 0.563337 0.813436
0.779611 0.625941 0.813406
0.779345 0.688568 0.813451
0.841949 0.500624 0.81342
0.842599 0.56328 0.813359
0.842194 0.625905 0.813311
0.842631 0.688487 0.813298
0.904867 0.50074 0.813278
0.904848 0.563232 0.813387
0.904839 0.625909 0.813391
0.904783 0.688453 0.813338
0.967271 0.500824 0.813482
0.967119 0.563325 0.813434
0.967098 0.625853 0.813421
0.967391 0.688372 0.813527
0.779798 0.50075 0.852245
0.780118 0.563296 0.852103
0.780076 0.625908 0.852271
0.780169 0.68856 0.852195
0.842588 0.500758 0.852015
0.842542 0.563352 0.852172
0.842758 0.625949 0.852202
0.842621 0.688469 0.852243
0.904927 0.500751 0.852171
0.904822 0.563298 0.852109
0.905134 0.625958 0.852166
0.904787 0.688486 0.852165
0.967897 0.500881 0.852192
0.967542 0.563445 0.852199
0.967447 0.625926 0.852203
0.967439 0.688346 0.852221
0.780298 0.500788 0.890931
0.780285 0.563305 0.891107
0.780574 0.625886 0.890941
0.780231 0.688514 0.891122
0.842685 0.500744 0.891088
0.842876 0.563286 0.890911
0.842836 0.625885 0.891125
0.842936 0.68847 0.89106
0.905148 0.500771 0.890882
0.90534 0.563367 0.891007
0.904959 0.625873 0.890925
0.905395 0.688342 0.891146
0.967934 0.500845 0.890962
0.967837 0.563371 0.890911
0.967904 0.625875 0.890954
0.967642 0.688334 0.890979
0.780579 0.500717 0.930011
0.780491 0.563253 0.929725
0.780507 0.625816 0.929934
0.780703 0.688414 0.929772
0.843132 0.500758 0.92977
0.842841 0.563273 0.929955
0.84311 0.625729 0.929683
0.843008 0.688366 0.93005
0.905281 0.500832 0.929908
0.905374 0.563261 0.929667
0.905425 0.62579 0.929969
0.90513 0.688327 0.929775
0.968139 0.500863 0.929645
0.967689 0.563414 0.929897
0.967746 0.625813 0.92957
0.967986 0.688367 0.929984
0.780864 0.500566 0.968235
0.781165 0.563201 0.969057
0.78083 0.625723 0.968248
0.781244 0.688403 0.969057
0.843762 0.500694 0.96903
0.843282 0.563212 0.968237
0.84352 0.62578 0.968973
0.843244 0.688222 0.968248
0.905925 0.500679 0.968247
0.906186 0.56326 0.96898
0.905913 0.625749 0.968282
0.9063 0.688386 0.969038
0.968714 0.500803 0.96889
0.968492 0.563258 0.968147
0.968649 0.625863 0.968995
0.968056 0.688281 0.968292
0.780828 0.530914 0.987832
0.782818 0.595612 0.987822
0.78071 0.656167 0.98779
0.782939 0.72101 0.987896
0.845258 0.533075 0.98788
0.843148 0.593675 0.98783
0.845351 0.658164 0.987852
0.842829 0.718551 0.987877
0.905892 0.530986 0.987795
0.907861 0.595638 0.987805
0.905533 0.656225 0.987851
0.907784 0.720841 0.987927
0.97033 0.533096 0.987792
0.968284 0.593593 0.98776
0.9703 0.658233 0.987859
0.967969 0.718686 0.987886
0.779445 0.531931 0.755128
0.779678 0.594603 0.755142
0.779598 0.657097 0.755199
0.779722 0.719705 0.755238
0.842114 0.531955 0.755173
0.842076 0.594463 0.755216
0.842171 0.657129 0.755246
0.842086 0.719696 0.755264
0.904584 0.53193 0.755112
0.904617 0.594564 0.755164
0.904807 0.656933 0.755198
0.904755 0.719633 0.755285
0.967058 0.531979 0.755168
0.967137 0.594707 0.755208
0.967243 0.65728 0.755235
0.967294 0.719674 0.75527
0.779456 0.532044 0.794057
0.779737 0.594521 0.794035
0.779957 0.657281 0.794073
0.779988 0.719695 0.794137
0.842134 0.531874 0.793964
0.842491 0.59448 0.793927
0.842342 0.657118 0.793946
0.842423 0.71985 0.794003
0.905083 0.531971 0.793964
0.9049 0.594495 0.794001
0.904943 0.657128 0.794025
0.90489 0.719784 0.794028
0.967358 0.532048 0.794008
0.967297 0.59454 0.794012
0.967515 0.65723 0.794057
0.967295 0.719578 0.79409
0.780106 0.532042 0.832814
0.78049 0.594678 0.832773
0.780476 0.657243 0.832786
0.780412 0.719776 0.832884
0.842552 0.531964 0.832737
0.842651 0.594707 0.832763
0.842693 0.657169 0.832773
0.842744 0.719703 0.832818
0.905019 0.531923 0.832754
0.905166 0.594596 0.832767
0.905197 0.657292 0.832781
0.905154 0.719758 0.832773
0.967504 0.53208 0.832842
0.967477 0.594701 0.832811
0.967555 0.657097 0.832842
0.967513 0.719766 0.832913
0.780765 0.532152 0.871595
0.780573 0.594502 0.871602
0.780745 0.657327 0.871631
0.780491 0.71972 0.871701
0.842918 0.531911 0.871545
0.843054 0.594614 0.871553
0.842976 0.657198 0.871604
0.843127 0.719883 0.871677
0.905118 0.532205 0.871545
0.905238 0.594673 0.871561
0.905426 0.65729 0.871599
0.905361 0.719608 0.871702
0.967716 0.532101 0.871608
0.967822 0.594701 0.871575
0.967772 0.657038 0.871589
0.967816 0.719682 0.871726
0.780505 0.531837 0.910443
0.780802 0.594753 0.910407
0.780754 0.657036 0.910413
0.780832 0.719943 0.910511
0.843278 0.532203 0.910422
0.843069 0.594277 0.910415
0.843283 0.657319 0.910464
0.842982 0.719601 0.910522
0.905479 0.531878 0.910336
0.905776 0.594747 0.910359
0.905406 0.656928 0.910398
0.90552 0.719727 0.910509
0.968162 0.532218 0.910323
0.968103 0.59449 0.910289
0.968301 0.657298 0.910369
0.967773 0.719608 0.910531
0.781035 0.532307 0.949241
0.780458 0.594316 0.949208
0.781037 0.657465 0.949221
0.780253 0.719387 0.949281
0.842898 0.531751 0.949228
0.843421 0.594884 0.949224
0.842696 0.656617 0.94922
0.843389 0.719989 0.94932
0.905933 0.532338 0.949187
0.905535 0.594258 0.949167
0.905993 0.657385 0.949239
0.905109 0.719419 0.949349
0.96803 0.531865 0.949104
0.968365 0.594985 0.949102
0.96791 0.656691 0.949159
0.96841 0.719883 0.949294
0.750112 0.531826 0.930088
0.811271 0.532157 0.774642
0.811355 0.594635 0.774698
0.81144 0.656808 0.774594
0.811494 0.719941 0.774678
0.874138 0.532145 0.774611
0.874352 0.594262 0.774649
0.874292 0.657063 0.774573
0.8742 0.719821 0.774605
0.936687 0.5319 0.774496
0.936653 0.594833 0.774576
0.93666 0.657006 0.774612
0.936643 0.719867 0.774653
0.99925 0.719918 0.813475
0.999376 0.65689 0.813514
0.811823 0.532262 0.813359
0.811989 0.594249 0.813305
0.81202 0.657517 0.813397
0.811991 0.719706 0.813452
0.874295 0.531616 0.813225
0.874457 0.594704 0.81338
0.874426 0.656951 0.813369
0.874522 0.719802 0.813425
0.93694 0.531862 0.813425
0.936891 0.594571 0.813349
0.936917 0.657433 0.813288
0.936956 0.719413 0.813378
0.750381 0.531925 0.969017
0.812224 0.532058 0.852029
0.812224 0.594611 0.852093
0.812326 0.657125 0.852098
0.812349 0.719684 0.852295
0.874584 0.531978 0.852058
0.874722 0.594568 0.852048
0.874758 0.6574 0.852221
0.874699 0.719473 0.852146
0.937029 0.531875 0.852213
0.937003 0.594685 0.852115
0.937049 0.65726 0.852134
0.936972 0.719726 0.852286
0.999452 0.719392 0.85232
0.812525 0.532116 0.891168
0.812554 0.594517 0.890924
0.812563 0.657213 0.891087
0.812561 0.719692 0.891065
0.874876 0.53188 0.890948
0.874895 0.59459 0.891123
0.874892 0.657223 0.890985
0.875003 0.719616 0.891161
0.937345 0.531951 0.891015
0.937391 0.594853 0.890944
0.937336 0.657012 0.891047
0.937323 0.719365 0.891128
0.750353 0.657212 0.968869
0.812683 0.531861 0.929773
0.812626 0.594668 0.930053
0.812684 0.656971 0.929723
0.812609 0.719732 0.930112
0.875054 0.532224 0.930089
0.875128 0.594257 0.929645
0.875067 0.657108 0.930058
0.875093 0.719724 0.929899
0.937554 0.532048 0.929643
0.937543 0.594641 0.92981
0.937486 0.657264 0.929574
0.937208 0.719612 0.930157
0.999253 0.656927 0.774688
0.99903 0.531556 0.774593
0.812703 0.531648 0.969997
0.812855 0.594602 0.969006
0.812612 0.656878 0.970023
0.81276 0.719909 0.968959
0.875301 0.532123 0.969029
0.875088 0.594282 0.969966
0.875256 0.657008 0.968977
0.874961 0.719364 0.970232
0.937722 0.531733 0.96992
0.937946 0.594639 0.969004
0.937639 0.656821 0.970045
0.937705 0.719814 0.968985
0.999609 0.594859 0.852251
0.999139 0.71988 0.774643
0.999618 0.656934 0.852286
0.999072 0.594665 0.774589
0.999636 0.532278 0.852304
0.750128 0.594271 0.96993
0.999242 0.59454 0.81341
0.999688 0.719471 0.891279
0.999319 0.53232 0.813394
0.750176 0.594532 0.929693
0.750122 0.657146 0.891072
0.999991 0.719406 0.970119
0.750003 0.720004 0.891274
0.750228 0.657211 0.929987
0.750068 0.719209 0.970165
0.999938 0.657095 0.890956
0.750229 0.719946 0.929726
0.750097 0.594716 0.891054
0.750136 0.531969 0.890933
0.999993 0.719898 0.929749
0.77988 0.751168 0.00777987
0.78345 0.813689 0.00592359
0.779168 0.876267 0.00797883
0.784005 0.938926 0.00595036
0.845953 0.750923 0.00603024
0.842017 0.813669 0.00788038
0.845983 0.876337 0.0058928
0.841674 0.938857 0.00824608
0.904809 0.751017 0.00776272
0.908416 0.813582 0.00608671
0.904412 0.87626 0.0080341
0.908843 0.938861 0.00604917
0.970873 0.750932 0.00615229
0.966962 0.813617 0.00795351
0.970919 0.876211 0.00605057
0.966744 0.938688 0.00823444
0.783699 0.751059 0.0439374
0.779467 0.813637 0.0463991
0.783917 0.876187 0.0438397
0.780209 0.938748 0.0470231
0.842484 0.751009 0.0463191
0.846226 0.813621 0.0438821
0.841906 0.876201 0.0467236
0.847256 0.938856 0.043754
0.908763 0.750941 0.0439985
0.90457 0.813559 0.0464933
0.909066 0.876159 0.0439027
0.905316 0.938697 0.0470787
0.967622 0.751 0.0462789
0.971147 0.81355 0.0439316
0.966913 0.876128 0.0468138
0.972393 0.93873 0.0438444
0.780154 0.751029 0.0846269
0.783524 0.813558 0.0817986
0.780733 0.876197 0.0852732
0.785421 0.938723 0.0821145
0.846153 0.751025 0.0819566
0.842132 0.81359 0.084791
0.847247 0.876285 0.0818065
0.844261 0.938654 0.0855035
0.905197 0.751021 0.0846876
0.908656 0.813521 0.0818652
0.905658 0.876156 0.0854224
0.910532 0.938687 0.0821369
0.97123 0.750985 0.0820123
0.967153 0.813545 0.0848496
0.972169 0.876194 0.081868
0.969242 0.938633 0.0855777
0.783258 0.75102 0.120074
0.780117 0.813536 0.123233
0.783871 0.876091 0.119975
0.782279 0.938677 0.123787
0.842817 0.75104 0.122953
0.845469 0.813506 0.119946
0.843875 0.8761 0.123615
0.847552 0.938616 0.120386
0.908341 0.751017 0.120128
0.905019 0.813484 0.12328
0.908976 0.876061 0.120037
0.907233 0.938637 0.12375
0.96782 0.751042 0.122962
0.970412 0.813453 0.120022
0.968802 0.876056 0.123624
0.972485 0.938608 0.120345
0.780443 0.75108 0.161222
0.782838 0.81355 0.158088
0.781625 0.876124 0.161959
0.78491 0.938647 0.158469
0.845708 0.751062 0.158187
0.842658 0.813493 0.161404
0.846178 0.876053 0.158138
0.845193 0.938598 0.161847
0.905301 0.751046 0.161294
0.907778 0.813471 0.158137
0.906663 0.876092 0.161968
0.909872 0.938606 0.158516
0.970877 0.751085 0.158263
0.967528 0.813527 0.161487
0.97113 0.875976 0.158174
0.970216 0.938544 0.161912
0.783197 0.750984 0.196353
0.780248 0.813456 0.199711
0.783545 0.875983 0.19628
0.782645 0.938552 0.200105
0.842874 0.750963 0.199471
0.845115 0.813434 0.19635
0.844254 0.876056 0.200071
0.84723 0.938569 0.196554
0.908105 0.751002 0.196437
0.905083 0.8134 0.199696
0.908527 0.875957 0.196331
0.907645 0.938528 0.200074
0.967911 0.751059 0.199538
0.970143 0.813478 0.196313
0.969244 0.876058 0.200209
0.972254 0.938551 0.196696
0.780255 0.750951 0.237694
0.782976 0.813392 0.234428
0.781541 0.875962 0.238258
0.784701 0.938441 0.234852
0.845607 0.750948 0.234547
0.84235 0.813344 0.237753
0.84622 0.875895 0.234532
0.84504 0.938463 0.23824
0.905271 0.750985 0.237724
0.907779 0.813369 0.234417
0.9065 0.875937 0.238324
0.909735 0.938498 0.234768
0.970648 0.75096 0.234618
0.967479 0.813324 0.237954
0.971089 0.875871 0.234544
0.970074 0.93849 0.238293
0.783252 0.784628 0.0261475
0.782459 0.843172 0.0261971
0.779784 0.909729 0.026205
0.784765 0.967769 0.0263272
0.842728 0.780813 0.0261798
0.843249 0.847063 0.0262216
0.845983 0.905415 0.0262589
0.843046 0.972907 0.0262492
0.908274 0.7843 0.026238
0.907504 0.843103 0.0262988
0.904877 0.909735 0.0262845
0.909645 0.967809 0.0263901
0.967783 0.780826 0.0262022
0.968171 0.846974 0.0262527
0.971311 0.905311 0.0263106
0.9683 0.972628 0.0262876
0.779802 0.780559 0.0643573
0.780199 0.847473 0.0644078
0.78497 0.904913 0.0644784
0.78133 0.972866 0.0645503
0.846052 0.784851 0.0643734
0.845417 0.84272 0.0644682
0.842892 0.91059 0.0644488
0.848227 0.967631 0.0645983
0.904926 0.780403 0.064445
0.905089 0.847399 0.0644928
0.909856 0.904853 0.0645831
0.906538 0.972783 0.0645857
0.971139 0.784874 0.0644185
0.970527 0.842544 0.0644996
0.967929 0.9105 0.0645471
0.973324 0.967591 0.0646244
0.783909 0.785044 0.10257
0.783517 0.842244 0.102664
0.781064 0.910559 0.102738
0.786003 0.967789 0.102818
0.842197 0.780355 0.102566
0.842051 0.847804 0.102631
0.848693 0.904786 0.102769
0.844208 0.972886 0.102798
0.908777 0.785072 0.102641
0.908608 0.84208 0.102714
0.90598 0.910572 0.102805
0.910832 0.967698 0.102822
0.967351 0.780288 0.102627
0.967174 0.847646 0.102687
0.973978 0.904793 0.102817
0.969108 0.97299 0.10282
0.779643 0.780113 0.140774
0.77936 0.847872 0.140885
0.786695 0.904649 0.140958
0.781558 0.973019 0.141007
0.846393 0.785195 0.14077
0.846307 0.842022 0.140865
0.843617 0.910459 0.140955
0.848393 0.967759 0.140976
0.904786 0.780019 0.140838
0.904155 0.847704 0.140899
0.911709 0.904639 0.140975
0.906522 0.972999 0.141021
0.971447 0.785211 0.140843
0.971258 0.842065 0.140925
0.968655 0.910487 0.140986
0.973379 0.967617 0.141046
0.783871 0.785317 0.178989
0.784043 0.841841 0.179076
0.781255 0.910611 0.179146
0.785925 0.967555 0.179199
0.842202 0.779923 0.178979
0.841415 0.84762 0.179083
0.849248 0.904694 0.179114
0.843934 0.973021 0.179162
0.908852 0.785303 0.179031
0.908918 0.841811 0.179098
0.90624 0.910505 0.179167
0.910922 0.967627 0.17921
0.967204 0.779976 0.179025
0.966552 0.847753 0.179137
0.974283 0.904535 0.179201
0.969074 0.972939 0.179239
0.779619 0.779855 0.217184
0.778975 0.847643 0.217275
0.786805 0.904567 0.217311
0.781528 0.972839 0.217397
0.846339 0.785141 0.217181
0.846434 0.841822 0.217252
0.843627 0.910467 0.217316
0.848362 0.967377 0.217346
0.90454 0.779869 0.217215
0.903861 0.847675 0.217309
0.911668 0.904474 0.217348
0.906397 0.972873 0.217362
0.971462 0.785254 0.21723
0.971441 0.841704 0.217292
0.968664 0.91046 0.217386
0.97351 0.967505 0.217383
0.750344 0.783526 0.161233
0.812813 0.780235 0.00636501
0.812615 0.84711 0.00678096
0.812387 0.905177 0.00823369
0.812694 0.972573 0.00603931
0.875187 0.784053 0.00798551
0.875115 0.842807 0.00777029
0.874995 0.909911 0.00630329
0.875096 0.967537 0.00824005
0.937839 0.780151 0.0064247
0.937594 0.846911 0.00671787
0.937508 0.905231 0.00823824
0.937726 0.97235 0.00614468
0.752381 0.9722 0.044042
0.812763 0.784039 0.0463885
0.812597 0.842512 0.0461166
0.812732 0.909583 0.0440201
0.814964 0.967723 0.0467336
0.875428 0.780036 0.0443481
0.875175 0.847073 0.0446866
0.875213 0.90491 0.0466007
0.877385 0.972084 0.0442337
0.937821 0.783991 0.0464683
0.937638 0.842445 0.046215
0.937833 0.909484 0.0441099
0.940033 0.967643 0.0466813
0.750275 0.783522 0.237653
0.752495 0.909197 0.0820285
0.752703 0.967775 0.0848483
0.812886 0.780127 0.0823693
0.812745 0.846663 0.0825682
0.815084 0.905351 0.0850541
0.815141 0.971302 0.0822803
0.875302 0.783972 0.0847139
0.875123 0.842586 0.0847239
0.877436 0.909245 0.0822242
0.877763 0.967849 0.0849033
0.937997 0.780111 0.0825051
0.93781 0.846645 0.0826034
0.94014 0.90528 0.0851736
0.940175 0.971421 0.0823046
0.750108 0.843402 0.161509
0.752744 0.905894 0.123398
0.752687 0.971069 0.120424
0.812829 0.783564 0.123027
0.812565 0.843182 0.123154
0.815199 0.908499 0.120162
0.815189 0.968164 0.123155
0.875338 0.780508 0.120542
0.875148 0.845943 0.120469
0.877649 0.905784 0.123507
0.877636 0.970996 0.120481
0.937861 0.783562 0.123109
0.937589 0.843128 0.123197
0.940207 0.908448 0.120124
0.940168 0.968114 0.123167
0.750165 0.784112 0.00783419
0.75282 0.908289 0.1583
0.752676 0.968437 0.161383
0.812828 0.780746 0.158693
0.81268 0.845837 0.158571
0.815226 0.90606 0.161693
0.815233 0.970693 0.158631
0.875321 0.783551 0.161287
0.874993 0.843442 0.161534
0.877814 0.908193 0.158308
0.877667 0.968441 0.16138
0.93782 0.780562 0.158774
0.937594 0.845856 0.158593
0.940333 0.905977 0.161754
0.940202 0.970595 0.158682
0.752825 0.906146 0.199872
0.752693 0.970529 0.196815
0.812779 0.783272 0.199483
0.812567 0.843504 0.199775
0.815271 0.908059 0.196494
0.815171 0.968434 0.199593
0.875243 0.780653 0.196894
0.875084 0.845608 0.19673
0.877727 0.906115 0.199892
0.877674 0.970486 0.196824
0.937719 0.783399 0.199503
0.937422 0.843414 0.199826
0.940338 0.908204 0.196538
0.940188 0.968543 0.199626
0.750054 0.967622 0.00819967
0.750029 0.909847 0.00621539
0.752755 0.908109 0.23461
0.752637 0.96812 0.237777
0.812699 0.78045 0.235079
0.812568 0.845745 0.234824
0.815228 0.905875 0.238083
0.815135 0.970512 0.234993
0.875139 0.783338 0.23769
0.874858 0.843137 0.238031
0.877757 0.908123 0.234704
0.877611 0.968323 0.237707
0.937714 0.780473 0.235162
0.937524 0.84567 0.234834
0.940275 0.905978 0.238151
0.94017 0.970502 0.234971
0.75022 0.845891 0.120499
1.0 0.843327 0.161552
0.750155 0.842778 0.0846556
0.75014 0.904909 0.0464923
0.750423 0.780082 0.0442493
0.999891 0.843232 0.237987
0.750049 0.84278 0.00760371
0.750185 0.845606 0.196699
0.750394 0.780654 0.120489
0.75032 0.780569 0.196931
0.750355 0.784046 0.0847688
0.750158 0.847032 0.044714
0.783025 0.750966 0.27278
0.779861 0.813353 0.276047
0.783705 0.875825 0.27273
0.782493 0.93835 0.276378
0.842538 0.750919 0.275836
0.845078 0.813293 0.27273
0.843927 0.875889 0.276337
0.847105 0.938413 0.272905
0.908045 0.750913 0.272754
0.904857 0.813356 0.276085
0.908539 0.875812 0.272628
0.907548 0.938423 0.276425
0.967669 0.750876 0.275915
0.970105 0.813268 0.272672
0.969026 0.875813 0.276452
0.972042 0.938374 0.272937
0.780011 0.750895 0.314086
0.782371 0.813254 0.310893
0.781527 0.875807 0.314714
0.784374 0.938294 0.311108
0.845245 0.75082 0.311003
0.842352 0.813237 0.314219
0.845671 0.875727 0.310812
0.845216 0.938322 0.314561
0.904955 0.750867 0.314126
0.907448 0.813212 0.31085
0.906564 0.87583 0.314596
0.909237 0.938345 0.311118
0.970266 0.750883 0.310912
0.967172 0.813246 0.314209
0.970597 0.875741 0.310833
0.970174 0.938353 0.31457
0.782674 0.750831 0.349316
0.779917 0.813229 0.352411
0.783119 0.875649 0.349125
0.782742 0.938178 0.352727
0.842493 0.750852 0.352347
0.844674 0.813114 0.349166
0.844069 0.875691 0.352771
0.846504 0.93824 0.349186
0.907524 0.750795 0.349216
0.904861 0.813261 0.352451
0.907876 0.875675 0.349046
0.907651 0.938279 0.352672
0.967629 0.75091 0.352375
0.969343 0.813217 0.349089
0.969018 0.875782 0.352772
0.971465 0.938304 0.349194
0.780291 0.751007 0.390433
0.78144 0.813313 0.387674
0.782096 0.875813 0.390954
0.782786 0.938215 0.387351
0.84474 0.75083 0.387594
0.842951 0.813284 0.39066
0.844506 0.87564 0.387204
0.846127 0.938184 0.39066
0.905318 0.750908 0.390472
0.906468 0.81327 0.387483
0.907377 0.875817 0.390898
0.907725 0.93823 0.387366
0.969867 0.750945 0.387542
0.967875 0.813357 0.390653
0.969512 0.87573 0.387146
0.971093 0.93826 0.390825
0.781723 0.751031 0.426131
0.780832 0.813498 0.428681
0.780254 0.875768 0.425764
0.783807 0.938358 0.429067
0.843165 0.750932 0.428562
0.843346 0.813363 0.425988
0.844641 0.875906 0.42886
0.84289 0.938291 0.425425
0.906672 0.751 0.425952
0.905686 0.813459 0.428706
0.905208 0.875801 0.4257
0.908836 0.938298 0.428994
0.967996 0.751056 0.428624
0.968434 0.813383 0.425903
0.969637 0.875917 0.428965
0.96796 0.938333 0.425445
0.780987 0.750965 0.466633
0.780799 0.81353 0.464604
0.781803 0.87605 0.466777
0.779817 0.938425 0.464195
0.843758 0.75101 0.46456
0.843609 0.813511 0.466799
0.842919 0.875936 0.464277
0.84503 0.938503 0.466881
0.905739 0.751024 0.466709
0.906003 0.813473 0.464363
0.906748 0.875999 0.46683
0.904851 0.938381 0.4641
0.96897 0.750993 0.464462
0.968388 0.813467 0.466788
0.968034 0.875912 0.46424
0.969691 0.938491 0.466899
0.999588 0.844784 0.466901
0.999557 0.843256 0.314442
0.783768 0.785148 0.25539
0.78377 0.8417 0.255429
0.781039 0.910289 0.255517
0.785785 0.96736 0.255546
0.841875 0.77992 0.255392
0.841202 0.847461 0.255452
0.849182 0.904505 0.255476
0.843934 0.972857 0.255506
0.908704 0.785208 0.25542
0.908962 0.841619 0.255443
0.906114 0.910497 0.255509
0.910791 0.96746 0.255509
0.967033 0.779746 0.255425
0.96621 0.847485 0.255497
0.974339 0.90444 0.255517
0.968884 0.972866 0.255534
0.779515 0.779831 0.293621
0.778658 0.847529 0.293682
0.786644 0.904321 0.2937
0.781254 0.972704 0.293712
0.846078 0.784974 0.29361
0.846221 0.84171 0.293609
0.843477 0.910309 0.293657
0.848253 0.967338 0.293683
0.90428 0.779729 0.293599
0.903598 0.847476 0.293661
0.911665 0.904469 0.293645
0.906302 0.972818 0.293702
0.970957 0.785066 0.293598
0.971289 0.841621 0.293635
0.968348 0.910205 0.293689
0.973202 0.967244 0.293683
0.783546 0.784915 0.331817
0.783761 0.841638 0.331819
0.780589 0.910135 0.331882
0.785709 0.96726 0.331886
0.841941 0.779745 0.331834
0.841111 0.847318 0.331853
0.849185 0.904281 0.3318
0.843533 0.972751 0.331845
0.908413 0.785047 0.331819
0.908696 0.841659 0.331786
0.905742 0.910132 0.331841
0.910811 0.967306 0.331883
0.966802 0.779672 0.331801
0.965846 0.847362 0.33185
0.974176 0.904281 0.331836
0.968455 0.972757 0.331854
0.779312 0.779992 0.370049
0.778519 0.847226 0.370086
0.786362 0.904264 0.37003
0.780909 0.97254 0.370043
0.846063 0.784877 0.370103
0.846232 0.841646 0.370021
0.843036 0.910014 0.369963
0.848253 0.967204 0.369977
0.904148 0.779827 0.370025
0.90346 0.847357 0.37009
0.911317 0.90435 0.369962
0.906024 0.972519 0.370047
0.971 0.784999 0.370045
0.971266 0.84162 0.370005
0.968065 0.91032 0.36996
0.97336 0.96718 0.369989
0.783655 0.784781 0.408349
0.783728 0.842089 0.408281
0.779703 0.910027 0.408245
0.785874 0.967151 0.408228
0.841453 0.779987 0.408299
0.84119 0.84724 0.4083
0.847585 0.904251 0.408169
0.843268 0.972618 0.408127
0.908517 0.784837 0.408292
0.908569 0.841975 0.408222
0.904606 0.910065 0.40821
0.91074 0.967127 0.408196
0.966612 0.779976 0.408273
0.966142 0.847221 0.408296
0.97264 0.904253 0.408113
0.968266 0.972707 0.408151
0.779028 0.780732 0.446603
0.778941 0.846742 0.446571
0.783551 0.904643 0.446424
0.780105 0.972377 0.446443
0.845956 0.784291 0.446588
0.84575 0.842514 0.446489
0.841415 0.909564 0.446446
0.847077 0.966951 0.446338
0.903815 0.78037 0.446522
0.903978 0.846821 0.446526
0.908776 0.904539 0.446411
0.904927 0.9724 0.446352
0.970887 0.784391 0.446534
0.970667 0.842339 0.446433
0.966109 0.909592 0.446428
0.971989 0.967028 0.446317
0.782535 0.783876 0.484866
0.782399 0.843114 0.484827
0.77887 0.908784 0.484776
0.782896 0.967493 0.484661
0.841373 0.780834 0.484862
0.841565 0.846366 0.484792
0.844819 0.905194 0.484659
0.841354 0.971465 0.484686
0.907775 0.784088 0.484824
0.907457 0.842811 0.484763
0.903517 0.908883 0.484691
0.907599 0.967692 0.484647
0.966256 0.780708 0.484803
0.966385 0.84641 0.484768
0.970195 0.905034 0.484675
0.966232 0.97154 0.484624
0.999533 0.906517 0.464094
0.752636 0.905839 0.276346
0.752564 0.970411 0.273182
0.812601 0.783465 0.275898
0.812269 0.843188 0.276238
0.815161 0.908082 0.272863
0.815032 0.968184 0.275923
0.875089 0.780456 0.273258
0.87491 0.845638 0.273007
0.877667 0.905867 0.276305
0.877577 0.970462 0.273128
0.937526 0.783275 0.275901
0.937301 0.843197 0.276273
0.940222 0.907851 0.272778
0.939987 0.968221 0.275916
0.999801 0.782405 0.467021
0.752534 0.907741 0.310978
0.752422 0.968348 0.314214
0.812601 0.780441 0.311588
0.812358 0.845414 0.311275
0.815067 0.906043 0.314555
0.814902 0.970013 0.311307
0.87494 0.783198 0.314091
0.874662 0.843215 0.314353
0.877539 0.907712 0.310934
0.877434 0.968378 0.314145
0.937431 0.780321 0.311589
0.937321 0.845484 0.311214
0.940051 0.906142 0.314578
0.939875 0.970112 0.311298
0.752423 0.906058 0.352767
0.752314 0.969675 0.34943
0.812438 0.783028 0.352333
0.812192 0.843207 0.352546
0.814941 0.907437 0.349093
0.814851 0.968528 0.352441
0.87492 0.780482 0.349784
0.874742 0.84521 0.349423
0.877352 0.906115 0.352741
0.8773 0.969772 0.349355
0.937306 0.782967 0.352289
0.937011 0.843352 0.352644
0.9399 0.907499 0.34907
0.939865 0.968684 0.352489
0.752118 0.906564 0.387309
0.752389 0.969655 0.390667
0.812324 0.781103 0.387944
0.812278 0.844643 0.387708
0.814655 0.907031 0.390835
0.814747 0.968575 0.38757
0.874884 0.782696 0.390628
0.874682 0.84414 0.390836
0.877168 0.906438 0.387307
0.877218 0.96969 0.390618
0.937289 0.781086 0.387933
0.937251 0.844595 0.387636
0.939603 0.90712 0.390763
0.939769 0.968787 0.387575
0.99973 0.908193 0.428876
0.752219 0.967583 0.425882
0.812324 0.782277 0.429017
0.812105 0.845078 0.42889
0.812405 0.905516 0.425877
0.814677 0.971477 0.428773
0.874718 0.781779 0.426105
0.874687 0.844125 0.425962
0.874828 0.908245 0.429043
0.877073 0.967447 0.425734
0.937259 0.782493 0.428939
0.936996 0.845047 0.428812
0.937441 0.90563 0.425747
0.939556 0.971433 0.428731
0.812209 0.782127 0.464456
0.812203 0.844307 0.464562
0.812103 0.908245 0.466934
0.812435 0.967947 0.464241
0.874807 0.782391 0.467141
0.874688 0.845078 0.466956
0.874642 0.906243 0.464136
0.874623 0.971494 0.466889
0.937164 0.781968 0.464367
0.937242 0.844487 0.464451
0.93711 0.908125 0.467076
0.937185 0.967947 0.464158
0.750182 0.780495 0.273386
0.99965 0.845202 0.349425
0.999466 0.971253 0.466939
0.99988 0.782856 0.390567
0.999937 0.845478 0.273057
0.999628 0.844308 0.390821
0.999842 0.781683 0.426079
0.999769 0.844375 0.425893
0.750033 0.845741 0.273092
0.999878 0.780804 0.349775
0.999896 0.783271 0.314084
0.840446 0.875937 0.504611
0.966936 0.751022 0.58098
0.77771 0.751009 0.542679
0.782645 0.813502 0.541745
0.778289 0.876002 0.542798
0.782451 0.938389 0.541664
0.845166 0.751024 0.541651
0.840923 0.813445 0.542858
0.844989 0.875897 0.541649
0.840792 0.938413 0.542705
0.903171 0.750955 0.542771
0.907436 0.813465 0.541722
0.903356 0.875991 0.542807
0.907239 0.938386 0.541514
0.970025 0.75106 0.541697
0.965445 0.813432 0.542924
0.969803 0.875849 0.541557
0.965643 0.938342 0.542735
0.811982 0.784627 0.505151
0.77955 0.813466 0.580923
0.780405 0.875934 0.58041
0.779724 0.93844 0.580792
0.842826 0.813412 0.580431
0.84202 0.87595 0.580881
0.84288 0.938455 0.580193
0.90453 0.813458 0.580952
0.905119 0.875966 0.58048
0.90456 0.93849 0.580912
0.967709 0.813533 0.580474
0.967024 0.876023 0.580912
0.967456 0.938406 0.580277
0.779409 0.813392 0.619432
0.779551 0.87594 0.619634
0.779516 0.938453 0.619308
0.842336 0.813439 0.619647
0.842031 0.875945 0.619445
0.842057 0.938398 0.619539
0.904634 0.813487 0.61947
0.904603 0.876046 0.619591
0.904411 0.938508 0.619376
0.967006 0.813503 0.619686
0.96695 0.876059 0.619514
0.966932 0.938595 0.619493
0.779632 0.813382 0.658319
0.779712 0.875987 0.658185
0.779694 0.938606 0.658225
0.841375 0.750989 0.504664
0.842539 0.813489 0.658297
0.842104 0.875989 0.658256
0.842217 0.938496 0.658274
0.904516 0.813464 0.658354
0.904775 0.876006 0.658333
0.904392 0.93854 0.658336
0.970564 0.813461 0.502775
0.967099 0.813478 0.658303
0.967082 0.876081 0.658428
0.966946 0.938589 0.658295
0.779875 0.813494 0.697109
0.779455 0.876036 0.697137
0.779621 0.938611 0.697001
0.874493 0.779842 0.502983
0.842189 0.813535 0.697102
0.842251 0.876054 0.697134
0.841784 0.93857 0.697053
0.904588 0.750895 0.697106
0.904758 0.813449 0.697241
0.904423 0.876051 0.69715
0.904608 0.938571 0.697171
0.967256 0.750972 0.697104
0.967076 0.813502 0.697152
0.967047 0.876025 0.697068
0.96682 0.938574 0.697189
0.779574 0.750982 0.735824
0.779653 0.813505 0.735923
0.779638 0.876111 0.735861
0.779708 0.938592 0.735869
0.842018 0.750914 0.735842
0.842107 0.813502 0.735858
0.841811 0.876004 0.735892
0.841615 0.938501 0.735896
0.904503 0.750873 0.735923
0.90459 0.8135 0.735915
0.904556 0.876096 0.735879
0.904505 0.938566 0.735885
0.967083 0.751038 0.735826
0.967181 0.813526 0.735932
0.966968 0.875997 0.73595
0.967132 0.93854 0.735958
0.779101 0.781367 0.523163
0.779226 0.845806 0.523168
0.781956 0.906015 0.523058
0.779176 0.970775 0.523004
0.844712 0.783593 0.523102
0.844359 0.843553 0.523091
0.841986 0.908272 0.52302
0.844718 0.968088 0.522968
0.90431 0.781222 0.52317
0.9046 0.845974 0.523122
0.907184 0.905822 0.523003
0.904332 0.97094 0.523006
0.969805 0.783546 0.523099
0.969501 0.843147 0.523063
0.966627 0.908344 0.523029
0.969704 0.968108 0.522909
0.781396 0.782702 0.56148
0.781452 0.844124 0.561498
0.780024 0.9079 0.561458
0.781702 0.969019 0.561353
0.842295 0.781561 0.561488
0.842468 0.845318 0.561505
0.844179 0.906455 0.561371
0.842178 0.970542 0.561314
0.906536 0.782801 0.561502
0.906438 0.844074 0.561479
0.904653 0.907875 0.56149
0.906708 0.968808 0.56135
0.967387 0.781568 0.561552
0.967331 0.845406 0.561509
0.96917 0.906421 0.561416
0.967155 0.970402 0.561353
0.779527 0.782104 0.600202
0.779535 0.844848 0.60014
0.78006 0.906928 0.600086
0.779496 0.969823 0.600043
0.842458 0.782311 0.600126
0.842484 0.844473 0.600159
0.84208 0.907377 0.600125
0.842533 0.969465 0.599997
0.904415 0.782092 0.600183
0.904364 0.844917 0.600177
0.904938 0.906979 0.600175
0.904266 0.970103 0.600047
0.96747 0.782424 0.600202
0.967288 0.844633 0.600212
0.966811 0.907498 0.600148
0.967295 0.969544 0.600057
0.779981 0.782258 0.638957
0.77995 0.844565 0.63893
0.779601 0.90743 0.638883
0.779847 0.969805 0.638796
0.842359 0.782037 0.638989
0.842315 0.844838 0.638954
0.842464 0.907241 0.638966
0.842213 0.969805 0.638856
0.905097 0.782348 0.63901
0.90501 0.844657 0.638999
0.904797 0.907384 0.639002
0.904924 0.969767 0.638882
0.967154 0.78208 0.639003
0.96697 0.844964 0.639033
0.967256 0.907296 0.638971
0.967053 0.969829 0.638886
0.779963 0.782167 0.677681
0.779753 0.844808 0.677708
0.779796 0.907199 0.677618
0.7797 0.970035 0.677579
0.842381 0.782193 0.677747
0.842317 0.844724 0.677726
0.842167 0.907275 0.677721
0.842169 0.969838 0.677698
0.904732 0.782178 0.677825
0.904755 0.844721 0.677829
0.904894 0.907393 0.677789
0.904606 0.969835 0.677745
0.967235 0.782229 0.677806
0.967353 0.84469 0.67778
0.96712 0.907433 0.677788
0.967086 0.969858 0.677702
0.779904 0.782209 0.716425
0.779739 0.844891 0.716494
0.779795 0.907425 0.716458
0.779633 0.969817 0.716432
0.842252 0.782261 0.716529
0.842148 0.84476 0.716526
0.842279 0.907426 0.716474
0.842251 0.969731 0.716472
0.904768 0.78212 0.71658
0.904761 0.844741 0.716554
0.904698 0.907365 0.716561
0.904623 0.969855 0.716516
0.967366 0.782302 0.716524
0.96734 0.844789 0.716569
0.967183 0.907267 0.716577
0.967002 0.969888 0.716559
0.779664 0.750915 0.61954
0.936776 0.909429 0.50276
0.874445 0.971908 0.502741
0.966065 0.875883 0.504743
0.778716 0.938496 0.50472
0.812045 0.967757 0.504989
0.874347 0.904674 0.504928
0.841961 0.750836 0.658336
0.841841 0.75088 0.580802
0.937001 0.967504 0.504937
0.998781 0.970015 0.579383
0.999013 0.967289 0.542916
0.811549 0.77984 0.541546
0.811736 0.846974 0.541667
0.811831 0.904978 0.542833
0.811595 0.97188 0.541362
0.874323 0.784511 0.543069
0.87426 0.842454 0.542834
0.874218 0.909305 0.541463
0.87424 0.967558 0.543012
0.936591 0.779894 0.541571
0.936656 0.846941 0.541612
0.936679 0.905068 0.543087
0.936631 0.97167 0.541395
0.998992 0.969888 0.73585
0.999163 0.784645 0.543
0.811572 0.782601 0.580132
0.811824 0.844156 0.580223
0.811775 0.907685 0.579373
0.811724 0.96947 0.580162
0.874047 0.781706 0.57949
0.874073 0.845079 0.579442
0.874222 0.906866 0.580339
0.874066 0.969959 0.579168
0.936717 0.782758 0.580335
0.936595 0.844446 0.58023
0.936465 0.90746 0.579379
0.936616 0.969559 0.580285
0.999004 0.907365 0.697105
0.999047 0.781827 0.579567
0.999215 0.782241 0.73595
0.81176 0.782358 0.619436
0.811643 0.844529 0.619352
0.811709 0.90712 0.619708
0.811749 0.969578 0.619274
0.874211 0.782004 0.619601
0.874293 0.844921 0.619629
0.874165 0.907178 0.619439
0.874119 0.969615 0.619635
0.93673 0.782084 0.619344
0.936633 0.844603 0.619376
0.936657 0.907442 0.619681
0.936509 0.969739 0.619269
0.999205 0.844825 0.697213
0.999453 0.77975 0.502948
0.9993 0.782336 0.697162
0.999389 0.904775 0.505051
0.811877 0.782517 0.658336
0.81179 0.844661 0.658284
0.81171 0.907349 0.658175
0.811751 0.969856 0.658171
0.874257 0.781898 0.65828
0.874364 0.844821 0.658361
0.874242 0.907169 0.658429
0.874153 0.96964 0.658171
0.936803 0.782211 0.658434
0.936761 0.844508 0.658451
0.936662 0.907354 0.658323
0.936564 0.969823 0.658294
0.999111 0.969752 0.619569
0.999093 0.842411 0.543001
0.904758 0.750954 0.619641
0.811831 0.78215 0.696966
0.811681 0.845038 0.697034
0.811596 0.907114 0.697015
0.8115 0.97005 0.69711
0.874159 0.782177 0.697263
0.874212 0.844647 0.697219
0.874139 0.907471 0.697072
0.874085 0.969809 0.69713
0.936712 0.782026 0.697268
0.936727 0.844898 0.697116
0.936635 0.907118 0.697217
0.936604 0.969841 0.697164
0.999001 0.90726 0.619325
0.99915 0.84479 0.658312
0.967038 0.750964 0.619519
0.811611 0.782305 0.735948
0.811504 0.844766 0.735904
0.811631 0.906917 0.735806
0.811588 0.970067 0.735872
0.874198 0.781957 0.735858
0.874079 0.844964 0.735885
0.874063 0.907194 0.735915
0.874075 0.969633 0.735827
0.936691 0.782279 0.735822
0.936642 0.844767 0.736005
0.936727 0.907335 0.735904
0.936521 0.969848 0.735917
0.845564 0.938319 0.502762
0.966175 0.750969 0.504659
0.783283 0.75102 0.503129
0.970371 0.938287 0.50261
0.93698 0.784556 0.50515
0.903504 0.938459 0.504643
0.778374 0.813485 0.504629
0.903404 0.813527 0.504765
0.779974 0.751035 0.580559
0.908117 0.875927 0.502792
0.905294 0.751058 0.580474
0.904939 0.750895 0.658309
0.998942 0.845019 0.57951
0.999105 0.906884 0.580367
0.841906 0.750877 0.619463
0.99902 0.844806 0.619817
0.99901 0.909331 0.541424
0.908109 0.750993 0.503081
0.780034 0.750818 0.658264
0.936979 0.842433 0.504955
0.811785 0.842024 0.504947
0.874302 0.847286 0.503131
0.783176 0.875983 0.502976
0.845436 0.813552 0.50283
0.998878 0.969959 0.697144
0.811854 0.90972 0.502861
0.842204 0.750882 0.697066
0.967334 0.750919 0.658322
0.77945 0.750935 0.696997
0.999119 0.78227 0.619641
0.999046 0.969975 0.658301
0.999076 0.907145 0.735933
0.999155 0.782404 0.658396
0.999087 0.907271 0.658394
0.999177 0.844763 0.735918
0.99926 0.971736 0.502641
0.999417 0.847098 0.503011
0.779102 0.75104 0.774696
0.779207 0.813581 0.774668
0.779002 0.876155 0.774677
0.779399 0.93869 0.77474
0.842161 0.751017 0.774643
0.841944 0.81359 0.774728
0.842183 0.876086 0.774661
0.841968 0.938677 0.774622
0.904506 0.751032 0.77468
0.90486 0.813523 0.774573
0.904471 0.876124 0.774624
0.904442 0.938627 0.774587
0.966937 0.750975 0.774652
0.967116 0.813505 0.774768
0.966841 0.876073 0.774744
0.967006 0.938606 0.77481
0.779496 0.751045 0.813556
0.779693 0.813568 0.813537
0.77987 0.876109 0.813533
0.780154 0.938642 0.813517
0.842371 0.751051 0.813486
0.84228 0.813586 0.81343
0.842405 0.876031 0.813446
0.842252 0.938615 0.813397
0.905038 0.751016 0.813336
0.904927 0.81351 0.813415
0.904662 0.876004 0.813381
0.90466 0.938539 0.8135
0.967159 0.750944 0.813562
0.967042 0.813515 0.813557
0.96712 0.876139 0.81363
0.966796 0.938709 0.813609
0.780513 0.75118 0.852334
0.780457 0.813694 0.852293
0.780661 0.876177 0.852402
0.780157 0.93872 0.852316
0.842663 0.751029 0.852223
0.842666 0.813594 0.852283
0.842704 0.87608 0.852268
0.842864 0.938667 0.85235
0.9047 0.750895 0.852213
0.904987 0.813487 0.852313
0.905051 0.876112 0.852432
0.90479 0.938677 0.8523
0.967383 0.750889 0.852351
0.967281 0.813514 0.852448
0.967214 0.876111 0.852297
0.967214 0.938619 0.852414
0.780463 0.813612 0.891216
0.780431 0.87618 0.891071
0.780233 0.938715 0.891255
0.842727 0.81361 0.891163
0.84297 0.876244 0.891183
0.842677 0.938734 0.89119
0.905133 0.813523 0.891242
0.904902 0.876099 0.891223
0.905024 0.938665 0.891297
0.967675 0.813602 0.891162
0.967274 0.876144 0.891406
0.967294 0.938585 0.891168
0.780463 0.813628 0.929806
0.780274 0.876251 0.930162
0.780075 0.938787 0.929872
0.842959 0.813624 0.930071
0.842517 0.876241 0.929889
0.842751 0.93877 0.930229
0.905079 0.813606 0.929917
0.905068 0.876134 0.930191
0.904901 0.938694 0.92993
0.967734 0.813465 0.930142
0.967657 0.876108 0.929917
0.967357 0.938659 0.930284
0.78114 0.813624 0.969102
0.780214 0.876265 0.968296
0.780934 0.938805 0.969379
0.84275 0.813541 0.968314
0.84333 0.876167 0.969309
0.842876 0.938848 0.968331
0.906022 0.813586 0.969259
0.905195 0.876191 0.968421
0.905656 0.938751 0.969479
0.967771 0.813578 0.968397
0.968351 0.876112 0.969306
0.967851 0.938705 0.968377
0.780464 0.781369 0.987871
0.780654 0.846204 0.987927
0.782376 0.906283 0.988007
0.780016 0.971677 0.988022
0.84491 0.783652 0.987979
0.844432 0.843753 0.988004
0.842603 0.908994 0.987972
0.845246 0.968627 0.988052
0.905554 0.781382 0.987968
0.90571 0.846139 0.988008
0.907471 0.906204 0.988092
0.905001 0.971661 0.988056
0.969893 0.783601 0.987991
0.969517 0.843743 0.988013
0.967594 0.908725 0.987981
0.970085 0.968534 0.988078
0.779784 0.78223 0.755284
0.779662 0.844853 0.755308
0.779748 0.907325 0.755294
0.779778 0.96995 0.755263
0.842325 0.782315 0.755305
0.842134 0.844713 0.755308
0.842161 0.907376 0.755269
0.842326 0.969891 0.755256
0.904682 0.782216 0.755288
0.904563 0.844795 0.75525
0.904654 0.907414 0.755265
0.904682 0.969975 0.755277
0.967277 0.78224 0.75528
0.967339 0.844749 0.755364
0.967128 0.907304 0.755375
0.967114 0.969764 0.755318
0.779936 0.782306 0.794165
0.779774 0.844864 0.794131
0.779933 0.907347 0.794109
0.780072 0.970155 0.79412
0.842479 0.782322 0.794082
0.842339 0.844817 0.794047
0.842264 0.907357 0.794028
0.84224 0.969982 0.794058
0.904987 0.782296 0.794064
0.904813 0.844806 0.794026
0.904781 0.907416 0.794043
0.904696 0.969781 0.794069
0.967351 0.782153 0.794114
0.967099 0.844779 0.794155
0.967304 0.907535 0.794183
0.967159 0.970057 0.794147
0.780333 0.78248 0.832947
0.780186 0.844957 0.83296
0.7804 0.907423 0.832937
0.780393 0.969908 0.832932
0.842674 0.782245 0.832882
0.842831 0.844826 0.832881
0.842815 0.907322 0.832877
0.842621 0.969919 0.832907
0.905055 0.782234 0.832856
0.904943 0.844877 0.832918
0.905217 0.907285 0.832903
0.905014 0.969919 0.832914
0.967408 0.782239 0.832973
0.96725 0.844564 0.832992
0.967187 0.907508 0.833003
0.967195 0.970008 0.832983
0.780565 0.782428 0.871704
0.780634 0.844861 0.87173
0.780524 0.907553 0.87174
0.780651 0.969916 0.871699
0.842918 0.782357 0.871711
0.842873 0.844891 0.871732
0.843038 0.9075 0.871733
0.842951 0.970066 0.871772
0.905245 0.782235 0.871737
0.905204 0.844787 0.871825
0.905119 0.907542 0.871803
0.905288 0.969929 0.871809
0.967544 0.782216 0.871848
0.967553 0.845 0.871865
0.96754 0.907254 0.87181
0.967359 0.970009 0.871843
0.780544 0.7822 0.910502
0.780556 0.845116 0.910562
0.780602 0.90741 0.910549
0.780346 0.970193 0.910564
0.843217 0.78236 0.910573
0.843048 0.845019 0.910583
0.842815 0.907543 0.910619
0.84295 0.969912 0.910637
0.905306 0.782204 0.910577
0.905365 0.844945 0.910649
0.905426 0.907246 0.910695
0.905105 0.9701 0.910703
0.967989 0.782307 0.910594
0.967843 0.844721 0.910668
0.967877 0.907676 0.910685
0.967663 0.969682 0.910681
0.780802 0.782732 0.949302
0.780649 0.844683 0.949335
0.780059 0.907986 0.949373
0.78064 0.96968 0.949408
0.842626 0.782005 0.94932
0.842694 0.845204 0.94937
0.843093 0.907132 0.949437
0.842312 0.970697 0.949429
0.905606 0.782712 0.949419
0.905303 0.844624 0.949461
0.90493 0.90781 0.949493
0.905404 0.969441 0.949486
0.967599 0.781953 0.949372
0.967625 0.845184 0.949408
0.967963 0.907074 0.949455
0.967279 0.970465 0.949469
0.967632 0.75091 0.929877
0.999684 0.907592 0.930045
0.99969 0.907566 0.970212
0.811528 0.782094 0.774705
0.811466 0.845219 0.774699
0.811557 0.906994 0.774647
0.811665 0.970206 0.774561
0.874169 0.782467 0.774727
0.874206 0.844816 0.774579
0.874173 0.907461 0.774619
0.874125 0.96988 0.774599
0.936731 0.782133 0.774616
0.936611 0.844795 0.774612
0.936627 0.907352 0.774768
0.936567 0.969825 0.774629
0.842922 0.750919 0.929836
0.999111 0.781959 0.774718
0.999383 0.907179 0.852404
0.78049 0.751037 0.930072
0.81192 0.782464 0.813412
0.811986 0.844783 0.813433
0.812081 0.907243 0.813581
0.812024 0.970095 0.813562
0.874447 0.782502 0.813421
0.874523 0.8445 0.813375
0.874404 0.907306 0.81343
0.874414 0.969922 0.813406
0.936993 0.782332 0.81354
0.936794 0.844945 0.813487
0.936723 0.907209 0.813418
0.9367 0.969792 0.81342
0.99891 0.970013 0.774722
0.999027 0.844789 0.813596
0.999018 0.844827 0.774698
0.812568 0.782492 0.85228
0.812519 0.84496 0.852308
0.812415 0.907521 0.852314
0.812435 0.969795 0.85229
0.874702 0.782298 0.852221
0.87484 0.84483 0.85233
0.87477 0.907299 0.852202
0.874651 0.97019 0.852368
0.936952 0.781887 0.852321
0.936987 0.84491 0.852364
0.936958 0.907431 0.852402
0.936917 0.969877 0.852376
0.999027 0.907122 0.774708
0.998855 0.969981 0.813563
0.998993 0.907634 0.813631
0.812522 0.782416 0.891224
0.812427 0.844962 0.891248
0.81243 0.907503 0.891079
0.812347 0.969923 0.891272
0.87485 0.782245 0.891083
0.874749 0.844755 0.891229
0.874812 0.907605 0.891302
0.874758 0.970133 0.89125
0.9373 0.782504 0.891328
0.937146 0.844931 0.89137
0.937021 0.907513 0.8913
0.937007 0.969793 0.891411
0.999076 0.782137 0.813536
0.999153 0.970095 0.852455
0.999748 0.844766 0.930175
0.812559 0.782236 0.929796
0.812468 0.845017 0.929886
0.812248 0.907501 0.930234
0.812216 0.970043 0.929897
0.874842 0.782355 0.930176
0.874766 0.844991 0.930126
0.874762 0.907464 0.93004
0.874584 0.970145 0.930336
0.937219 0.782269 0.929941
0.937195 0.844807 0.930073
0.9371 0.907428 0.930344
0.937097 0.970187 0.930038
0.90537 0.750948 0.968384
0.843673 0.750976 0.96916
0.999263 0.844902 0.852397
0.999503 0.969696 0.930314
0.81244 0.781877 0.969991
0.812335 0.845186 0.969977
0.812345 0.907266 0.96911
0.812037 0.970241 0.970287
0.874995 0.782655 0.969229
0.874828 0.844405 0.969397
0.874681 0.907581 0.97026
0.87474 0.970093 0.969067
0.937433 0.781839 0.970147
0.937277 0.845262 0.970005
0.937276 0.907142 0.969201
0.937013 0.970067 0.9704
0.780674 0.751029 0.89105
0.967547 0.750931 0.891172
0.905342 0.750947 0.891119
0.842892 0.750986 0.891168
0.968677 0.750954 0.969196
0.780538 0.750936 0.968287
0.905201 0.750993 0.930072
0.999322 0.96958 0.891259
0.999292 0.782304 0.852384
0.999857 0.782066 0.930191
0.999632 0.845128 0.891262
0.999513 0.907419 0.891282
0.999736 0.782353 0.891212
0.999728 0.969767 0.969218
0.999976 0.844524 0.969392
0.750084 0.782753 0.969116
0.750102 0.782152 0.891043
0.750097 0.845054 0.891153
0.750078 0.782239 0.930072
0.750001 0.845239 0.929946
0.0304997 0.0322062 0.00698246
0.0308516 0.0940558 0.00709206
0.0307675 0.157205 0.00699103
0.0311561 0.218865 0.00707574
0.0930731 0.0316811 0.00711722
0.0931 0.0947492 0.00694388
0.0935487 0.156495 0.00703738
0.0933115 0.219686 0.0068401
0.155332 0.0321194 0.00693725
0.155641 0.0939697 0.00709936
0.155567 0.157118 0.00701602
0.155924 0.21881 0.00702653
0.217984 0.0316006 0.00720241
0.217883 0.0947127 0.00702528
0.2183 0.156406 0.00715671
0.218045 0.2196 0.00698523
0.0305618 0.0314481 0.0453911
0.0305383 0.0942262 0.0452408
0.0307694 0.156521 0.0454015
0.0308647 0.219253 0.0452376
0.092803 0.0316828 0.0452479
0.0929821 0.0938888 0.0453539
0.0930536 0.156659 0.0452308
0.093271 0.218938 0.045307
0.155366 0.0314549 0.0452834
0.15536 0.0941546 0.0452737
0.155594 0.156413 0.0453628
0.155615 0.219248 0.045168
0.217818 0.0316838 0.0452692
0.217864 0.0938611 0.0453459
0.217871 0.156677 0.0452361
0.218143 0.21893 0.0453245
0.0304449 0.0315667 0.0835341
0.0306675 0.0938651 0.083635
0.0307143 0.156655 0.0835095
0.0309346 0.218978 0.0835877
0.092977 0.0313254 0.0836037
0.092932 0.0940776 0.083497
0.0932813 0.156488 0.0836387
0.0933568 0.219227 0.0834465
0.155332 0.0316044 0.0834418
0.15551 0.0938928 0.083611
0.155564 0.1566 0.0834329
0.155791 0.218934 0.08356
0.217884 0.0313521 0.0836181
0.217844 0.0941497 0.0834948
0.218116 0.156394 0.0836513
0.218256 0.219191 0.0834211
0.0304813 0.031313 0.121858
0.0306139 0.0940985 0.121748
0.0308012 0.156424 0.121875
0.0309848 0.219093 0.121701
0.0929918 0.0314997 0.121724
0.0931678 0.0938733 0.121872
0.0932931 0.15665 0.121719
0.0933846 0.218978 0.121879
0.155511 0.0313497 0.121805
0.155613 0.0941037 0.121739
0.155751 0.156468 0.121872
0.155846 0.219143 0.121634
0.217919 0.0315482 0.12172
0.217996 0.0939238 0.121864
0.218136 0.156623 0.121702
0.218312 0.218893 0.121835
0.0305834 0.031505 0.15987
0.0306681 0.0938562 0.160063
0.0307977 0.156529 0.159963
0.0309795 0.218873 0.160082
0.093081 0.0312833 0.160086
0.0932197 0.0940063 0.159972
0.0932109 0.156324 0.160137
0.0933313 0.219091 0.159978
0.155488 0.0314802 0.159894
0.155637 0.0938555 0.160127
0.155707 0.156578 0.159973
0.155931 0.218864 0.160039
0.218083 0.0313413 0.160062
0.218086 0.0940561 0.15997
0.218168 0.156383 0.160075
0.218297 0.219134 0.15985
0.0306119 0.0313523 0.198209
0.0306101 0.0939629 0.198145
0.0307722 0.156366 0.198367
0.0308448 0.219113 0.19816
0.0930779 0.0314064 0.198127
0.0931199 0.0938268 0.198317
0.0932256 0.156547 0.198206
0.0933106 0.218898 0.198339
0.155636 0.0312913 0.198291
0.155614 0.0939682 0.198158
0.155736 0.156356 0.198324
0.155878 0.219041 0.198154
0.218128 0.0314177 0.198088
0.218141 0.0937759 0.198328
0.218218 0.15653 0.198175
0.218354 0.218907 0.198257
0.0305213 0.0314456 0.236287
0.0305535 0.0938273 0.236518
0.0306897 0.156513 0.236402
0.0307406 0.218828 0.2365
0.0929578 0.0312581 0.236432
0.0931098 0.0939056 0.236346
0.0932423 0.156338 0.236555
0.0932678 0.219049 0.23632
0.15558 0.0313505 0.236307
0.155593 0.0937854 0.236494
0.155713 0.156433 0.236391
0.155763 0.218775 0.236513
0.218076 0.0312061 0.236408
0.218148 0.0938286 0.236352
0.218232 0.156214 0.236546
0.218243 0.218917 0.236318
0.0303946 0.0311857 0.274634
0.0304757 0.0938579 0.274524
0.0306657 0.156261 0.274704
0.0306547 0.218895 0.274508
0.0928155 0.0312582 0.274452
0.092991 0.0936109 0.274684
0.0931228 0.156376 0.27457
0.0932115 0.218788 0.274673
0.155479 0.0310432 0.274637
0.15547 0.09373 0.274561
0.155641 0.156157 0.274785
0.155731 0.218908 0.274548
0.217896 0.0312332 0.274445
0.218019 0.093547 0.274709
0.21811 0.156186 0.274602
0.218208 0.218622 0.274711
0.0301802 0.0312895 0.312653
0.0302633 0.0935895 0.312869
0.030486 0.156281 0.312707
0.0306008 0.218736 0.312841
0.0928232 0.0311795 0.312803
0.0929668 0.0937275 0.312676
0.0930444 0.156061 0.312875
0.0931214 0.218778 0.312728
0.155254 0.0311866 0.312713
0.155351 0.093583 0.312911
0.155533 0.156318 0.312762
0.155632 0.21866 0.312868
0.217934 0.0310764 0.312855
0.217991 0.0936873 0.312729
0.218019 0.156046 0.312887
0.218101 0.218693 0.312708
0.030138 0.0312493 0.351036
0.0302373 0.0937027 0.35086
0.0302841 0.156054 0.351049
0.0303604 0.218679 0.350799
0.0926441 0.031193 0.350811
0.0927011 0.0935875 0.351031
0.0928869 0.156115 0.350875
0.0929266 0.218603 0.351041
0.155199 0.0310852 0.35107
0.155318 0.0936072 0.350903
0.155366 0.156122 0.35106
0.155504 0.218737 0.350817
0.217839 0.0312318 0.3509
0.217809 0.0935588 0.351077
0.217965 0.156064 0.350853
0.218034 0.218675 0.350967
0.0300562 0.0311008 0.389049
0.0299419 0.0936452 0.38918
0.030171 0.156105 0.389052
0.0301948 0.218607 0.389098
0.0924647 0.0311785 0.389192
0.0925967 0.0935007 0.389018
0.0927356 0.15607 0.389174
0.0928487 0.218545 0.388977
0.155195 0.0312002 0.389062
0.1551 0.0936197 0.389224
0.155269 0.156101 0.389055
0.155417 0.218581 0.38919
0.217635 0.0312196 0.389255
0.217842 0.0936128 0.389068
0.217837 0.156002 0.389122
0.217813 0.21849 0.388956
0.0300714 0.0317571 0.427423
0.0303405 0.0934986 0.427268
0.0300954 0.156625 0.427336
0.0305145 0.218299 0.427163
0.0926648 0.0310654 0.427278
0.0925715 0.0941513 0.427396
0.0929731 0.15595 0.427281
0.0928493 0.219012 0.427341
0.155113 0.0317798 0.427426
0.155457 0.0934793 0.427316
0.155316 0.15649 0.427374
0.155757 0.218208 0.42713
0.217845 0.0311048 0.427313
0.217685 0.0941565 0.427374
0.218137 0.155743 0.42725
0.21779 0.218876 0.427307
0.0340564 0.0323862 0.465835
0.0344011 0.0941446 0.465633
0.0344737 0.157259 0.465794
0.034476 0.218867 0.4655
0.0969099 0.0315355 0.465613
0.0969314 0.0948639 0.465835
0.0970163 0.156589 0.465617
0.0971986 0.219686 0.465763
0.159248 0.0323744 0.465768
0.159411 0.0940663 0.465592
0.159478 0.157237 0.465823
0.159632 0.218893 0.465492
0.221919 0.0315022 0.465638
0.221904 0.0947926 0.465785
0.222078 0.15651 0.465531
0.222108 0.219651 0.465695
0.0969874 0.156877 0.504125
0.159734 0.219193 0.504036
0.0345089 0.219312 0.503973
0.0344718 0.157479 0.503869
0.222036 0.0948945 0.503879
0.159563 0.157303 0.503833
0.222162 0.219888 0.503856
0.0337604 0.031806 0.542377
0.0337997 0.0950064 0.542224
0.0339585 0.156827 0.542317
0.0338876 0.220084 0.542204
0.096366 0.0323405 0.542241
0.0964949 0.094218 0.542366
0.0963766 0.157452 0.542236
0.0965037 0.219228 0.542306
0.159124 0.0317921 0.542349
0.158929 0.0949375 0.542184
0.15907 0.156772 0.542359
0.15893 0.219935 0.542224
0.22137 0.0324464 0.542263
0.221528 0.09433 0.542255
0.221483 0.157371 0.542159
0.221484 0.219262 0.542303
0.0341159 0.0321065 0.580574
0.0343282 0.094696 0.580541
0.0342256 0.157117 0.580441
0.0343772 0.21965 0.580525
0.096652 0.032103 0.580635
0.0965324 0.0945518 0.580563
0.09668 0.157161 0.580567
0.0966616 0.219588 0.580469
0.159101 0.0322139 0.580557
0.159223 0.0945889 0.580598
0.159174 0.157015 0.580424
0.159226 0.219553 0.580544
0.22162 0.0320527 0.580617
0.221542 0.0945979 0.580512
0.221817 0.157062 0.580564
0.221585 0.219403 0.580437
0.0345058 0.0321758 0.619607
0.0344126 0.0946161 0.619484
0.03462 0.157027 0.619486
0.0344851 0.219533 0.619455
0.0968943 0.0321123 0.619598
0.0970038 0.0945675 0.619594
0.0968914 0.157063 0.619493
0.0969936 0.219553 0.61947
0.159448 0.0321366 0.619624
0.159416 0.0945287 0.619504
0.159499 0.156973 0.619475
0.159367 0.219485 0.619474
0.221896 0.03214 0.619571
0.222016 0.0946004 0.619583
0.221873 0.157002 0.619514
0.221915 0.219426 0.619463
0.0345307 0.0321996 0.658409
0.0345751 0.0945918 0.658364
0.0345568 0.157027 0.658305
0.0345809 0.219547 0.658273
0.0969852 0.0321317 0.658413
0.0970845 0.094628 0.658413
0.0970215 0.157128 0.658375
0.0970106 0.219712 0.658336
0.159509 0.0321936 0.658485
0.159577 0.0946719 0.65842
0.159538 0.157153 0.658374
0.159583 0.219564 0.658356
0.222095 0.0322492 0.658494
0.222072 0.0947056 0.658405
0.222039 0.15706 0.658382
0.222033 0.219496 0.658308
0.0345166 0.0321995 0.697235
0.0345922 0.0946546 0.697176
0.0346068 0.157095 0.697073
0.0346317 0.219616 0.69701
0.0971945 0.0322607 0.697209
0.0972029 0.0946675 0.697216
0.097137 0.157197 0.697195
0.0970865 0.219703 0.697069
0.159866 0.0323134 0.697275
0.159831 0.094723 0.697199
0.159767 0.157154 0.697147
0.159722 0.219594 0.697076
0.222401 0.0323203 0.697263
0.2225 0.0947315 0.697264
0.222476 0.157155 0.697186
0.22242 0.21963 0.697095
0.0345136 0.0322709 0.735949
0.0345197 0.094773 0.735944
0.0344228 0.157126 0.735852
0.0345933 0.219644 0.735835
0.097184 0.0323291 0.73595
0.0972252 0.0946997 0.735909
0.097229 0.157279 0.735954
0.097131 0.21975 0.73587
0.159863 0.0324132 0.736045
0.159919 0.0948736 0.735991
0.159796 0.157298 0.735885
0.159891 0.219809 0.735819
0.222683 0.0323713 0.735974
0.22274 0.0947196 0.735962
0.222583 0.157222 0.735856
0.222478 0.219676 0.735811
0.221951 0.0318895 0.504081
0.0343369 0.0943502 0.504063
0.0339291 0.0325953 0.503979
0.159376 0.0325142 0.503867
0.0970128 0.031891 0.504117
0.222052 0.156834 0.504089
0.0969772 0.219839 0.503866
0.159521 0.0943336 0.503984
0.096858 0.0949703 0.503971
0.0343933 0.0324696 0.774728
0.0344916 0.0949094 0.774716
0.0343571 0.157371 0.774649
0.0345582 0.219741 0.774601
0.0970808 0.0324485 0.774868
0.0971482 0.0948475 0.774762
0.0971441 0.157291 0.774711
0.0971963 0.219736 0.774668
0.159879 0.0324881 0.774786
0.159975 0.0948699 0.774754
0.160005 0.157225 0.774672
0.15993 0.219653 0.774627
0.222497 0.0323917 0.774756
0.222681 0.0948321 0.77478
0.222635 0.157232 0.77469
0.222668 0.219673 0.774634
0.0342164 0.032483 0.813464
0.0340822 0.0949331 0.813469
0.0340833 0.157185 0.813408
0.0342095 0.219721 0.813363
0.0971634 0.0325703 0.813609
0.0972195 0.094845 0.81358
0.0973528 0.157212 0.813483
0.0972297 0.219561 0.813339
0.160106 0.0323819 0.813512
0.159986 0.0947792 0.813583
0.160111 0.157279 0.813525
0.160061 0.219674 0.813418
0.222924 0.0323094 0.813547
0.222928 0.094804 0.813575
0.222616 0.157173 0.813488
0.222509 0.219722 0.8135
0.0343201 0.0325297 0.852215
0.0342942 0.0948139 0.852237
0.0343275 0.157186 0.852196
0.0345582 0.219654 0.852103
0.0973877 0.0325632 0.852211
0.0974203 0.0948791 0.852227
0.0972696 0.15718 0.85219
0.0972777 0.219555 0.852111
0.160246 0.0324035 0.852208
0.160338 0.0948563 0.852239
0.160479 0.157403 0.852241
0.160313 0.219666 0.852136
0.2229 0.0322512 0.85222
0.223048 0.0948126 0.852247
0.223031 0.157228 0.852224
0.222879 0.219783 0.852181
0.0344918 0.0323523 0.89096
0.0345387 0.0948267 0.89101
0.0345332 0.157208 0.890985
0.0347572 0.219573 0.890864
0.0974291 0.0324898 0.89088
0.0974098 0.0948578 0.890944
0.0974345 0.157171 0.890949
0.097472 0.219571 0.890861
0.160192 0.0323041 0.89088
0.160239 0.0948088 0.890889
0.160221 0.157224 0.890897
0.160184 0.219701 0.890925
0.222825 0.0322637 0.890964
0.222837 0.0946791 0.890913
0.222686 0.157183 0.890981
0.222829 0.219778 0.890945
0.0346711 0.0323847 0.929756
0.0349333 0.0948245 0.929783
0.0347575 0.157308 0.929845
0.0352199 0.219512 0.929697
0.0975434 0.0324613 0.929611
0.0973874 0.0949499 0.929712
0.0976643 0.15719 0.929709
0.0975938 0.219604 0.929678
0.160061 0.0322837 0.929713
0.160254 0.0947296 0.929719
0.160013 0.157288 0.92975
0.160281 0.21963 0.929705
0.222587 0.0322445 0.929828
0.222564 0.0948993 0.929854
0.222789 0.157202 0.92981
0.22285 0.219794 0.929827
0.0349132 0.0323366 0.968667
0.0348096 0.0947468 0.968782
0.035073 0.157366 0.968684
0.0350407 0.219675 0.968708
0.0972843 0.0323609 0.968661
0.0973078 0.0947906 0.968588
0.0973653 0.157096 0.968689
0.0974999 0.219743 0.968471
0.159885 0.0322627 0.968637
0.159761 0.0946188 0.968773
0.159943 0.157247 0.968654
0.159954 0.219464 0.968694
0.22233 0.0321898 0.968874
0.222402 0.0947994 0.968728
0.222337 0.157107 0.968873
0.222522 0.219796 0.968692
0.0310555 0.28199 0.0069133
0.0355398 0.344569 0.00682667
0.0355508 0.406628 0.00690273
0.0355325 0.469387 0.00698612
0.0937867 0.281422 0.00689427
0.0981032 0.344192 0.00674169
0.0979658 0.406913 0.00707159
0.0981287 0.469065 0.00704051
0.155862 0.281906 0.0069168
0.160483 0.344625 0.00684451
0.160613 0.406685 0.00696911
0.160587 0.469411 0.00710063
0.218573 0.281359 0.00694626
0.22304 0.34411 0.00680559
0.223103 0.406955 0.00710329
0.223222 0.469123 0.00701769
0.0311035 0.281233 0.0452607
0.0313375 0.344063 0.0453113
0.0356378 0.406557 0.0453378
0.03573 0.468877 0.0452597
0.0933156 0.281774 0.0451335
0.0937801 0.343666 0.0449468
0.0981812 0.406517 0.0451904
0.0981906 0.469164 0.045406
0.155915 0.281329 0.0452603
0.156211 0.344143 0.0453084
0.160552 0.406637 0.0453969
0.160779 0.468977 0.0453422
0.218234 0.281653 0.0451232
0.218785 0.343574 0.0449905
0.223198 0.406423 0.0451354
0.223345 0.469108 0.0453584
0.0308812 0.281632 0.0833728
0.0315264 0.343819 0.0832017
0.0355395 0.406466 0.0834154
0.0356388 0.469049 0.0836024
0.0934438 0.281475 0.0835532
0.0936956 0.344108 0.083689
0.0979599 0.406755 0.0837974
0.0983046 0.469001 0.0836127
0.155769 0.281656 0.083314
0.156419 0.343849 0.0831155
0.160588 0.406529 0.0833673
0.160707 0.469171 0.0837102
0.218362 0.281453 0.0834716
0.218664 0.344029 0.08368
0.222994 0.406664 0.0837177
0.223442 0.469028 0.0835751
0.0310521 0.281356 0.12179
0.0313123 0.343942 0.12199
0.0355121 0.40658 0.122035
0.0357318 0.468901 0.121791
0.0934954 0.281666 0.121576
0.0940362 0.343824 0.121415
0.0980392 0.406525 0.121722
0.0982228 0.469114 0.121927
0.155949 0.281405 0.121791
0.156312 0.344057 0.121907
0.160529 0.406693 0.121985
0.16074 0.468973 0.12183
0.218366 0.28159 0.121549
0.218997 0.343868 0.121398
0.223043 0.406488 0.121615
0.223321 0.46917 0.1219
0.0310207 0.281529 0.159745
0.0315365 0.343706 0.159683
0.0354967 0.406407 0.159903
0.0357178 0.469058 0.16015
0.0935543 0.281341 0.160023
0.0938388 0.343966 0.160191
0.0980462 0.406615 0.160281
0.0982181 0.468961 0.16009
0.155955 0.281601 0.159809
0.156567 0.343831 0.15967
0.160471 0.406467 0.159919
0.160718 0.469095 0.160141
0.218507 0.281441 0.160007
0.218835 0.344066 0.160152
0.223062 0.40671 0.160169
0.223224 0.469018 0.160047
0.0309073 0.281396 0.198231
0.0311136 0.343978 0.198387
0.0352982 0.406689 0.198445
0.0355576 0.468972 0.198284
0.0934106 0.281575 0.197996
0.0939305 0.343829 0.197894
0.0978879 0.406437 0.198151
0.098129 0.469131 0.19839
0.155972 0.281366 0.198244
0.156223 0.343937 0.198425
0.160416 0.406634 0.198474
0.160611 0.468984 0.198317
0.218475 0.281558 0.198009
0.219005 0.343809 0.197859
0.222922 0.406494 0.19808
0.223124 0.469133 0.198371
0.0308247 0.281497 0.236217
0.0312569 0.343698 0.236048
0.0351842 0.406404 0.236296
0.0354678 0.469047 0.236544
0.0932342 0.281312 0.236445
0.0935596 0.343885 0.236637
0.0977509 0.406554 0.236673
0.0979263 0.469014 0.236476
0.155906 0.281436 0.236216
0.15641 0.34369 0.236065
0.160308 0.406475 0.236337
0.160484 0.4691 0.236593
0.218367 0.281129 0.236443
0.218698 0.343793 0.236561
0.222846 0.406602 0.236606
0.22301 0.468999 0.236483
0.0306674 0.281213 0.274609
0.0309833 0.343774 0.274806
0.0350732 0.406444 0.274783
0.0352779 0.468862 0.274657
0.0931945 0.281457 0.2744
0.093731 0.343704 0.274324
0.0977129 0.406383 0.274493
0.0978096 0.469112 0.274723
0.155717 0.281219 0.274618
0.156087 0.343783 0.27478
0.160179 0.406512 0.274779
0.160404 0.46899 0.274646
0.218365 0.281396 0.274409
0.218841 0.343605 0.274246
0.222707 0.406362 0.274458
0.222865 0.469146 0.274738
0.0305763 0.281316 0.312511
0.0310521 0.343611 0.312494
0.0350227 0.406336 0.31263
0.035066 0.469033 0.31289
0.0932036 0.281155 0.312763
0.0934085 0.343692 0.312993
0.0974313 0.406405 0.31296
0.0977232 0.468924 0.312806
0.155689 0.28123 0.312577
0.156087 0.343611 0.312418
0.160172 0.406292 0.312661
0.160231 0.46904 0.312896
0.21823 0.28115 0.312777
0.218654 0.343719 0.312971
0.222605 0.406414 0.312903
0.222768 0.468929 0.312798
0.0303875 0.281078 0.350916
0.0307853 0.343657 0.351181
0.0349049 0.406473 0.351083
0.0351367 0.469002 0.3509
0.0930742 0.281181 0.350742
0.0934805 0.343561 0.350604
0.0974023 0.406319 0.350771
0.0975813 0.468967 0.351038
0.155469 0.281076 0.350923
0.155854 0.343681 0.351119
0.160008 0.406412 0.351087
0.16016 0.468893 0.350946
0.218164 0.281181 0.350752
0.218471 0.343577 0.350583
0.222576 0.406301 0.350776
0.222637 0.468983 0.351055
0.0305898 0.280963 0.38892
0.0307384 0.34365 0.388779
0.0350397 0.406337 0.388975
0.0350662 0.469042 0.389206
0.0928811 0.28108 0.388988
0.0933395 0.343384 0.389204
0.0974499 0.406483 0.3892
0.0976989 0.468954 0.389105
0.155652 0.281001 0.38892
0.155658 0.343551 0.388807
0.160103 0.40612 0.388968
0.159997 0.469007 0.389211
0.217878 0.281122 0.389002
0.218234 0.34343 0.389211
0.222379 0.406465 0.389256
0.222612 0.46902 0.389124
0.0302789 0.281524 0.427112
0.035092 0.343945 0.42726
0.0347448 0.406417 0.42732
0.0350921 0.46913 0.427278
0.0934014 0.280775 0.427142
0.0973343 0.343734 0.427293
0.0974998 0.406538 0.427211
0.0973341 0.469074 0.427455
0.15541 0.281413 0.427091
0.159815 0.343924 0.427267
0.159709 0.406383 0.427373
0.160027 0.469073 0.427271
0.21838 0.280714 0.427186
0.222257 0.34368 0.427319
0.222364 0.406507 0.427198
0.222295 0.46903 0.427411
0.0348587 0.28204 0.46559
0.0347308 0.344041 0.465563
0.034923 0.406663 0.46537
0.0347522 0.469095 0.465628
0.0970908 0.281246 0.465434
0.0974203 0.344268 0.465415
0.0972143 0.40653 0.465634
0.0974336 0.46913 0.465488
0.159841 0.282003 0.465565
0.15949 0.343846 0.4656
0.159834 0.406643 0.465369
0.159665 0.469051 0.465651
0.222105 0.281348 0.465547
0.222375 0.344323 0.46547
0.222304 0.406457 0.465591
0.222335 0.469114 0.465448
0.0344875 0.46914 0.503732
0.0973927 0.469646 0.503964
0.0339255 0.281904 0.542257
0.0342037 0.344938 0.542173
0.0342562 0.406869 0.542053
0.034422 0.470007 0.54222
0.0965984 0.282376 0.542195
0.0965747 0.34435 0.542102
0.0968329 0.407386 0.542241
0.096746 0.469398 0.542082
0.159111 0.281897 0.542285
0.159195 0.34496 0.542248
0.15909 0.406836 0.542078
0.15931 0.469933 0.54229
0.221552 0.282422 0.542201
0.221598 0.344368 0.542157
0.221656 0.40753 0.542262
0.22156 0.469536 0.542207
0.0342727 0.282147 0.580487
0.034313 0.344862 0.580386
0.0345593 0.407253 0.580485
0.0344219 0.469797 0.580375
0.09682 0.282122 0.580491
0.0967829 0.344628 0.580428
0.0967564 0.407198 0.580376
0.0969294 0.46972 0.580472
0.159288 0.281934 0.580478
0.159155 0.344559 0.580398
0.159387 0.407135 0.580439
0.159145 0.469747 0.580463
0.221726 0.282028 0.580443
0.22178 0.344582 0.580511
0.221636 0.407229 0.580432
0.221734 0.46972 0.580554
0.0345895 0.282013 0.61944
0.0346842 0.344699 0.619341
0.0347306 0.407191 0.619323
0.0347962 0.469685 0.619355
0.0970288 0.282037 0.619452
0.0969773 0.344477 0.619364
0.0971359 0.407144 0.619383
0.0970455 0.46954 0.619401
0.159352 0.281912 0.619398
0.15938 0.344512 0.619327
0.159402 0.407071 0.619304
0.159368 0.469647 0.619436
0.221927 0.281984 0.619397
0.221992 0.344444 0.619404
0.222032 0.407144 0.619393
0.221754 0.469671 0.619452
0.034724 0.282087 0.658297
0.0347834 0.344645 0.658163
0.0348611 0.407143 0.658218
0.0346361 0.469695 0.65826
0.0970328 0.282096 0.658332
0.0970407 0.344543 0.658271
0.0971467 0.407112 0.658259
0.097098 0.469642 0.658233
0.159574 0.28206 0.65824
0.159509 0.344494 0.658229
0.159488 0.406986 0.6582
0.159538 0.469506 0.658269
0.221965 0.281918 0.658223
0.221954 0.344482 0.658203
0.221875 0.406941 0.658157
0.221997 0.469412 0.658221
0.0346124 0.282145 0.697049
0.0346509 0.344713 0.697011
0.0347821 0.407263 0.697014
0.0344761 0.46975 0.697049
0.097103 0.282191 0.697054
0.0970772 0.344646 0.69707
0.0970893 0.40723 0.697096
0.0970893 0.469726 0.697129
0.159653 0.282059 0.697027
0.159647 0.344563 0.697012
0.159658 0.407138 0.697028
0.159613 0.469495 0.697065
0.222318 0.282072 0.696992
0.222231 0.344609 0.696976
0.22221 0.407092 0.696949
0.222085 0.469551 0.69695
0.0346839 0.282222 0.735848
0.0347855 0.344754 0.735832
0.0346984 0.407233 0.735817
0.0344806 0.469736 0.735868
0.0971296 0.282215 0.735886
0.0972565 0.344632 0.735925
0.0970972 0.407148 0.7359
0.0970875 0.469721 0.735941
0.159922 0.282114 0.735809
0.159785 0.34454 0.735857
0.159578 0.406996 0.73584
0.159557 0.469439 0.735827
0.222409 0.282283 0.735739
0.222419 0.344674 0.735729
0.222305 0.407176 0.735752
0.222121 0.469513 0.735763
0.222107 0.469767 0.503949
0.1597 0.4072 0.503875
0.0348043 0.407158 0.503818
0.159568 0.469209 0.503779
0.0969719 0.406726 0.503717
0.222063 0.406672 0.503754
0.0971946 0.344737 0.503955
0.222175 0.344793 0.503915
0.0346683 0.344227 0.503763
0.15944 0.344222 0.503789
0.0346223 0.282321 0.50396
0.159724 0.282297 0.50387
0.0971148 0.281597 0.503843
0.222128 0.281712 0.503898
0.0345962 0.282168 0.774633
0.034423 0.344746 0.774611
0.0344395 0.407207 0.774667
0.0345225 0.469701 0.77472
0.0971124 0.282157 0.774596
0.0972067 0.344611 0.774685
0.0972277 0.407122 0.774731
0.0972231 0.469532 0.774718
0.159891 0.282099 0.77457
0.159817 0.344669 0.774633
0.15986 0.407067 0.774611
0.159808 0.469554 0.774628
0.222598 0.282196 0.774578
0.222391 0.344572 0.774586
0.222231 0.40702 0.774579
0.22217 0.469496 0.774588
0.0344603 0.282078 0.813385
0.0346217 0.344585 0.813324
0.034798 0.407089 0.813422
0.0347595 0.469633 0.813433
0.0972408 0.28208 0.813357
0.0974772 0.344509 0.81339
0.097625 0.407056 0.813385
0.0975121 0.469637 0.813434
0.160096 0.282042 0.813378
0.160176 0.344612 0.813401
0.160076 0.407086 0.813451
0.160025 0.469586 0.81341
0.222535 0.282162 0.813473
0.222425 0.344761 0.81347
0.222374 0.407234 0.81347
0.222248 0.469532 0.813483
0.0348477 0.282075 0.852078
0.035118 0.344585 0.852065
0.035264 0.407153 0.852154
0.0351474 0.469651 0.852221
0.0974798 0.282047 0.852087
0.0975951 0.344476 0.852105
0.0976045 0.407005 0.852135
0.0976931 0.469651 0.852164
0.160284 0.282093 0.852208
0.160222 0.344504 0.852215
0.16008 0.407046 0.852226
0.160144 0.469548 0.852227
0.222701 0.282238 0.852181
0.222659 0.34475 0.852272
0.222689 0.407067 0.852264
0.222509 0.469635 0.852295
0.0349553 0.282002 0.890778
0.0351725 0.344563 0.890859
0.0354167 0.407039 0.890982
0.0355307 0.469595 0.890999
0.0974904 0.281956 0.8909
0.097875 0.344448 0.890899
0.0979763 0.406985 0.890885
0.0979906 0.469472 0.890983
0.160334 0.282093 0.890925
0.160291 0.344493 0.890981
0.160328 0.407046 0.891023
0.160334 0.469619 0.891084
0.22277 0.282164 0.89094
0.222813 0.34469 0.891002
0.222898 0.407244 0.891027
0.222842 0.469724 0.891069
0.0353198 0.282141 0.929642
0.0354022 0.344524 0.929693
0.0356141 0.407042 0.929779
0.0354619 0.469514 0.929832
0.0977677 0.282016 0.929657
0.0979287 0.344584 0.929645
0.0979277 0.407047 0.929755
0.0981261 0.469516 0.929858
0.16029 0.282139 0.929681
0.160276 0.34461 0.929742
0.160501 0.407191 0.929856
0.160527 0.469624 0.929867
0.222954 0.282152 0.9298
0.22309 0.344715 0.9298
0.223045 0.407144 0.929844
0.223198 0.469681 0.929915
0.0354419 0.282232 0.968432
0.0355757 0.344698 0.968551
0.0354861 0.406915 0.968778
0.0356809 0.469567 0.968697
0.0977388 0.282055 0.968575
0.0979443 0.344515 0.968623
0.0981773 0.407153 0.96871
0.0979824 0.469413 0.968857
0.160268 0.282123 0.968495
0.160408 0.344679 0.968546
0.160447 0.407024 0.968872
0.160656 0.469674 0.968813
0.222778 0.282103 0.968694
0.222918 0.344569 0.968742
0.223157 0.407215 0.968798
0.223113 0.469538 0.96885
0.0355365 0.531497 0.00689175
0.0353323 0.594241 0.0069895
0.0354067 0.656548 0.00693553
0.0351368 0.719322 0.00717369
0.0979713 0.531765 0.00705053
0.097966 0.594019 0.00694326
0.0978028 0.656766 0.00705879
0.0978547 0.719085 0.00701497
0.160617 0.53161 0.00697343
0.160481 0.594325 0.00705224
0.160451 0.656465 0.00693942
0.16022 0.719311 0.00712441
0.22315 0.53182 0.0070717
0.223142 0.594048 0.00694823
0.223021 0.656676 0.00711812
0.222988 0.718981 0.00699677
0.0355609 0.531543 0.0453667
0.0356012 0.593829 0.0451623
0.0354352 0.656474 0.0453212
0.0354427 0.71878 0.0452407
0.0980819 0.531423 0.0452041
0.0980092 0.59404 0.0453241
0.0980367 0.65636 0.0451833
0.0978313 0.718966 0.0454194
0.160619 0.531583 0.0453517
0.160695 0.593808 0.0451744
0.160484 0.656492 0.0453074
0.160483 0.71885 0.0452263
0.223403 0.531306 0.045187
0.223203 0.594031 0.0452702
0.223067 0.656324 0.0452187
0.222834 0.719028 0.0453745
0.0355858 0.531424 0.0835029
0.0354803 0.59398 0.0835699
0.035473 0.656204 0.0834328
0.03535 0.719009 0.0836989
0.09807 0.531605 0.0836305
0.0981184 0.593892 0.083431
0.0979246 0.656515 0.083615
0.097864 0.718748 0.0834984
0.160681 0.531467 0.0834605
0.160613 0.594059 0.0835934
0.160539 0.656327 0.0834386
0.160311 0.719052 0.0836811
0.223236 0.531557 0.0835926
0.223233 0.593882 0.0833811
0.222965 0.656586 0.0835979
0.222924 0.718809 0.0834994
0.0356126 0.531566 0.121917
0.0355287 0.593849 0.121727
0.0354769 0.656567 0.121821
0.0353633 0.7189 0.121767
0.098137 0.531408 0.12176
0.0980399 0.594083 0.121857
0.0979832 0.656361 0.121735
0.0978362 0.719124 0.121913
0.160675 0.531672 0.121871
0.160549 0.593993 0.12168
0.160485 0.656568 0.121899
0.160332 0.718868 0.121774
0.223144 0.531487 0.121705
0.223086 0.594147 0.121814
0.222912 0.656465 0.121711
0.222833 0.719108 0.121945
0.0355831 0.531398 0.160029
0.0354977 0.594108 0.160121
0.0354027 0.656422 0.159918
0.0353166 0.719095 0.160164
0.0980574 0.531571 0.16014
0.09805 0.593926 0.159903
0.0978346 0.656643 0.160151
0.0977416 0.719 0.159991
0.160626 0.531456 0.159979
0.160498 0.594184 0.160098
0.160455 0.656473 0.159965
0.160273 0.719139 0.160161
0.223106 0.531716 0.16008
0.223002 0.594013 0.15991
0.22289 0.656619 0.160147
0.222731 0.71896 0.160013
0.0354017 0.531647 0.198358
0.0353578 0.593934 0.198205
0.0353318 0.656614 0.198359
0.0351214 0.718961 0.198205
0.0980257 0.531454 0.198234
0.0979536 0.594139 0.198322
0.0977641 0.656469 0.198225
0.0976718 0.719124 0.198418
0.16048 0.531606 0.198354
0.160416 0.593952 0.198202
0.160293 0.656648 0.19831
0.160144 0.718925 0.19824
0.223049 0.531435 0.198177
0.222954 0.59412 0.198297
0.222806 0.656431 0.19818
0.22275 0.719063 0.198377
0.0353376 0.531381 0.236386
0.0352296 0.594047 0.236547
0.0351292 0.656422 0.236422
0.0350988 0.719048 0.236572
0.0978322 0.531632 0.236582
0.0977506 0.593942 0.236394
0.0977065 0.6566 0.236605
0.0976029 0.718896 0.236468
0.160467 0.531491 0.236421
0.160294 0.59417 0.23656
0.160234 0.656494 0.236436
0.160078 0.719092 0.236639
0.222895 0.531609 0.236578
0.222875 0.594021 0.236364
0.222761 0.656647 0.236553
0.222668 0.718911 0.236419
0.0352296 0.531562 0.274741
0.0351679 0.593905 0.274596
0.0350605 0.656548 0.274772
0.0350072 0.718913 0.274637
0.0976711 0.531429 0.274583
0.0976647 0.594203 0.274692
0.0975794 0.656532 0.274664
0.0974746 0.719071 0.274848
0.160261 0.531653 0.274786
0.160221 0.593977 0.274629
0.160153 0.65662 0.274836
0.160059 0.718962 0.274633
0.222761 0.531483 0.274636
0.222746 0.594129 0.274752
0.222611 0.656503 0.274617
0.222496 0.71909 0.274792
0.0351605 0.531497 0.31282
0.0351325 0.594074 0.312977
0.0350471 0.656435 0.312843
0.0348852 0.719081 0.312981
0.0976297 0.531597 0.312867
0.0976689 0.594008 0.312773
0.0974852 0.656605 0.313047
0.0974883 0.718915 0.312892
0.160263 0.53153 0.312825
0.160178 0.594075 0.312978
0.160085 0.656519 0.312832
0.159948 0.719114 0.312976
0.222695 0.531633 0.312975
0.222724 0.594043 0.312815
0.222592 0.656645 0.312989
0.222548 0.719017 0.312849
0.0351115 0.531652 0.35104
0.0350086 0.594045 0.351011
0.0349083 0.656612 0.35122
0.0348736 0.718993 0.351092
0.0976402 0.53151 0.350926
0.0976107 0.594195 0.351176
0.0975423 0.656602 0.351045
0.097411 0.719159 0.351213
0.160183 0.531687 0.351116
0.160125 0.594029 0.351006
0.159969 0.656629 0.351192
0.159991 0.71907 0.351027
0.222688 0.531521 0.350967
0.222656 0.594258 0.351166
0.222631 0.65656 0.351028
0.222418 0.719185 0.351225
0.0351669 0.531522 0.389041
0.0350318 0.594281 0.389371
0.0349045 0.656589 0.389263
0.0347713 0.719244 0.389455
0.0975803 0.531624 0.389263
0.0976768 0.594107 0.389172
0.0974042 0.656784 0.38937
0.0973464 0.719174 0.389222
0.16009 0.531571 0.389154
0.159949 0.594227 0.389346
0.160005 0.65659 0.389214
0.159956 0.719283 0.389409
0.222505 0.531675 0.389327
0.222528 0.594121 0.389196
0.222394 0.656768 0.389417
0.222329 0.719108 0.38927
0.035016 0.531823 0.427478
0.0349613 0.594219 0.427316
0.0347734 0.656909 0.427611
0.0346627 0.719268 0.427459
0.0975329 0.531603 0.427324
0.0975005 0.594272 0.427553
0.0972885 0.656747 0.427379
0.0973006 0.719446 0.427653
0.159842 0.531727 0.427479
0.159845 0.594238 0.427396
0.1598 0.656892 0.427628
0.15971 0.719276 0.427486
0.222421 0.531621 0.427392
0.222298 0.594305 0.427585
0.222259 0.656712 0.42744
0.22227 0.719445 0.427717
0.03521 0.531629 0.465465
0.0350172 0.594359 0.465711
0.034835 0.656745 0.46565
0.0347947 0.719468 0.465871
0.0973699 0.531733 0.465715
0.0973757 0.59426 0.465637
0.0971807 0.656931 0.465836
0.0971998 0.719424 0.465753
0.159824 0.531689 0.465549
0.1598 0.594402 0.465783
0.15961 0.656903 0.46568
0.15964 0.719521 0.465883
0.222253 0.531757 0.465728
0.222187 0.594289 0.465668
0.222198 0.656926 0.465843
0.221988 0.719456 0.46581
0.0347279 0.594317 0.503946
0.0349298 0.531977 0.504036
0.0340248 0.531865 0.542207
0.0340868 0.59501 0.542375
0.0339933 0.656946 0.54231
0.0339898 0.720073 0.54249
0.0969968 0.532552 0.542293
0.0965783 0.594396 0.542309
0.0966337 0.657573 0.542469
0.0964838 0.719478 0.542357
0.159073 0.531974 0.542143
0.159284 0.595009 0.542371
0.158984 0.656976 0.542261
0.159098 0.719993 0.542542
0.22159 0.532628 0.54232
0.221431 0.594473 0.542221
0.221553 0.657586 0.542405
0.22137 0.719622 0.542426
0.034345 0.532214 0.580531
0.0341233 0.594663 0.580541
0.034332 0.657266 0.580596
0.0341296 0.719714 0.580671
0.0968332 0.532219 0.580475
0.0969255 0.594842 0.580598
0.0967443 0.657284 0.580623
0.0967548 0.719793 0.580754
0.159296 0.532304 0.580578
0.159212 0.59482 0.580581
0.159249 0.657335 0.580664
0.159028 0.719835 0.58074
0.221526 0.532314 0.580492
0.22164 0.594862 0.58061
0.221438 0.657448 0.580603
0.221657 0.719911 0.580844
0.0345495 0.532127 0.619408
0.0344118 0.594646 0.619414
0.0343434 0.657184 0.619517
0.0344855 0.719684 0.619647
0.0970829 0.532218 0.619489
0.0969524 0.594706 0.619571
0.0970579 0.657232 0.619632
0.0968979 0.719668 0.619709
0.159184 0.532197 0.619478
0.159387 0.59476 0.619594
0.159348 0.657219 0.61965
0.159376 0.719803 0.619772
0.221807 0.532217 0.61952
0.221636 0.594717 0.619582
0.221855 0.657357 0.61969
0.221792 0.719806 0.619727
0.0345444 0.532186 0.658269
0.0344393 0.594686 0.658259
0.0345769 0.657193 0.658291
0.0346247 0.719698 0.658485
0.0970786 0.532157 0.658289
0.0971006 0.594622 0.658411
0.0969914 0.657199 0.658464
0.0970204 0.71977 0.658561
0.15945 0.532014 0.658355
0.159487 0.594627 0.658392
0.159376 0.657209 0.658464
0.159427 0.719833 0.65856
0.221879 0.532009 0.658321
0.221801 0.594663 0.65834
0.221782 0.657272 0.658436
0.221868 0.71979 0.658538
0.0343609 0.532035 0.697101
0.034491 0.59463 0.697157
0.0344828 0.657108 0.69718
0.0346358 0.719639 0.697302
0.0970797 0.532063 0.697106
0.0969403 0.594461 0.697195
0.0968029 0.65712 0.697321
0.0970244 0.719621 0.69735
0.159408 0.532066 0.697137
0.159465 0.594633 0.697183
0.159431 0.657238 0.697153
0.159426 0.719806 0.697309
0.221885 0.532144 0.69698
0.2219 0.594805 0.697104
0.221945 0.657247 0.697203
0.221994 0.719781 0.697222
0.0343687 0.532031 0.735899
0.0343806 0.59459 0.735937
0.0344541 0.657114 0.736015
0.0345447 0.719746 0.736134
0.0970569 0.532033 0.735896
0.0970482 0.594561 0.735893
0.097073 0.656999 0.735987
0.0970074 0.719618 0.736036
0.159575 0.532 0.735921
0.159505 0.594503 0.735908
0.159479 0.657176 0.735937
0.159491 0.719789 0.736089
0.221948 0.532038 0.735787
0.221856 0.594594 0.735852
0.221866 0.657219 0.735911
0.221995 0.719705 0.735972
0.22207 0.594862 0.503992
0.159628 0.532192 0.504001
0.159326 0.719354 0.504077
0.159526 0.657341 0.504139
0.0347508 0.657218 0.504117
0.034552 0.719349 0.504018
0.0971891 0.531714 0.503783
0.22202 0.531778 0.503796
0.0971574 0.59464 0.504109
0.159529 0.594275 0.503961
0.221913 0.71988 0.504232
0.221986 0.656891 0.503912
0.0970018 0.656793 0.503952
0.097126 0.71972 0.504148
0.0343801 0.531953 0.774753
0.0343612 0.594502 0.774671
0.0344172 0.657179 0.774735
0.034377 0.719796 0.774859
0.0972439 0.532041 0.774724
0.0971266 0.594466 0.774674
0.0970591 0.657151 0.774776
0.096966 0.719753 0.77481
0.159697 0.532031 0.774675
0.159576 0.594553 0.774673
0.159563 0.657145 0.774692
0.159552 0.719823 0.774811
0.221887 0.532117 0.774601
0.221818 0.594634 0.774597
0.221877 0.657304 0.774639
0.221998 0.720038 0.774728
0.0347536 0.532115 0.813445
0.0347966 0.594678 0.813429
0.0346943 0.657212 0.813436
0.0345233 0.71995 0.813524
0.0974422 0.53216 0.813445
0.0973628 0.594791 0.813423
0.0973818 0.657278 0.813464
0.0972734 0.719886 0.813519
0.16 0.532092 0.813452
0.159847 0.594657 0.813437
0.159772 0.657313 0.813417
0.159779 0.719919 0.813516
0.222033 0.532076 0.813453
0.222061 0.594732 0.813396
0.22209 0.657274 0.813373
0.22211 0.719752 0.813498
0.0349702 0.532302 0.852185
0.0351851 0.594726 0.852243
0.0352019 0.657278 0.852225
0.0348376 0.719777 0.852272
0.0976633 0.53207 0.852193
0.0974837 0.594666 0.852185
0.097448 0.657259 0.852185
0.0974795 0.719852 0.85221
0.16011 0.532147 0.852227
0.160009 0.594686 0.852229
0.159982 0.657298 0.85219
0.159967 0.719848 0.85227
0.222311 0.532202 0.852288
0.22232 0.594855 0.85214
0.222295 0.657438 0.852148
0.222444 0.719831 0.852298
0.0355611 0.532032 0.891014
0.035641 0.594713 0.890996
0.0354571 0.657265 0.891024
0.035184 0.719771 0.891054
0.0980075 0.532019 0.890986
0.0980962 0.594641 0.890992
0.0980381 0.65724 0.890994
0.0977734 0.719783 0.891049
0.160227 0.532213 0.891029
0.16028 0.594662 0.890999
0.16028 0.657217 0.891041
0.160225 0.719769 0.891059
0.222751 0.532139 0.891073
0.222631 0.594691 0.891016
0.222527 0.657136 0.891043
0.222561 0.71961 0.891168
0.0356251 0.532096 0.92974
0.0355552 0.594675 0.929733
0.0354989 0.657184 0.929805
0.0353842 0.719716 0.929901
0.0980937 0.531978 0.929848
0.0980369 0.594637 0.929869
0.0979199 0.657152 0.929843
0.0979596 0.719666 0.929913
0.160584 0.53214 0.929864
0.160422 0.594574 0.929863
0.160399 0.657131 0.929876
0.160217 0.719597 0.929962
0.22294 0.532176 0.929922
0.222923 0.594679 0.929893
0.222879 0.657148 0.92993
0.223128 0.719626 0.929929
0.0352713 0.531896 0.968674
0.0354511 0.594561 0.968626
0.0353345 0.656908 0.968822
0.0354227 0.719646 0.968835
0.098116 0.532104 0.968761
0.0979351 0.594412 0.968843
0.0980949 0.65708 0.968787
0.0977933 0.719471 0.968953
0.160465 0.531913 0.968854
0.160616 0.594528 0.968767
0.160288 0.656945 0.968852
0.160485 0.719682 0.968777
0.223284 0.532163 0.968822
0.223049 0.594386 0.968836
0.223142 0.657073 0.968843
0.2229 0.719383 0.96893
0.0352329 0.781548 0.00703048
0.0351051 0.844384 0.00701091
0.0347363 0.906514 0.0069952
0.0349053 0.969463 0.00678018
0.0975788 0.78186 0.00723689
0.0973715 0.844025 0.00723062
0.097421 0.90696 0.00685253
0.0971172 0.969084 0.00691915
0.160213 0.781618 0.00710176
0.160042 0.844419 0.00707588
0.159673 0.906533 0.00703935
0.159733 0.969386 0.00671498
0.222558 0.781804 0.00720731
0.222486 0.843982 0.00718861
0.222482 0.906832 0.0068597
0.222148 0.968995 0.00699993
0.0351796 0.781538 0.04548
0.0348291 0.843709 0.0454921
0.0348827 0.906509 0.0450109
0.0302895 0.969222 0.0452059
0.0978548 0.781254 0.0453431
0.0975947 0.843927 0.0452773
0.0972732 0.906158 0.0453063
0.0928215 0.968826 0.0452715
0.160156 0.781583 0.0455387
0.15977 0.843783 0.0454721
0.159915 0.906633 0.0450188
0.155189 0.969303 0.0450963
0.22281 0.781281 0.0453161
0.222583 0.844008 0.0452917
0.222267 0.906181 0.0452836
0.217942 0.968842 0.0452152
0.0353148 0.781237 0.0835957
0.0349678 0.843927 0.083491
0.0304367 0.9067 0.0834561
0.0304852 0.968868 0.0835855
0.0977816 0.781539 0.0838721
0.0972476 0.843755 0.0838019
0.0930731 0.906318 0.0836075
0.0928619 0.96904 0.0834288
0.160252 0.781258 0.0836215
0.159999 0.844 0.0834477
0.155444 0.906692 0.0834221
0.155408 0.968833 0.0834946
0.222783 0.781536 0.0838152
0.222315 0.843688 0.0838175
0.218144 0.906284 0.0835646
0.217807 0.96908 0.0834059
0.0352061 0.781509 0.122089
0.0345611 0.843831 0.12213
0.0305861 0.906395 0.121957
0.030373 0.969008 0.121685
0.0977514 0.781343 0.121856
0.0973756 0.843875 0.121706
0.0930096 0.906537 0.121626
0.0928784 0.9688 0.121779
0.160257 0.781491 0.122111
0.159641 0.843703 0.122116
0.155636 0.90629 0.121895
0.155416 0.968942 0.121651
0.222753 0.781284 0.121833
0.222388 0.843778 0.121702
0.21807 0.906467 0.121604
0.217874 0.968783 0.12176
0.0352209 0.781382 0.160047
0.034904 0.8439 0.159897
0.0306515 0.90652 0.159821
0.0304424 0.968843 0.159971
0.0976915 0.781582 0.160376
0.0971255 0.843807 0.160431
0.0932095 0.906379 0.160155
0.0929287 0.968949 0.159915
0.160209 0.781438 0.160092
0.159901 0.843958 0.159913
0.155723 0.906508 0.15983
0.155445 0.968835 0.159986
0.222646 0.781507 0.160312
0.222134 0.843751 0.16045
0.218207 0.906343 0.160159
0.217946 0.96895 0.159877
0.0350835 0.781552 0.198513
0.0345918 0.843766 0.198645
0.0306643 0.906325 0.198325
0.0305161 0.968955 0.198071
0.0976249 0.78137 0.198333
0.0973651 0.843915 0.198108
0.0932434 0.906533 0.198053
0.0929755 0.968816 0.198221
0.160139 0.781473 0.198585
0.159636 0.843731 0.198662
0.155699 0.906312 0.198368
0.155484 0.968934 0.198129
0.222744 0.78133 0.198255
0.222427 0.843887 0.198163
0.21829 0.906524 0.198052
0.217984 0.968838 0.198164
0.0350205 0.781373 0.236445
0.0347817 0.843897 0.236295
0.0306226 0.906474 0.236225
0.0303914 0.968825 0.236355
0.0975829 0.781472 0.236761
0.0970697 0.843656 0.236886
0.0931316 0.906306 0.236603
0.0928445 0.968889 0.2363
0.16012 0.781319 0.236464
0.159825 0.843788 0.236339
0.155679 0.90645 0.236263
0.155501 0.968673 0.236419
0.222683 0.781538 0.236723
0.22223 0.843701 0.236839
0.21826 0.906274 0.236585
0.218034 0.96882 0.236239
0.0348664 0.781478 0.27493
0.034382 0.843621 0.275032
0.0304681 0.906226 0.274795
0.0302275 0.968903 0.274502
0.0974822 0.781296 0.274676
0.0972759 0.843808 0.274553
0.0930607 0.906495 0.274456
0.0927767 0.968648 0.274614
0.160043 0.781504 0.274906
0.159495 0.84373 0.27508
0.155685 0.906168 0.274822
0.155347 0.96878 0.274507
0.222691 0.781337 0.274632
0.222431 0.843894 0.274492
0.218243 0.906467 0.274444
0.217964 0.968615 0.274642
0.0347896 0.781304 0.312855
0.0345135 0.843756 0.312701
0.0302004 0.906403 0.312666
0.0301602 0.968707 0.312785
0.0974014 0.781503 0.313124
0.0968838 0.843763 0.313294
0.092901 0.906243 0.312991
0.0926719 0.968769 0.312712
0.160046 0.781391 0.312813
0.159782 0.843848 0.312744
0.155405 0.906428 0.312734
0.155302 0.96864 0.312862
0.222574 0.781507 0.31315
0.222029 0.843684 0.313262
0.218264 0.90624 0.313054
0.217906 0.968807 0.312709
0.0346951 0.781456 0.351325
0.034232 0.843703 0.351507
0.0302667 0.906203 0.351195
0.0300191 0.968818 0.350832
0.0973917 0.781411 0.351016
0.0970856 0.843904 0.350933
0.0925946 0.906381 0.350817
0.0925161 0.968722 0.351034
0.159904 0.781554 0.351335
0.1595 0.843808 0.351518
0.155446 0.906278 0.351273
0.155187 0.968835 0.350947
0.222523 0.781429 0.351083
0.222282 0.843854 0.350899
0.217973 0.9064 0.350861
0.217822 0.96879 0.351021
0.034661 0.781503 0.389252
0.0346554 0.843905 0.389163
0.0301664 0.906346 0.389092
0.0300922 0.968723 0.38917
0.0974102 0.781598 0.389495
0.0968928 0.843892 0.389683
0.0926237 0.906473 0.389368
0.09252 0.968811 0.389046
0.159873 0.781507 0.389295
0.15981 0.843988 0.389196
0.15517 0.906359 0.389138
0.155131 0.968825 0.389203
0.222505 0.781654 0.389611
0.221968 0.843923 0.389663
0.217798 0.906531 0.389393
0.217659 0.968789 0.389036
0.0347901 0.781716 0.427801
0.0344356 0.844067 0.42788
0.0344185 0.906425 0.427401
0.0300508 0.968897 0.427176
0.0971697 0.781637 0.427417
0.0971251 0.844025 0.427394
0.0967504 0.906549 0.42772
0.0925059 0.96921 0.427508
0.159808 0.78186 0.42783
0.159448 0.844235 0.427857
0.159497 0.906511 0.427459
0.155137 0.968912 0.42719
0.222227 0.781781 0.427602
0.22215 0.8442 0.42746
0.221768 0.906567 0.42777
0.217699 0.969211 0.427487
0.0347179 0.782038 0.465789
0.0346245 0.844455 0.46572
0.0342617 0.907096 0.465888
0.0342894 0.969355 0.46562
0.0972158 0.782054 0.466046
0.0969446 0.844612 0.465973
0.0967649 0.906985 0.465665
0.0966755 0.969674 0.465844
0.159522 0.782157 0.465759
0.159499 0.844573 0.465753
0.159162 0.907204 0.465963
0.15949 0.969323 0.465669
0.221987 0.782068 0.466198
0.221929 0.844673 0.466059
0.22183 0.906988 0.465689
0.221771 0.969762 0.465845
0.159175 0.907469 0.503998
0.0967017 0.970089 0.50392
0.0968351 0.781855 0.504078
0.159512 0.969405 0.504074
0.0338341 0.781838 0.542367
0.033772 0.845076 0.542408
0.0337856 0.906905 0.542486
0.0336409 0.970016 0.542303
0.0964676 0.782586 0.542594
0.0964427 0.844514 0.542549
0.0962174 0.907654 0.542388
0.0965406 0.969364 0.542367
0.158964 0.782107 0.542436
0.158882 0.844994 0.542414
0.158927 0.90692 0.542435
0.158911 0.969894 0.542261
0.221539 0.782631 0.542572
0.221471 0.844577 0.542588
0.221417 0.90753 0.542389
0.221586 0.969256 0.542414
0.0343778 0.782202 0.580818
0.0341864 0.844709 0.580825
0.0340403 0.907204 0.580672
0.0341829 0.969704 0.580628
0.0964583 0.78223 0.580729
0.0966041 0.844808 0.580653
0.0966351 0.907175 0.580739
0.0965904 0.969594 0.580589
0.159255 0.782356 0.580835
0.159135 0.84485 0.580753
0.159056 0.907274 0.580613
0.15925 0.969717 0.580656
0.221575 0.78229 0.580808
0.2216 0.844914 0.580724
0.221754 0.907227 0.580743
0.22147 0.969645 0.580553
0.0344351 0.782228 0.619758
0.0343642 0.844804 0.619768
0.0344903 0.90729 0.61973
0.0343704 0.969749 0.619568
0.0970079 0.782277 0.619763
0.096946 0.844809 0.619722
0.0968977 0.907287 0.619638
0.0970371 0.969678 0.61962
0.159334 0.782327 0.619786
0.159304 0.84485 0.61975
0.159472 0.907281 0.619673
0.159453 0.969801 0.619617
0.221782 0.782314 0.619754
0.221944 0.844742 0.619742
0.221914 0.907224 0.619688
0.221958 0.969627 0.619612
0.0345482 0.782244 0.658591
0.0345901 0.844786 0.658544
0.0344576 0.907278 0.658469
0.0345451 0.969765 0.658429
0.0969975 0.782273 0.658573
0.0969834 0.844803 0.658542
0.0970598 0.907286 0.658515
0.0970324 0.969682 0.658519
0.159563 0.782374 0.658588
0.159647 0.844811 0.658594
0.159735 0.907272 0.658512
0.159621 0.969771 0.658499
0.22199 0.782325 0.658548
0.22204 0.844869 0.658528
0.222181 0.907298 0.658528
0.222094 0.969746 0.658452
0.0346244 0.782249 0.697379
0.0345491 0.844802 0.69724
0.0344128 0.907394 0.697269
0.034389 0.969902 0.697245
0.0970156 0.782253 0.697392
0.0970192 0.844852 0.697402
0.097014 0.907418 0.697298
0.0970556 0.96979 0.697299
0.159464 0.782363 0.697335
0.159559 0.844976 0.697313
0.159545 0.907526 0.697255
0.159622 0.969899 0.697267
0.222047 0.782302 0.697243
0.22209 0.844843 0.697333
0.22228 0.907387 0.697321
0.222356 0.969887 0.697237
0.0345025 0.782322 0.736181
0.0344019 0.844831 0.736086
0.0343716 0.90739 0.736025
0.0343759 0.969905 0.735971
0.0969012 0.782351 0.736104
0.0968927 0.844944 0.736114
0.0970089 0.907561 0.736001
0.097083 0.969925 0.735987
0.15949 0.782366 0.736068
0.159551 0.844954 0.73608
0.159662 0.907479 0.736017
0.159695 0.969972 0.735967
0.222062 0.782314 0.736012
0.222137 0.844892 0.736064
0.222344 0.907483 0.736058
0.222523 0.96997 0.735957
0.159313 0.844456 0.504279
0.221814 0.781901 0.50403
0.159506 0.782404 0.504343
0.221789 0.844916 0.504023
0.0344128 0.844406 0.504256
0.0345944 0.782347 0.504249
0.0968026 0.844865 0.504032
0.2218 0.906845 0.504237
0.0967153 0.906974 0.504215
0.0341427 0.907499 0.504004
0.221822 0.970036 0.503967
0.0340789 0.969429 0.50415
0.0344121 0.782245 0.77487
0.0343625 0.844836 0.774814
0.0343752 0.907358 0.774802
0.0342107 0.969996 0.774762
0.0970719 0.782429 0.77484
0.0970656 0.844937 0.774808
0.0969288 0.907564 0.77476
0.0970393 0.970085 0.774782
0.159481 0.782502 0.774831
0.159624 0.845045 0.774807
0.1597 0.907441 0.774786
0.159761 0.969968 0.774698
0.222046 0.782435 0.774742
0.222054 0.844918 0.774792
0.222269 0.90735 0.774834
0.222376 0.969772 0.774778
0.0343044 0.782508 0.813584
0.0342231 0.845012 0.81358
0.0342918 0.907482 0.813581
0.034252 0.97001 0.813527
0.0971369 0.782386 0.813562
0.0971398 0.844931 0.813573
0.0971297 0.907538 0.813541
0.0972181 0.970117 0.813539
0.159761 0.782391 0.813589
0.159783 0.844977 0.813573
0.159837 0.907508 0.813552
0.15999 0.970008 0.813531
0.222128 0.782388 0.813557
0.222184 0.844962 0.81362
0.222383 0.907454 0.813637
0.222653 0.969996 0.813548
0.0345311 0.782204 0.852343
0.0346702 0.844661 0.852361
0.034685 0.907505 0.852358
0.0343944 0.970179 0.852298
0.0972386 0.782262 0.852272
0.0971621 0.844823 0.852291
0.0972409 0.907487 0.85222
0.09729 0.970101 0.852142
0.159924 0.78238 0.852328
0.159978 0.844814 0.852313
0.160056 0.907325 0.852288
0.160171 0.969865 0.852304
0.22257 0.782188 0.852342
0.222636 0.844613 0.852351
0.222739 0.907235 0.852354
0.22268 0.969798 0.852241
0.0349906 0.782249 0.891111
0.0349746 0.844926 0.891104
0.0350037 0.90747 0.891092
0.034742 0.97002 0.891031
0.0976638 0.78223 0.891052
0.0975856 0.84485 0.891038
0.0974723 0.907499 0.890958
0.0975547 0.970015 0.890875
0.160101 0.782277 0.89115
0.160092 0.844761 0.891061
0.16012 0.907386 0.891002
0.160075 0.969978 0.891034
0.222615 0.782276 0.891178
0.222613 0.84479 0.891133
0.222724 0.90724 0.891061
0.222786 0.969764 0.891025
0.0354197 0.7823 0.929976
0.035257 0.844772 0.929952
0.0350906 0.907322 0.929864
0.0349405 0.969844 0.929827
0.0978523 0.782173 0.929991
0.0976843 0.84485 0.929864
0.0975283 0.907402 0.92978
0.0974316 0.97004 0.929707
0.160239 0.782228 0.929979
0.160191 0.844769 0.929924
0.160112 0.907331 0.92982
0.160081 0.969757 0.929772
0.222947 0.782103 0.930003
0.222831 0.844664 0.929984
0.222804 0.907198 0.929898
0.222479 0.969756 0.929895
0.03524 0.781995 0.968983
0.0352647 0.844787 0.968968
0.0352992 0.907167 0.968741
0.0348481 0.969926 0.968761
0.0978174 0.782231 0.968931
0.0975795 0.844488 0.968897
0.0974405 0.907493 0.968799
0.0974181 0.969919 0.96856
0.160261 0.781946 0.968979
0.160083 0.844722 0.968943
0.160074 0.907011 0.968733
0.15973 0.969823 0.968695
0.22288 0.782193 0.96889
0.222659 0.844517 0.968913
0.222545 0.907261 0.968891
0.222488 0.969576 0.968739
0.280429 0.0320703 0.00695343
0.28066 0.0939048 0.0071374
0.280556 0.157126 0.00700754
0.280968 0.218857 0.0070343
0.343054 0.0316184 0.00724038
0.342929 0.094775 0.00705907
0.343289 0.156398 0.00712381
0.343103 0.219614 0.00697018
0.405289 0.0321273 0.00708429
0.405636 0.0939784 0.00715503
0.405437 0.157144 0.00700112
0.405839 0.218804 0.0070604
0.468055 0.031689 0.00724075
0.467918 0.0947496 0.00708865
0.468222 0.156441 0.00712915
0.467981 0.219605 0.00693753
0.280396 0.0313908 0.0453052
0.280196 0.0941748 0.0452597
0.280415 0.156501 0.0453816
0.280517 0.219251 0.04513
0.342825 0.0316823 0.0453465
0.342785 0.0939305 0.0453691
0.342799 0.156627 0.0452213
0.343055 0.218876 0.0452948
0.405415 0.0314172 0.045442
0.405138 0.094156 0.0452775
0.40536 0.156364 0.0453237
0.405393 0.219125 0.0451762
0.467802 0.0318823 0.0453057
0.467896 0.0939779 0.045335
0.467931 0.156611 0.0452139
0.468148 0.218801 0.0453023
0.280235 0.0315231 0.0834451
0.280456 0.0938752 0.0836445
0.280501 0.156624 0.0834658
0.28064 0.218873 0.0835421
0.342875 0.0313222 0.0836429
0.342844 0.0941386 0.0834491
0.343082 0.156451 0.0835964
0.343118 0.219143 0.083361
0.405365 0.031611 0.08352
0.405553 0.0939013 0.0835961
0.40555 0.156602 0.0833899
0.405694 0.21888 0.0835303
0.468001 0.0314449 0.0836163
0.467954 0.0941035 0.0834481
0.468106 0.156389 0.0835852
0.468097 0.219078 0.0833778
0.2804 0.0312818 0.121847
0.280469 0.0940747 0.121736
0.280668 0.156377 0.121882
0.280772 0.219099 0.121608
0.342846 0.0315105 0.121678
0.343034 0.0938376 0.121845
0.343085 0.15658 0.121658
0.343253 0.218868 0.121758
0.405507 0.0313781 0.121803
0.40553 0.0940592 0.121679
0.405635 0.156352 0.121777
0.405805 0.219041 0.121625
0.467999 0.0315686 0.121671
0.468107 0.093886 0.121783
0.468189 0.156565 0.121587
0.468194 0.218868 0.121768
0.280518 0.0314288 0.159905
0.280558 0.0938236 0.160107
0.28068 0.156537 0.159907
0.28087 0.21893 0.160001
0.343114 0.0313188 0.160016
0.343061 0.0940173 0.159932
0.343164 0.156335 0.160079
0.343326 0.219073 0.159824
0.405494 0.0315525 0.159812
0.405558 0.0938416 0.160025
0.405655 0.156499 0.15986
0.405696 0.218853 0.159986
0.468114 0.0314238 0.160008
0.468081 0.0940527 0.159868
0.4681 0.156386 0.160008
0.468222 0.219061 0.159822
0.280659 0.0312668 0.198265
0.280687 0.0939583 0.198146
0.280786 0.156345 0.198258
0.280855 0.219031 0.198054
0.343134 0.0314019 0.198057
0.343105 0.0937578 0.198324
0.343133 0.156548 0.198145
0.343279 0.218881 0.198246
0.40564 0.0313788 0.198168
0.405614 0.0940744 0.198088
0.40563 0.156421 0.198217
0.405723 0.21904 0.198026
0.468145 0.031555 0.198025
0.468178 0.0938923 0.198185
0.468166 0.156569 0.198069
0.468219 0.218912 0.198162
0.280577 0.0312927 0.236336
0.280633 0.0937168 0.236485
0.280756 0.156465 0.236326
0.280769 0.218724 0.236442
0.343188 0.0312205 0.236381
0.343129 0.0938677 0.236331
0.343231 0.156245 0.236495
0.343298 0.218937 0.236282
0.405622 0.0314486 0.236236
0.405592 0.0937839 0.236426
0.40565 0.156437 0.236288
0.405654 0.218784 0.236424
0.468137 0.0313229 0.236365
0.468079 0.0939831 0.23622
0.468139 0.156321 0.236454
0.468249 0.218999 0.236225
0.280588 0.0310651 0.27467
0.280525 0.093754 0.274533
0.28068 0.156134 0.274715
0.280774 0.218801 0.274469
0.343022 0.0313129 0.274433
0.343143 0.0936246 0.27467
0.343145 0.156253 0.274525
0.343265 0.218594 0.274652
0.405577 0.0312406 0.274612
0.405626 0.0938761 0.274476
0.405747 0.15617 0.274648
0.405634 0.218814 0.274494
0.468032 0.0313805 0.274462
0.468056 0.0936849 0.274612
0.468102 0.156345 0.274496
0.468125 0.218736 0.274618
0.280442 0.0312342 0.312674
0.280411 0.0935265 0.312887
0.280597 0.156145 0.312728
0.280663 0.218622 0.312837
0.342998 0.0311761 0.31282
0.343043 0.0937306 0.312657
0.343043 0.156076 0.312832
0.343041 0.218756 0.312653
0.40544 0.0313166 0.312677
0.405492 0.0936926 0.312893
0.405534 0.156275 0.31268
0.405582 0.218645 0.312876
0.467897 0.0311113 0.312845
0.467988 0.0937591 0.312664
0.468042 0.156114 0.31282
0.46803 0.21888 0.312689
0.280384 0.0311874 0.351041
0.280348 0.0936032 0.350878
0.280448 0.156098 0.350993
0.280533 0.218616 0.350806
0.342863 0.0311981 0.350933
0.342872 0.0936142 0.351059
0.342904 0.15615 0.350828
0.342995 0.218632 0.351032
0.405313 0.0311883 0.351073
0.405401 0.0937152 0.350901
0.405407 0.156072 0.351041
0.405401 0.218648 0.350872
0.467752 0.031172 0.350861
0.467818 0.0936647 0.351041
0.467881 0.156204 0.350801
0.46791 0.218666 0.351059
0.280165 0.0311412 0.389093
0.280248 0.0936112 0.389212
0.280322 0.156103 0.389038
0.280425 0.218653 0.389144
0.342611 0.0311342 0.389297
0.342755 0.0936942 0.389058
0.342829 0.156118 0.389205
0.342878 0.218591 0.388992
0.405226 0.0312487 0.389075
0.405318 0.0936242 0.389237
0.405333 0.156037 0.389062
0.40523 0.218705 0.389173
0.467583 0.0311604 0.38927
0.46773 0.0935365 0.389057
0.467626 0.156128 0.3892
0.467694 0.218652 0.389025
0.28016 0.0317469 0.427462
0.280681 0.0934551 0.427321
0.280294 0.156539 0.427368
0.280668 0.218292 0.427123
0.342796 0.0310807 0.427363
0.342749 0.0942727 0.427399
0.343165 0.156016 0.427254
0.342838 0.219083 0.427339
0.405147 0.0317377 0.42745
0.405571 0.0933771 0.427276
0.405214 0.156669 0.427388
0.40558 0.218401 0.427216
0.467795 0.0309946 0.427351
0.467679 0.0941013 0.427437
0.467965 0.155987 0.427376
0.467667 0.219182 0.427404
0.284346 0.0322554 0.465904
0.284493 0.0940386 0.465674
0.284631 0.157095 0.465875
0.284542 0.218801 0.465519
0.346944 0.0317337 0.46563
0.346945 0.0948172 0.465768
0.34716 0.156625 0.465603
0.347028 0.219774 0.465783
0.409265 0.0323418 0.46587
0.409393 0.0941663 0.465636
0.409295 0.157349 0.46586
0.409439 0.21906 0.465601
0.471843 0.0316529 0.465719
0.471734 0.0948053 0.465858
0.471899 0.156556 0.465617
0.472016 0.21973 0.46584
0.471993 0.157036 0.504112
0.409436 0.157611 0.503941
0.409601 0.219391 0.50417
0.472047 0.219937 0.503942
0.471817 0.095007 0.503957
0.28402 0.0319032 0.542422
0.283814 0.0950621 0.542274
0.28398 0.156826 0.542417
0.283731 0.219848 0.542269
0.346638 0.0324187 0.542275
0.346614 0.0942699 0.542373
0.346447 0.157537 0.542275
0.346482 0.219468 0.5424
0.409196 0.0318866 0.542395
0.408924 0.0949986 0.542262
0.4091 0.157009 0.54236
0.409032 0.220193 0.542289
0.471253 0.0323728 0.542329
0.471465 0.0945168 0.542388
0.471389 0.157682 0.542259
0.471693 0.219489 0.542419
0.283992 0.0320938 0.58056
0.284184 0.094485 0.580597
0.284096 0.156993 0.580494
0.28425 0.21953 0.580598
0.346592 0.032138 0.580651
0.346538 0.0945774 0.580555
0.346775 0.157016 0.580609
0.346664 0.21956 0.58052
0.409229 0.0321805 0.580529
0.409231 0.0946423 0.580544
0.409113 0.157122 0.580506
0.409174 0.219626 0.580614
0.471716 0.0319949 0.580677
0.471519 0.0946173 0.580573
0.471731 0.157181 0.58063
0.471605 0.219727 0.580517
0.284481 0.0321955 0.619617
0.284411 0.094728 0.619539
0.284484 0.157025 0.619526
0.284369 0.219561 0.61949
0.346967 0.0321465 0.619445
0.346934 0.0945553 0.619493
0.346751 0.157222 0.619499
0.346922 0.219627 0.619428
0.40959 0.0320672 0.619453
0.409259 0.0946722 0.619432
0.409386 0.157087 0.619462
0.409396 0.219733 0.619492
0.471941 0.0321743 0.619499
0.471995 0.0946355 0.619466
0.471903 0.157152 0.619459
0.471963 0.219737 0.619489
0.284633 0.0321401 0.658336
0.284581 0.0946298 0.658397
0.284572 0.157108 0.658353
0.284562 0.21961 0.658296
0.347066 0.0320364 0.658267
0.347042 0.0946321 0.658291
0.346992 0.157186 0.658323
0.34707 0.219582 0.658187
0.40956 0.0321004 0.658225
0.409502 0.0946755 0.658209
0.409566 0.157254 0.658221
0.409584 0.219628 0.658268
0.472012 0.0321406 0.658292
0.472048 0.0946291 0.658253
0.472033 0.157157 0.658253
0.47198 0.219769 0.658207
0.2849 0.0321981 0.697184
0.285064 0.0947578 0.69715
0.285078 0.157202 0.697139
0.284923 0.219691 0.697051
0.347303 0.0322725 0.697095
0.347455 0.0947409 0.697098
0.347311 0.157195 0.697048
0.347311 0.219822 0.69696
0.409686 0.0322189 0.696988
0.409724 0.0947233 0.697051
0.409681 0.157189 0.697016
0.409674 0.219757 0.696945
0.472002 0.0321684 0.697125
0.4721 0.0946795 0.697052
0.472125 0.157227 0.697065
0.472103 0.219737 0.696984
0.285093 0.0322598 0.735976
0.285179 0.0948765 0.735922
0.285088 0.157235 0.735937
0.285076 0.219817 0.73584
0.347496 0.0322429 0.735968
0.347466 0.0947511 0.735906
0.34749 0.157405 0.735822
0.347469 0.219894 0.73578
0.409605 0.0322417 0.735894
0.409652 0.0948263 0.735855
0.409919 0.157324 0.73585
0.4099 0.219776 0.735685
0.471803 0.032239 0.735924
0.471948 0.0948147 0.73585
0.472184 0.157307 0.735815
0.472048 0.219877 0.73569
0.284437 0.094413 0.504134
0.346955 0.0318391 0.504067
0.471835 0.0319721 0.50416
0.409341 0.0325317 0.503922
0.409376 0.0945315 0.504161
0.284489 0.0324351 0.503972
0.347143 0.157022 0.50415
0.347076 0.0950092 0.503928
0.284447 0.219288 0.504027
0.346857 0.21997 0.503988
0.284466 0.157246 0.503889
0.285149 0.0322029 0.774777
0.285274 0.0948822 0.774733
0.285138 0.157303 0.774598
0.285118 0.219843 0.774559
0.347424 0.0322717 0.774747
0.347446 0.0948027 0.774683
0.347463 0.157395 0.774592
0.347497 0.219874 0.774659
0.409517 0.0322258 0.774789
0.409558 0.0948282 0.774672
0.409762 0.157492 0.774614
0.409752 0.219947 0.77454
0.471624 0.0322213 0.774659
0.471695 0.0949661 0.774666
0.471933 0.157397 0.774608
0.471973 0.219952 0.774463
0.285436 0.0321526 0.813557
0.285556 0.0948911 0.813511
0.285372 0.157278 0.813504
0.285058 0.219971 0.813354
0.347493 0.0322964 0.813514
0.347355 0.0948603 0.813508
0.347378 0.157494 0.81339
0.347526 0.219859 0.813451
0.409605 0.0322548 0.813516
0.409598 0.0950205 0.81353
0.409825 0.157441 0.813425
0.410001 0.220003 0.813389
0.471804 0.0322202 0.813474
0.471904 0.094874 0.813416
0.471983 0.157384 0.813404
0.47218 0.219843 0.813332
0.28528 0.0322118 0.852305
0.285392 0.0948862 0.852317
0.285333 0.157434 0.852273
0.284948 0.220017 0.852151
0.347648 0.0321987 0.852345
0.347683 0.0946744 0.852349
0.347799 0.157381 0.852207
0.347878 0.219921 0.852193
0.409889 0.0323969 0.852402
0.409968 0.0948181 0.852345
0.409986 0.157257 0.852301
0.409989 0.219807 0.85215
0.471841 0.0323207 0.852264
0.47212 0.094933 0.852218
0.472068 0.157334 0.852215
0.472286 0.219858 0.852163
0.285215 0.0322396 0.891157
0.285099 0.0948399 0.891201
0.285205 0.15725 0.891077
0.285266 0.219719 0.890948
0.347637 0.0323127 0.891111
0.347598 0.0948217 0.891144
0.347641 0.157428 0.891097
0.347619 0.219887 0.89093
0.409938 0.0322647 0.891191
0.409774 0.0949075 0.891128
0.410027 0.157388 0.891079
0.41001 0.219797 0.890958
0.472114 0.0322627 0.891065
0.472215 0.0948593 0.891109
0.472294 0.157289 0.891055
0.472506 0.219738 0.890911
0.284937 0.032359 0.929871
0.285048 0.0947772 0.92992
0.285021 0.15725 0.929826
0.285315 0.219632 0.929709
0.347594 0.0323246 0.929886
0.347491 0.094912 0.929987
0.347604 0.157274 0.929846
0.347449 0.219967 0.929795
0.409836 0.0324823 0.929975
0.410022 0.0948349 0.929978
0.409852 0.1575 0.929918
0.409858 0.21982 0.929768
0.472154 0.0323119 0.929858
0.472177 0.0949323 0.929935
0.472314 0.157215 0.92989
0.472326 0.219812 0.929767
0.284904 0.0321471 0.968703
0.284754 0.0946127 0.968858
0.284878 0.157333 0.968701
0.284847 0.219734 0.968758
0.347287 0.0323043 0.968834
0.347291 0.094909 0.968742
0.347187 0.157237 0.968807
0.347465 0.219971 0.968638
0.409858 0.0322796 0.968823
0.409603 0.0948167 0.968928
0.409772 0.157454 0.968713
0.409838 0.219724 0.96876
0.472167 0.0322912 0.968888
0.4721 0.0948528 0.96878
0.472197 0.157208 0.968873
0.472267 0.219913 0.968571
0.280823 0.281906 0.00690573
0.285427 0.34454 0.00683064
0.285668 0.406694 0.0068854
0.28566 0.469448 0.00697807
0.343575 0.281399 0.00690659
0.347989 0.344157 0.00671767
0.34801 0.406987 0.00696438
0.348251 0.469104 0.00689531
0.405695 0.281876 0.00689765
0.410301 0.344486 0.00676601
0.410575 0.406601 0.00684715
0.410644 0.469348 0.00694203
0.468465 0.281303 0.00688643
0.47284 0.343989 0.00669415
0.4729 0.406862 0.00693336
0.473109 0.468983 0.00694825
0.280871 0.281218 0.0452158
0.281191 0.344057 0.0453312
0.285683 0.406554 0.0453304
0.285985 0.468866 0.0452186
0.343211 0.28161 0.045047
0.343677 0.343581 0.0449351
0.348117 0.406425 0.0450712
0.348332 0.469137 0.0453091
0.405744 0.281239 0.0452447
0.406032 0.34395 0.0452647
0.410529 0.406471 0.0452987
0.410776 0.468809 0.0452471
0.468127 0.281535 0.0450679
0.468629 0.343513 0.0448987
0.473038 0.406318 0.0450743
0.47315 0.469092 0.0453153
0.28073 0.281604 0.0832937
0.281377 0.343825 0.0831318
0.285624 0.406504 0.0832947
0.285776 0.469131 0.0835721
0.343356 0.281364 0.0834222
0.343685 0.343924 0.0835848
0.348031 0.406514 0.0836807
0.348379 0.468972 0.0835382
0.40574 0.281508 0.0832954
0.406385 0.34375 0.083103
0.410449 0.406392 0.0833166
0.410688 0.468988 0.0836177
0.468282 0.281338 0.0834508
0.468612 0.343867 0.0835739
0.472927 0.406474 0.0837022
0.473287 0.46887 0.0835393
0.280941 0.281413 0.121715
0.281284 0.344043 0.121914
0.285583 0.406657 0.121905
0.285785 0.469038 0.121689
0.343366 0.281577 0.121472
0.344058 0.34368 0.12129
0.348048 0.406353 0.121618
0.348325 0.469112 0.121849
0.405988 0.281297 0.121672
0.406287 0.343868 0.121837
0.410515 0.406525 0.121895
0.410755 0.468884 0.121787
0.468292 0.281553 0.121455
0.468906 0.343673 0.121308
0.472896 0.406289 0.12163
0.473231 0.468994 0.12183
0.280939 0.28159 0.159728
0.281569 0.343801 0.159614
0.285497 0.406426 0.15986
0.2858 0.469143 0.160045
0.343453 0.281321 0.159916
0.343843 0.344016 0.160043
0.348026 0.406671 0.160178
0.348161 0.468976 0.160004
0.405922 0.281581 0.159688
0.406555 0.343737 0.159577
0.410436 0.406402 0.159829
0.410638 0.469116 0.160125
0.468383 0.281299 0.159905
0.468696 0.343897 0.160073
0.472888 0.406591 0.160152
0.473122 0.468927 0.159968
0.280918 0.281412 0.198166
0.281193 0.343949 0.198352
0.285467 0.406645 0.198417
0.285693 0.468988 0.198217
0.343416 0.281534 0.197907
0.343984 0.343747 0.197784
0.34791 0.406417 0.198104
0.348101 0.469133 0.198323
0.405845 0.281351 0.19812
0.406177 0.343909 0.19831
0.410253 0.406534 0.198388
0.410521 0.468904 0.19825
0.468309 0.28155 0.197906
0.468902 0.343722 0.197834
0.472675 0.406366 0.1981
0.472956 0.469086 0.198331
0.28095 0.28138 0.23619
0.281454 0.343633 0.236008
0.285279 0.406417 0.23629
0.285464 0.469095 0.23651
0.34332 0.281191 0.236396
0.343605 0.343819 0.236523
0.3477 0.406527 0.236604
0.347959 0.468965 0.236437
0.405738 0.281397 0.236116
0.406279 0.343641 0.236053
0.410139 0.406423 0.236327
0.410382 0.469067 0.236567
0.468224 0.281216 0.236367
0.468529 0.343872 0.236552
0.472562 0.406466 0.236624
0.472829 0.468937 0.236461
0.280833 0.281154 0.274605
0.281125 0.343748 0.274676
0.285128 0.406557 0.274771
0.285395 0.468942 0.274623
0.343305 0.281341 0.274379
0.343706 0.343587 0.274218
0.347576 0.406355 0.274467
0.347841 0.469076 0.27475
0.40575 0.281156 0.27456
0.405955 0.343773 0.274771
0.410032 0.406504 0.2748
0.410271 0.468859 0.274719
0.468106 0.281389 0.274388
0.468586 0.34365 0.274295
0.472459 0.406367 0.274513
0.472656 0.469075 0.274751
0.280646 0.281252 0.312551
0.281177 0.343549 0.312408
0.285091 0.406353 0.312668
0.285206 0.468991 0.312933
0.343109 0.281111 0.312755
0.343482 0.343621 0.31294
0.34744 0.406397 0.312975
0.347775 0.46893 0.312845
0.405522 0.281264 0.312587
0.405979 0.343636 0.312493
0.409994 0.406336 0.312618
0.410152 0.469057 0.312992
0.468019 0.281184 0.31281
0.468345 0.343733 0.313029
0.472447 0.406405 0.313002
0.472581 0.468867 0.312868
0.280481 0.281076 0.35091
0.280942 0.34364 0.351145
0.284958 0.406381 0.351181
0.285088 0.468821 0.350958
0.343107 0.281199 0.35076
0.343464 0.343511 0.350597
0.347423 0.406264 0.350874
0.347603 0.46897 0.351138
0.405333 0.281136 0.350985
0.405772 0.343741 0.351198
0.409836 0.406431 0.351126
0.410032 0.468873 0.351064
0.468114 0.281241 0.350815
0.468304 0.343578 0.35067
0.472286 0.406247 0.350846
0.472447 0.468991 0.351128
0.280597 0.281061 0.388907
0.28069 0.343652 0.388833
0.285031 0.406239 0.389029
0.284929 0.468996 0.389205
0.342864 0.281226 0.389078
0.343189 0.343527 0.389256
0.347428 0.406457 0.389351
0.347609 0.468987 0.389217
0.405587 0.281088 0.389027
0.405601 0.343607 0.388923
0.409888 0.406257 0.389142
0.409933 0.468968 0.389361
0.467808 0.281219 0.389049
0.468223 0.343445 0.389341
0.472184 0.406512 0.389341
0.472562 0.468981 0.389226
0.280257 0.281436 0.427124
0.284826 0.343955 0.427317
0.284684 0.406499 0.427364
0.285018 0.469107 0.427311
0.343354 0.280854 0.427285
0.347181 0.343852 0.427375
0.347392 0.406526 0.427289
0.347229 0.469105 0.427519
0.405265 0.281668 0.427195
0.409867 0.344035 0.42738
0.409575 0.406494 0.427451
0.409898 0.46905 0.427403
0.468286 0.280782 0.427301
0.47223 0.343783 0.427491
0.47244 0.406466 0.427394
0.472308 0.469119 0.427567
0.284868 0.282056 0.465582
0.284705 0.343957 0.465575
0.284722 0.406674 0.46544
0.284653 0.469047 0.46567
0.347101 0.281404 0.465616
0.347225 0.344261 0.465537
0.347057 0.406443 0.465766
0.347292 0.469168 0.465584
0.409759 0.282188 0.46564
0.40942 0.344077 0.465702
0.40973 0.406633 0.465517
0.409483 0.46905 0.465725
0.472014 0.281499 0.465648
0.472255 0.344343 0.465553
0.472036 0.406566 0.465743
0.472265 0.469242 0.465575
0.409397 0.469177 0.503911
0.472025 0.281907 0.503947
0.471974 0.406826 0.503837
0.283783 0.281705 0.542202
0.284027 0.344892 0.542191
0.283819 0.406793 0.542145
0.284031 0.470084 0.542277
0.346316 0.282494 0.542252
0.346341 0.344318 0.542234
0.346585 0.407569 0.542257
0.346362 0.469409 0.542235
0.40908 0.281969 0.542265
0.409215 0.345032 0.542249
0.408978 0.406753 0.542135
0.409185 0.469942 0.542343
0.471653 0.282624 0.542329
0.471507 0.34446 0.542332
0.471748 0.407584 0.542296
0.471502 0.469379 0.542253
0.28412 0.282033 0.58052
0.284148 0.344684 0.580421
0.284304 0.407233 0.580469
0.283913 0.469829 0.580438
0.346644 0.282118 0.580573
0.346629 0.344717 0.580495
0.346496 0.407364 0.580382
0.346596 0.469819 0.580586
0.40905 0.282151 0.580475
0.409039 0.344807 0.58039
0.409079 0.407191 0.580473
0.408945 0.469697 0.580458
0.471699 0.282248 0.580503
0.471762 0.344645 0.580488
0.471587 0.40719 0.580419
0.471653 0.469633 0.58053
0.284343 0.282028 0.61946
0.284456 0.344695 0.619355
0.284294 0.407075 0.619376
0.284325 0.46976 0.619419
0.346865 0.282131 0.61949
0.34684 0.344608 0.619406
0.346789 0.407216 0.619439
0.346712 0.469698 0.619519
0.409538 0.282105 0.619443
0.409522 0.344526 0.619347
0.409218 0.406966 0.619435
0.409278 0.469593 0.6195
0.472099 0.282291 0.619417
0.471917 0.344586 0.619318
0.472016 0.407131 0.619315
0.471719 0.469552 0.619424
0.284452 0.282086 0.658282
0.284449 0.344593 0.658266
0.284455 0.407068 0.658292
0.284395 0.469584 0.658242
0.347172 0.282118 0.658202
0.347073 0.344647 0.658179
0.346997 0.407217 0.658177
0.346899 0.469678 0.658289
0.409549 0.282247 0.658205
0.409586 0.344676 0.658144
0.40957 0.407075 0.65817
0.409452 0.469679 0.658297
0.472115 0.282319 0.658157
0.472198 0.344747 0.65811
0.472096 0.407213 0.658135
0.472003 0.469665 0.658219
0.28486 0.282221 0.696918
0.284775 0.344835 0.696864
0.284736 0.407261 0.69695
0.284468 0.469747 0.697034
0.34732 0.282429 0.696968
0.347277 0.344807 0.697004
0.347269 0.407323 0.696986
0.346998 0.469704 0.69705
0.409717 0.282414 0.696932
0.409759 0.344829 0.696917
0.409683 0.407256 0.696913
0.409465 0.469702 0.696988
0.472209 0.282402 0.696891
0.472183 0.344828 0.696876
0.472066 0.407247 0.696874
0.472073 0.469638 0.696935
0.285015 0.282334 0.735787
0.284792 0.344828 0.735745
0.284702 0.407353 0.735802
0.284548 0.469883 0.735804
0.347359 0.282557 0.735692
0.347259 0.34493 0.73575
0.347234 0.407449 0.735819
0.347087 0.469956 0.735841
0.409748 0.282433 0.735655
0.409758 0.344934 0.735666
0.409713 0.407309 0.735718
0.409571 0.469825 0.735804
0.472284 0.282339 0.73562
0.472345 0.344886 0.735597
0.472441 0.407307 0.735685
0.472277 0.469631 0.735713
0.409559 0.40713 0.504028
0.472056 0.469631 0.504022
0.284561 0.407338 0.50397
0.347188 0.469651 0.504061
0.346886 0.406713 0.503821
0.284437 0.46918 0.503781
0.472078 0.344773 0.504092
0.346939 0.344679 0.503993
0.40949 0.34432 0.503867
0.284551 0.344289 0.503776
0.284592 0.282332 0.503873
0.409577 0.282369 0.504067
0.347042 0.281814 0.504037
0.284848 0.282275 0.774589
0.284651 0.34482 0.774594
0.284683 0.40722 0.77462
0.284555 0.469766 0.774642
0.347406 0.282473 0.774573
0.347538 0.345065 0.774647
0.347367 0.407543 0.77466
0.3471 0.46994 0.774649
0.409677 0.282548 0.774537
0.409805 0.345073 0.774527
0.4099 0.407504 0.774578
0.409954 0.469907 0.774604
0.472067 0.282456 0.774458
0.472138 0.344886 0.774384
0.4723 0.407287 0.774577
0.472345 0.469701 0.774579
0.284962 0.28236 0.813304
0.284775 0.344731 0.813388
0.284533 0.407326 0.813418
0.284466 0.469899 0.81345
0.34752 0.282542 0.813347
0.34761 0.345011 0.813365
0.34745 0.407428 0.813341
0.347447 0.470005 0.813408
0.410041 0.28242 0.813349
0.410177 0.345051 0.81333
0.410141 0.407432 0.813383
0.410094 0.46984 0.813403
0.47242 0.282501 0.813289
0.472507 0.344875 0.813309
0.472733 0.407372 0.813398
0.472697 0.469714 0.813368
0.284711 0.282401 0.852139
0.28498 0.344904 0.852129
0.285092 0.407377 0.852106
0.284912 0.469806 0.852172
0.347782 0.282541 0.852129
0.347618 0.345078 0.852075
0.347562 0.407538 0.852076
0.34764 0.46999 0.852153
0.409979 0.282451 0.852142
0.410058 0.344926 0.852219
0.410207 0.407324 0.852132
0.410296 0.469743 0.852194
0.472585 0.282458 0.852164
0.472603 0.344866 0.852162
0.472889 0.407176 0.85222
0.472742 0.469698 0.852154
0.285223 0.282246 0.890919
0.285156 0.344784 0.890896
0.285233 0.407334 0.890911
0.285316 0.469853 0.890979
0.347624 0.282396 0.890876
0.3476 0.344844 0.890811
0.347676 0.407401 0.8908
0.347803 0.46982 0.890931
0.410099 0.282268 0.89088
0.410285 0.344774 0.890978
0.410354 0.407158 0.89091
0.410396 0.469788 0.89095
0.472578 0.282164 0.891008
0.472772 0.344729 0.890927
0.473121 0.40727 0.890907
0.473163 0.469655 0.890868
0.285332 0.282314 0.929729
0.28549 0.344737 0.929674
0.285664 0.407287 0.929792
0.285569 0.469794 0.929777
0.347693 0.282303 0.929657
0.347921 0.344861 0.929638
0.347938 0.407336 0.929707
0.348168 0.469817 0.929696
0.409913 0.282384 0.929665
0.410272 0.344769 0.929629
0.410558 0.407251 0.929668
0.410672 0.469618 0.929702
0.472748 0.282166 0.929744
0.47293 0.344636 0.929635
0.473071 0.40709 0.929617
0.473251 0.469592 0.929703
0.285247 0.28228 0.968564
0.285424 0.3448 0.968571
0.285469 0.407116 0.968734
0.285745 0.469774 0.968667
0.347657 0.282243 0.968601
0.347807 0.344728 0.968589
0.34812 0.407245 0.968697
0.348095 0.469504 0.968746
0.410167 0.282311 0.968497
0.410349 0.344736 0.968484
0.41042 0.406896 0.968664
0.4108 0.46955 0.968609
0.472555 0.282125 0.968599
0.472843 0.34449 0.96858
0.473131 0.407088 0.968598
0.473146 0.469418 0.968784
0.28578 0.531603 0.00688276
0.285688 0.594298 0.00698753
0.285674 0.656467 0.00688409
0.285365 0.719304 0.0071165
0.348205 0.531869 0.00689966
0.348339 0.594043 0.00683062
0.348121 0.65675 0.00699428
0.348099 0.71894 0.0069575
0.410786 0.531535 0.00683455
0.410663 0.594195 0.00697151
0.410736 0.65641 0.00688986
0.410425 0.7192 0.00712142
0.473084 0.531722 0.00701774
0.473198 0.593956 0.00693361
0.472996 0.656677 0.00704544
0.473037 0.718985 0.00702616
0.285838 0.531613 0.0452933
0.285782 0.593848 0.0451638
0.285708 0.656582 0.0452748
0.285503 0.718871 0.0451964
0.34842 0.531432 0.0451158
0.348242 0.594039 0.0452556
0.348194 0.656328 0.0451723
0.347955 0.718964 0.0453559
0.410743 0.531528 0.0453012
0.410788 0.593854 0.0451349
0.410647 0.656486 0.0452946
0.410599 0.718794 0.0452026
0.473295 0.531359 0.045195
0.473254 0.59401 0.0452951
0.473171 0.65625 0.0452302
0.472976 0.718956 0.0454324
0.285822 0.531527 0.0834171
0.285619 0.594097 0.0835863
0.285644 0.656405 0.0834325
0.28534 0.719047 0.0836381
0.348281 0.531604 0.0835737
0.348239 0.59393 0.0834443
0.348048 0.656589 0.0836027
0.347996 0.718777 0.0834622
0.410752 0.531371 0.0834525
0.410641 0.594017 0.0835614
0.410649 0.656319 0.0834666
0.410519 0.718978 0.0836467
0.473123 0.531533 0.083624
0.47322 0.593933 0.0834783
0.473062 0.656497 0.0836676
0.472987 0.718793 0.0835118
0.285719 0.531676 0.121802
0.285673 0.594028 0.121675
0.285489 0.656683 0.12189
0.285338 0.718915 0.121741
0.34823 0.531463 0.121661
0.348225 0.594156 0.121858
0.348048 0.656455 0.121734
0.347916 0.719115 0.121928
0.410732 0.531558 0.12185
0.410721 0.593945 0.121694
0.410566 0.656614 0.121877
0.410431 0.718922 0.12175
0.473146 0.531337 0.121746
0.473154 0.594024 0.121901
0.473091 0.656372 0.121759
0.47301 0.719061 0.121924
0.285691 0.5315 0.159913
0.285611 0.594174 0.160084
0.285508 0.656501 0.159982
0.285433 0.719143 0.160127
0.348185 0.531692 0.160036
0.348111 0.593972 0.159899
0.34804 0.656619 0.160127
0.347868 0.718965 0.159986
0.410647 0.531367 0.159927
0.410616 0.594074 0.160081
0.41053 0.656421 0.159949
0.4104 0.719115 0.160142
0.473047 0.531526 0.160134
0.473073 0.593928 0.159915
0.472951 0.656587 0.160131
0.472929 0.71895 0.159969
0.285484 0.531683 0.198278
0.285471 0.594017 0.198149
0.28533 0.656607 0.198349
0.285317 0.718907 0.198179
0.348027 0.531492 0.198156
0.347933 0.594116 0.198299
0.347886 0.656435 0.198187
0.347846 0.719109 0.198337
0.410416 0.531586 0.19832
0.410388 0.593904 0.198138
0.410394 0.656556 0.198334
0.410232 0.718949 0.198213
0.472903 0.53136 0.198229
0.472903 0.594113 0.19831
0.472819 0.656488 0.198192
0.472805 0.719152 0.198361
0.285389 0.531532 0.236371
0.285315 0.594189 0.236495
0.285288 0.656506 0.2364
0.285189 0.7191 0.236563
0.347817 0.531619 0.236533
0.347854 0.593979 0.236376
0.347731 0.656699 0.236538
0.347691 0.718996 0.236378
0.410365 0.531544 0.236418
0.410229 0.594161 0.236528
0.410317 0.656473 0.236468
0.410219 0.719091 0.236585
0.47271 0.531585 0.236572
0.472754 0.593977 0.236398
0.472764 0.656656 0.236589
0.472735 0.718916 0.236439
0.285245 0.531618 0.274761
0.285255 0.593984 0.274555
0.285207 0.656647 0.274794
0.285131 0.718954 0.274599
0.34781 0.531504 0.274622
0.347728 0.594175 0.274734
0.347633 0.656496 0.274582
0.347574 0.719117 0.274788
0.410244 0.531594 0.274764
0.410196 0.593949 0.274659
0.410104 0.656689 0.274857
0.410094 0.718973 0.274639
0.472726 0.531487 0.274599
0.472649 0.594142 0.274759
0.472597 0.656448 0.274644
0.472648 0.71909 0.274803
0.285241 0.53143 0.312824
0.285194 0.594078 0.312942
0.285184 0.656511 0.312804
0.28501 0.719105 0.313014
0.347654 0.531464 0.31299
0.347619 0.593999 0.312835
0.347554 0.656588 0.312978
0.347578 0.718891 0.312867
0.410128 0.531413 0.312821
0.410054 0.594047 0.312984
0.410052 0.656424 0.312888
0.409957 0.719071 0.313067
0.472645 0.531576 0.312938
0.47255 0.593965 0.312826
0.472434 0.656577 0.313024
0.472509 0.718883 0.312916
0.285141 0.531562 0.351145
0.285133 0.593927 0.351033
0.28499 0.656631 0.351138
0.284939 0.718974 0.35109
0.347491 0.531406 0.351072
0.34749 0.594115 0.351239
0.347484 0.65654 0.351052
0.347401 0.71907 0.351265
0.409986 0.531589 0.351141
0.410003 0.59393 0.351041
0.409913 0.656567 0.351266
0.409876 0.718882 0.351158
0.472455 0.53139 0.350992
0.472398 0.594063 0.351192
0.472438 0.656355 0.351094
0.47233 0.719062 0.351301
0.284983 0.531504 0.389182
0.284877 0.594079 0.389439
0.284914 0.656529 0.389258
0.28487 0.719175 0.389521
0.347354 0.531613 0.389407
0.347403 0.593999 0.389302
0.347314 0.656667 0.389461
0.347207 0.718993 0.389381
0.410011 0.531468 0.389241
0.409935 0.594142 0.389396
0.409906 0.656516 0.389292
0.409724 0.71914 0.389527
0.472324 0.531596 0.389334
0.472415 0.593989 0.389251
0.472249 0.656661 0.3895
0.472245 0.718988 0.389384
0.284759 0.531803 0.427552
0.284853 0.594224 0.427475
0.284766 0.656913 0.427701
0.284669 0.719207 0.427572
0.347419 0.531735 0.427415
0.347267 0.59431 0.427634
0.347275 0.656678 0.427489
0.347292 0.719364 0.427737
0.409611 0.531661 0.427584
0.409759 0.594109 0.427513
0.409646 0.656796 0.427741
0.40963 0.719148 0.4276
0.47237 0.53156 0.427439
0.472168 0.594325 0.42761
0.472145 0.6567 0.427524
0.472157 0.719345 0.427799
0.284834 0.531727 0.46561
0.284734 0.594355 0.465826
0.284647 0.656915 0.465683
0.284586 0.719421 0.465946
0.347128 0.531783 0.465845
0.347054 0.594308 0.465768
0.347142 0.656979 0.465961
0.346954 0.719468 0.46584
0.409649 0.531708 0.465675
0.40964 0.594191 0.465925
0.409586 0.656702 0.465793
0.409563 0.719382 0.466
0.472151 0.531709 0.465895
0.472208 0.594174 0.46571
0.47211 0.656838 0.46597
0.472049 0.719349 0.465841
0.346936 0.531737 0.503938
0.471877 0.531775 0.503874
0.284219 0.719278 0.504045
0.28376 0.531942 0.542209
0.283853 0.595058 0.542464
0.283593 0.65693 0.54236
0.283728 0.720018 0.542479
0.346447 0.532594 0.54244
0.346227 0.594481 0.542408
0.346352 0.657562 0.542559
0.346249 0.719396 0.542464
0.408984 0.531954 0.542243
0.409041 0.595137 0.542422
0.408905 0.656989 0.542353
0.409169 0.720049 0.542515
0.471591 0.532327 0.542387
0.471342 0.594333 0.54235
0.471553 0.657479 0.542513
0.471428 0.719427 0.542364
0.283943 0.532212 0.580649
0.283754 0.59487 0.58066
0.284002 0.657268 0.580766
0.283877 0.719779 0.580743
0.346457 0.532246 0.580526
0.346574 0.594662 0.580764
0.346493 0.657281 0.580687
0.346604 0.719748 0.580757
0.409117 0.532197 0.580622
0.408812 0.59479 0.580628
0.40911 0.657221 0.580766
0.409039 0.719624 0.580747
0.471348 0.53222 0.580502
0.47138 0.594807 0.580615
0.471202 0.657296 0.580626
0.471438 0.719933 0.580754
0.284119 0.532134 0.619488
0.284334 0.594675 0.61959
0.284246 0.657104 0.619667
0.284244 0.71971 0.619715
0.346777 0.532182 0.619578
0.346633 0.594621 0.61964
0.346702 0.657206 0.61966
0.346719 0.719717 0.619669
0.40909 0.532082 0.619586
0.409139 0.594625 0.619646
0.409117 0.657213 0.619613
0.409283 0.719832 0.619712
0.471547 0.532084 0.619498
0.471385 0.594576 0.619557
0.471591 0.657146 0.619648
0.471709 0.719801 0.619675
0.28434 0.532072 0.658322
0.2843 0.594662 0.658344
0.284334 0.657235 0.658529
0.284381 0.719766 0.658526
0.346789 0.532158 0.658418
0.346754 0.594679 0.658435
0.346681 0.657248 0.658479
0.346787 0.719668 0.658542
0.40948 0.532075 0.658398
0.40929 0.594617 0.658429
0.409368 0.657223 0.658461
0.409423 0.719553 0.658503
0.471859 0.532117 0.658238
0.471758 0.594675 0.658344
0.47187 0.657165 0.658407
0.471908 0.719577 0.658439
0.284148 0.532173 0.697124
0.284263 0.594712 0.697179
0.284288 0.657123 0.697328
0.284382 0.719624 0.697326
0.34692 0.532149 0.697142
0.346896 0.594644 0.697208
0.346857 0.657138 0.697278
0.346895 0.71951 0.697313
0.409436 0.53211 0.697086
0.409467 0.594623 0.697136
0.409488 0.657031 0.697207
0.409479 0.719536 0.697225
0.472025 0.532186 0.696999
0.471995 0.594631 0.697081
0.47198 0.657066 0.697167
0.472013 0.719627 0.697161
0.284438 0.532167 0.735863
0.284421 0.594594 0.735898
0.284416 0.657001 0.735975
0.284572 0.719655 0.736056
0.346959 0.532329 0.735875
0.346963 0.594604 0.735905
0.346943 0.657086 0.735968
0.346994 0.719509 0.736031
0.40953 0.532273 0.735819
0.409583 0.594718 0.735826
0.409543 0.657128 0.735908
0.409528 0.719666 0.735968
0.47206 0.532072 0.735749
0.472235 0.594587 0.735754
0.472154 0.657214 0.735861
0.472149 0.719788 0.735933
0.47198 0.594702 0.504073
0.472002 0.719864 0.504248
0.284609 0.532194 0.504058
0.409408 0.719369 0.504093
0.346936 0.719857 0.504273
0.284557 0.657338 0.504201
0.4719 0.656912 0.503948
0.40941 0.532163 0.504143
0.346957 0.594679 0.504124
0.284495 0.59427 0.504027
0.409363 0.594301 0.504071
0.40944 0.657236 0.504266
0.346856 0.656834 0.504053
0.284417 0.532239 0.774675
0.284337 0.59476 0.774641
0.284347 0.657112 0.774695
0.284407 0.719644 0.774776
0.347027 0.532195 0.774738
0.346976 0.594659 0.774726
0.347082 0.657043 0.774747
0.347112 0.719535 0.774779
0.409887 0.532205 0.774605
0.409793 0.594663 0.774573
0.409721 0.657003 0.774646
0.409588 0.719503 0.774701
0.472218 0.532138 0.774553
0.472298 0.59468 0.774519
0.472139 0.657185 0.774583
0.471897 0.719688 0.774734
0.284426 0.532342 0.813422
0.284499 0.594669 0.813381
0.284538 0.657123 0.813382
0.284479 0.719653 0.813487
0.347499 0.532466 0.813398
0.347351 0.594737 0.813415
0.347266 0.657031 0.813465
0.347139 0.71943 0.813507
0.410025 0.532224 0.813403
0.410039 0.594723 0.813409
0.409989 0.657093 0.813439
0.409813 0.719583 0.813462
0.472513 0.532079 0.813399
0.472331 0.5947 0.813369
0.472196 0.657255 0.813433
0.472153 0.719755 0.813519
0.284708 0.53226 0.852203
0.284606 0.59482 0.85216
0.284752 0.657223 0.852163
0.284763 0.719639 0.852265
0.347521 0.532293 0.852123
0.347465 0.59474 0.852123
0.347564 0.657121 0.852165
0.347555 0.719461 0.852233
0.410307 0.532257 0.852195
0.410267 0.594734 0.852174
0.410189 0.657131 0.852223
0.410082 0.719543 0.852309
0.472617 0.53227 0.852126
0.472647 0.59484 0.852151
0.472561 0.657222 0.852207
0.472491 0.719662 0.852291
0.285349 0.532292 0.890947
0.285346 0.594593 0.890901
0.285275 0.656986 0.890935
0.285163 0.719576 0.89105
0.347862 0.532325 0.890866
0.347764 0.594667 0.890915
0.347674 0.657076 0.890887
0.347617 0.719398 0.891039
0.410515 0.532236 0.890975
0.41065 0.594785 0.890913
0.410534 0.657108 0.890953
0.410357 0.719638 0.891141
0.473288 0.532167 0.89087
0.473207 0.594695 0.890878
0.472993 0.657341 0.890951
0.47282 0.719892 0.891096
0.2856 0.532284 0.929721
0.285507 0.594656 0.929674
0.285514 0.657111 0.929737
0.285358 0.719478 0.929877
0.348245 0.532194 0.929642
0.348204 0.594647 0.929629
0.348037 0.656949 0.929701
0.348183 0.719476 0.929841
0.410858 0.532194 0.92964
0.410763 0.594576 0.92968
0.410817 0.657011 0.929725
0.410491 0.719427 0.929898
0.47318 0.532131 0.929719
0.473216 0.594658 0.929682
0.47316 0.657071 0.929774
0.473113 0.71964 0.929866
0.2857 0.532002 0.968748
0.285908 0.594584 0.9687
0.285615 0.656833 0.968784
0.285669 0.719528 0.968784
0.348342 0.532127 0.968586
0.348162 0.594254 0.968692
0.348323 0.657054 0.968699
0.347963 0.719306 0.968887
0.410725 0.531885 0.96863
0.410865 0.594594 0.968615
0.410572 0.656806 0.968737
0.410559 0.719546 0.968769
0.473384 0.532092 0.968685
0.473261 0.594403 0.968789
0.473401 0.6571 0.968706
0.473006 0.719429 0.968918
0.285332 0.781594 0.00709183
0.285187 0.844286 0.00711849
0.284886 0.906446 0.00704912
0.28493 0.969341 0.00679775
0.347703 0.78173 0.00725283
0.347576 0.843923 0.00721881
0.34756 0.906781 0.00691802
0.3473 0.968973 0.00706161
0.410363 0.781532 0.00705708
0.410134 0.844331 0.00704635
0.40982 0.906529 0.00705914
0.409792 0.969407 0.00682561
0.472667 0.78185 0.00718182
0.472474 0.844073 0.00714169
0.47239 0.906916 0.00683174
0.472131 0.969073 0.00696892
0.285236 0.781587 0.0454725
0.284932 0.843648 0.045487
0.284973 0.906496 0.0450478
0.280272 0.969183 0.045197
0.347949 0.78129 0.0453915
0.347695 0.843957 0.0453347
0.347314 0.906169 0.0453247
0.342968 0.968868 0.0453466
0.410234 0.781493 0.0455077
0.409968 0.843675 0.0454924
0.409967 0.906495 0.0450583
0.405362 0.969219 0.0452303
0.472964 0.781228 0.0453025
0.472555 0.844036 0.0452627
0.47231 0.906314 0.0453124
0.468003 0.968981 0.0452549
0.285353 0.781194 0.0835351
0.285094 0.843854 0.0834938
0.280467 0.906639 0.0834237
0.280433 0.968784 0.0835753
0.347857 0.781457 0.0838509
0.34738 0.843666 0.0838636
0.343175 0.906242 0.0836592
0.342836 0.969067 0.0834789
0.410412 0.781203 0.083572
0.410137 0.843901 0.0834932
0.405473 0.906742 0.0834652
0.405514 0.968915 0.0836189
0.472898 0.781516 0.0838048
0.472374 0.84369 0.083792
0.468212 0.906348 0.083553
0.467958 0.969177 0.0834001
0.285294 0.781496 0.122082
0.284639 0.843683 0.122179
0.280554 0.906254 0.121912
0.280277 0.968908 0.121659
0.347807 0.781355 0.121818
0.347421 0.84388 0.121681
0.343068 0.906553 0.121621
0.342822 0.968826 0.121771
0.410365 0.781554 0.122079
0.409768 0.843797 0.122154
0.405679 0.906365 0.121921
0.405405 0.969089 0.121666
0.472929 0.78146 0.121771
0.472534 0.843949 0.121619
0.468167 0.906636 0.121522
0.46794 0.968934 0.121721
0.285321 0.781391 0.160012
0.284925 0.843943 0.159914
0.280705 0.906529 0.15984
0.280416 0.968803 0.159945
0.34786 0.78159 0.160338
0.347325 0.843814 0.160402
0.343274 0.906405 0.160156
0.34297 0.968987 0.159851
0.410358 0.78146 0.160032
0.410092 0.844017 0.159876
0.405864 0.906669 0.159762
0.40554 0.968921 0.159932
0.472822 0.781572 0.160246
0.472333 0.843847 0.160353
0.468348 0.906463 0.160079
0.468067 0.969055 0.159841
0.285297 0.781492 0.198503
0.284811 0.843731 0.198621
0.280808 0.906362 0.198345
0.280545 0.968949 0.198069
0.347799 0.781372 0.198229
0.347554 0.843915 0.198141
0.343411 0.906562 0.198015
0.343061 0.968864 0.198147
0.410317 0.78157 0.19852
0.409865 0.843834 0.198583
0.405921 0.906451 0.198314
0.405619 0.969028 0.198018
0.472835 0.781399 0.198202
0.472553 0.843949 0.19808
0.468441 0.906591 0.197978
0.46815 0.968945 0.198126
0.285248 0.781342 0.236392
0.285045 0.843828 0.236269
0.280807 0.906462 0.236204
0.280563 0.968679 0.236395
0.347749 0.781568 0.236686
0.347343 0.84379 0.236851
0.343374 0.906395 0.236594
0.343073 0.968969 0.236221
0.410278 0.781323 0.236453
0.410099 0.843873 0.236269
0.405858 0.90648 0.236213
0.405639 0.968832 0.236331
0.472779 0.781499 0.236671
0.472357 0.843686 0.236808
0.468405 0.906334 0.236559
0.468058 0.968924 0.236198
0.285121 0.781527 0.27486
0.284644 0.843793 0.275017
0.280757 0.906273 0.274756
0.280533 0.968827 0.274458
0.347817 0.78134 0.274622
0.347477 0.843825 0.274538
0.343263 0.906483 0.274467
0.343178 0.968742 0.274554
0.410136 0.781473 0.274945
0.409693 0.8437 0.275008
0.405796 0.906269 0.274789
0.405615 0.968907 0.274399
0.472637 0.781294 0.274662
0.472522 0.843846 0.274523
0.468249 0.906473 0.274459
0.467959 0.96878 0.274541
0.285112 0.781399 0.312795
0.284966 0.843896 0.31268
0.28063 0.906464 0.31267
0.280526 0.968713 0.312784
0.347545 0.781457 0.313163
0.347083 0.843683 0.313273
0.343277 0.906258 0.313002
0.34302 0.968838 0.312645
0.410027 0.781209 0.312922
0.409861 0.843773 0.312681
0.405606 0.906423 0.312687
0.405426 0.968746 0.312767
0.472444 0.78136 0.31321
0.471988 0.843608 0.313308
0.468192 0.906198 0.313024
0.467857 0.968793 0.312708
0.284948 0.781497 0.351371
0.284629 0.843799 0.351449
0.280599 0.906322 0.351279
0.280264 0.968836 0.350876
0.347393 0.781359 0.351076
0.347223 0.843852 0.350998
0.34299 0.906432 0.350887
0.342919 0.968734 0.351018
0.409905 0.781411 0.351455
0.409522 0.84368 0.351487
0.405433 0.906239 0.351257
0.405177 0.968824 0.350839
0.472341 0.781302 0.351128
0.472032 0.843744 0.350997
0.467841 0.906385 0.350887
0.467741 0.968721 0.351057
0.284787 0.781444 0.389352
0.284786 0.843945 0.389217
0.280392 0.906443 0.389117
0.280154 0.96875 0.3892
0.347273 0.781529 0.389626
0.346954 0.843834 0.389759
0.342814 0.906371 0.389426
0.342701 0.96876 0.389111
0.409756 0.781456 0.389351
0.409745 0.843897 0.389246
0.405275 0.906473 0.389189
0.405223 0.968811 0.3892
0.47234 0.781456 0.389664
0.471951 0.843807 0.389685
0.467746 0.906385 0.389397
0.467685 0.968729 0.389086
0.284662 0.781763 0.427968
0.284438 0.844152 0.427914
0.284536 0.906439 0.427494
0.280147 0.968836 0.427289
0.347142 0.781579 0.427575
0.347239 0.843986 0.427488
0.346892 0.906495 0.427838
0.342776 0.969122 0.42754
0.40976 0.781779 0.427903
0.409455 0.844186 0.427872
0.409578 0.906374 0.427507
0.405224 0.968819 0.42725
0.472184 0.781676 0.427588
0.472167 0.844041 0.427525
0.471797 0.906487 0.427798
0.467593 0.969139 0.427493
0.284577 0.782126 0.465799
0.284601 0.844536 0.465786
0.284207 0.907278 0.466029
0.284592 0.96918 0.465698
0.347108 0.782026 0.466125
0.346846 0.844624 0.466119
0.346963 0.906927 0.465784
0.346875 0.969678 0.465897
0.409556 0.781957 0.465838
0.409664 0.84436 0.465794
0.409391 0.907041 0.466079
0.409487 0.969226 0.465684
0.472248 0.781926 0.466119
0.471964 0.844565 0.466108
0.47202 0.906852 0.465815
0.471695 0.96963 0.465888
0.409427 0.78237 0.504323
0.34685 0.969996 0.503956
0.346792 0.844935 0.504067
0.284311 0.844337 0.504308
0.284398 0.969274 0.504177
0.40949 0.969362 0.504203
0.471774 0.969937 0.503951
0.471934 0.844953 0.504053
0.283647 0.781938 0.542403
0.283872 0.844912 0.542429
0.284146 0.906916 0.542472
0.283912 0.97009 0.542356
0.346483 0.782377 0.542593
0.346464 0.844362 0.542541
0.346429 0.907394 0.542382
0.34664 0.969354 0.542388
0.408901 0.781915 0.542413
0.408868 0.844939 0.542409
0.409004 0.906797 0.542525
0.408889 0.969972 0.5423
0.471709 0.782389 0.542551
0.471536 0.844368 0.542567
0.471367 0.907375 0.54235
0.471465 0.969201 0.542413
0.284229 0.782325 0.580819
0.284169 0.844776 0.580791
0.284015 0.90727 0.580664
0.284183 0.96976 0.58066
0.346485 0.782168 0.580727
0.346576 0.84471 0.580695
0.346693 0.907125 0.580736
0.346554 0.969625 0.580533
0.409201 0.782226 0.580771
0.409054 0.84474 0.580777
0.408999 0.907189 0.580668
0.409227 0.969602 0.580623
0.471412 0.782264 0.580704
0.47156 0.844691 0.580738
0.471621 0.907115 0.580658
0.471519 0.969513 0.580533
0.284331 0.782162 0.619757
0.28434 0.844704 0.619696
0.284494 0.907178 0.619658
0.28442 0.969736 0.61959
0.34676 0.782253 0.619695
0.346887 0.844624 0.61974
0.346798 0.907164 0.619653
0.346971 0.969587 0.619542
0.409255 0.782247 0.619718
0.409277 0.844732 0.619662
0.409467 0.907218 0.619608
0.409469 0.969658 0.619512
0.471777 0.782256 0.619689
0.47202 0.844714 0.61968
0.472003 0.907102 0.619566
0.472072 0.969548 0.619552
0.284521 0.782222 0.658583
0.284601 0.844688 0.658547
0.284652 0.907238 0.658478
0.284675 0.969706 0.658425
0.346933 0.782188 0.658526
0.347087 0.844662 0.658521
0.34716 0.907147 0.658436
0.34714 0.969605 0.658334
0.409583 0.782102 0.658538
0.409576 0.844663 0.658478
0.409548 0.907207 0.658359
0.409608 0.969642 0.658339
0.472001 0.782093 0.658436
0.47202 0.844665 0.658484
0.471982 0.907123 0.658381
0.472012 0.969646 0.658314
0.284486 0.782183 0.697343
0.284591 0.844632 0.697252
0.284854 0.907228 0.697223
0.284916 0.96978 0.69721
0.347043 0.782173 0.697277
0.347091 0.844676 0.697284
0.347138 0.907091 0.697205
0.347207 0.969662 0.697162
0.409484 0.782093 0.697288
0.40953 0.844666 0.697193
0.409541 0.907227 0.697132
0.409569 0.969773 0.697087
0.472086 0.782194 0.697263
0.47197 0.844621 0.697235
0.471816 0.907146 0.697174
0.471977 0.969755 0.697128
0.284613 0.782171 0.736057
0.2846 0.844736 0.736118
0.28485 0.907258 0.736098
0.285083 0.969766 0.736021
0.347029 0.782179 0.736077
0.347119 0.844665 0.736014
0.347152 0.907024 0.73599
0.347327 0.969601 0.735951
0.409519 0.782115 0.736052
0.409563 0.844537 0.736021
0.409583 0.907003 0.735967
0.409639 0.969647 0.735914
0.472076 0.782165 0.736004
0.471932 0.844524 0.735954
0.471687 0.907056 0.736002
0.471698 0.969711 0.735925
0.284337 0.782442 0.5043
0.409457 0.844378 0.50427
0.472008 0.781962 0.504021
0.346789 0.781885 0.504048
0.471914 0.906916 0.504234
0.346986 0.906884 0.504212
0.284179 0.907499 0.503966
0.409352 0.90743 0.504088
0.28442 0.782356 0.774849
0.284533 0.844816 0.774899
0.284799 0.907176 0.774868
0.284885 0.96964 0.774758
0.347006 0.782095 0.774853
0.347217 0.844687 0.774821
0.347194 0.907185 0.774848
0.347235 0.969756 0.774812
0.409474 0.782069 0.774828
0.409487 0.844546 0.774859
0.409485 0.907063 0.774804
0.409478 0.969644 0.774782
0.471883 0.782179 0.77474
0.471887 0.844599 0.774725
0.471581 0.907049 0.774738
0.471513 0.969655 0.774706
0.284486 0.782134 0.813606
0.284611 0.844689 0.81363
0.284809 0.907127 0.813616
0.285126 0.969583 0.813541
0.347188 0.781982 0.813582
0.34738 0.844537 0.813564
0.347337 0.907081 0.813589
0.347428 0.96953 0.813564
0.409845 0.78205 0.813619
0.409832 0.844485 0.813633
0.409682 0.906927 0.813632
0.409682 0.969565 0.813589
0.472182 0.782204 0.813585
0.472115 0.844742 0.813579
0.471891 0.907064 0.813604
0.471773 0.969633 0.813524
0.28491 0.782073 0.852376
0.285129 0.844527 0.85237
0.285251 0.906917 0.852351
0.285332 0.969511 0.852341
0.347501 0.781803 0.852377
0.347479 0.844427 0.852355
0.347556 0.907156 0.852403
0.347551 0.969701 0.852339
0.409921 0.781933 0.852377
0.409816 0.844536 0.85241
0.409776 0.907243 0.852412
0.409901 0.969833 0.852374
0.472235 0.782138 0.852438
0.472141 0.844665 0.852377
0.472076 0.906997 0.852362
0.471861 0.969729 0.852296
0.285381 0.782095 0.891152
0.285286 0.84467 0.891153
0.285206 0.907228 0.891011
0.285225 0.969822 0.891127
0.347654 0.781861 0.891126
0.347691 0.844468 0.89114
0.347674 0.907052 0.891185
0.3477 0.969769 0.891124
0.410125 0.782056 0.891172
0.410053 0.844645 0.891188
0.409999 0.907182 0.891114
0.409903 0.969744 0.89109
0.472658 0.782274 0.891218
0.472484 0.844645 0.89116
0.472339 0.907169 0.891103
0.472259 0.969683 0.891062
0.285426 0.782128 0.929906
0.285357 0.844546 0.929947
0.285143 0.907257 0.929909
0.285108 0.969858 0.9299
0.347937 0.781934 0.929966
0.34777 0.844592 0.930029
0.347679 0.907171 0.929906
0.347451 0.969911 0.929911
0.410407 0.782061 0.929977
0.410169 0.844564 0.930028
0.410015 0.907284 0.929967
0.409943 0.969753 0.929919
0.4729 0.782137 0.929979
0.472702 0.844717 0.929972
0.472441 0.907205 0.929902
0.47212 0.969837 0.929936
0.285278 0.781838 0.968961
0.285207 0.844727 0.968992
0.28529 0.90703 0.968797
0.284886 0.969871 0.968762
0.347881 0.782109 0.968941
0.34781 0.844359 0.968934
0.347545 0.907215 0.968952
0.347447 0.969657 0.96874
0.410307 0.781852 0.968994
0.410148 0.844687 0.968948
0.410083 0.907032 0.968747
0.409752 0.969859 0.968849
0.472858 0.782195 0.968849
0.472637 0.844511 0.968836
0.472239 0.907323 0.968816
0.472278 0.969674 0.968716
0.530316 0.0322141 0.00692298
0.530581 0.0940497 0.00707728
0.530462 0.15717 0.00702317
0.530849 0.218755 0.00695653
0.592921 0.0317006 0.00697558
0.592862 0.0947049 0.00689759
0.593259 0.156453 0.00702072
0.593032 0.219528 0.00682956
0.655177 0.0322086 0.0068594
0.655468 0.0940495 0.00699941
0.655421 0.157179 0.00689924
0.655794 0.218782 0.00698264
0.717827 0.0317868 0.00707575
0.717815 0.0948664 0.00697829
0.718278 0.1565 0.00708785
0.718014 0.219568 0.00690418
0.530395 0.0314714 0.0453267
0.530308 0.0941828 0.0452474
0.530508 0.156486 0.0453351
0.530561 0.219185 0.0451024
0.592773 0.031839 0.0451495
0.592842 0.0940076 0.0452926
0.592897 0.156692 0.0451679
0.593048 0.21888 0.0452514
0.655277 0.0315292 0.0452174
0.655251 0.0942675 0.0451422
0.655469 0.156509 0.0452712
0.655515 0.219242 0.0450774
0.717718 0.0318545 0.0451675
0.717774 0.0940255 0.045327
0.717864 0.156795 0.0452191
0.718056 0.218972 0.0453332
0.53038 0.0315393 0.0834
0.530591 0.093896 0.0835639
0.530508 0.156651 0.0834113
0.530664 0.21892 0.0835116
0.592988 0.031403 0.0834962
0.592871 0.0941891 0.0834449
0.593123 0.156492 0.083597
0.59315 0.219141 0.0833749
0.655298 0.0316561 0.0833764
0.65543 0.094018 0.0835279
0.655487 0.156698 0.0833999
0.65565 0.218883 0.0835214
0.717931 0.0314119 0.0835044
0.717911 0.0942312 0.0834544
0.718184 0.156471 0.0835979
0.718282 0.219139 0.0834459
0.530581 0.0313612 0.121745
0.530537 0.0940699 0.121681
0.530644 0.156416 0.121836
0.530658 0.219169 0.121601
0.592991 0.0315699 0.121584
0.593041 0.0939078 0.121801
0.593154 0.156607 0.121646
0.593131 0.218928 0.121752
0.655556 0.0313611 0.121739
0.655503 0.094109 0.121608
0.655686 0.156381 0.121794
0.655749 0.219109 0.121616
0.717915 0.031613 0.121598
0.718094 0.0939884 0.121792
0.718224 0.156667 0.121653
0.718394 0.21892 0.121819
0.530672 0.031603 0.159819
0.530615 0.0938951 0.160064
0.530675 0.156559 0.159913
0.530741 0.21884 0.159983
0.593139 0.0314033 0.159992
0.593134 0.0940756 0.159859
0.593146 0.156348 0.159998
0.593187 0.219108 0.159828
0.655569 0.0315851 0.159803
0.655617 0.0939315 0.159995
0.655667 0.156605 0.159866
0.655756 0.21892 0.15997
0.718027 0.0314116 0.15998
0.718111 0.0941309 0.159874
0.7182 0.156434 0.160058
0.718297 0.219147 0.159859
0.530668 0.0314258 0.198173
0.530673 0.0940481 0.198091
0.530732 0.1564 0.198186
0.530738 0.219082 0.198035
0.593071 0.0316024 0.198032
0.593129 0.0939153 0.198226
0.593169 0.156619 0.198091
0.593211 0.218926 0.198233
0.655597 0.0314158 0.198176
0.655588 0.0940964 0.198077
0.655655 0.156464 0.198222
0.655657 0.219128 0.198006
0.717977 0.0315975 0.198054
0.718073 0.0939679 0.198235
0.718085 0.156644 0.198088
0.718212 0.218976 0.198252
0.530545 0.0315639 0.236277
0.530609 0.0938927 0.236456
0.530684 0.15652 0.236235
0.530746 0.218839 0.236455
0.593038 0.031413 0.23637
0.59299 0.0940072 0.236312
0.593129 0.156327 0.23647
0.593138 0.219037 0.236285
0.655478 0.031492 0.236244
0.655514 0.0938662 0.236486
0.65563 0.156544 0.236319
0.655623 0.218827 0.236414
0.718025 0.0313646 0.236401
0.718036 0.094003 0.23632
0.718051 0.156379 0.236466
0.718016 0.219053 0.236296
0.530552 0.0311868 0.274586
0.53054 0.0938556 0.274517
0.530597 0.156237 0.274654
0.530596 0.218896 0.274515
0.592899 0.0313696 0.274456
0.59302 0.0936818 0.274694
0.59307 0.156377 0.274493
0.593091 0.218723 0.274676
0.655449 0.031185 0.274581
0.655442 0.0938141 0.274535
0.655544 0.156211 0.274695
0.655611 0.218915 0.274509
0.71773 0.0313522 0.274488
0.717942 0.0936913 0.274672
0.717921 0.15638 0.274579
0.717984 0.218763 0.274664
0.530372 0.0312526 0.312638
0.530482 0.0936214 0.312893
0.530447 0.156252 0.312661
0.530504 0.218643 0.312858
0.592848 0.0311391 0.312833
0.592888 0.0938113 0.312719
0.592975 0.156182 0.312828
0.592915 0.218902 0.312726
0.655174 0.0312577 0.312658
0.655238 0.0936539 0.312878
0.655324 0.156381 0.312745
0.655438 0.218681 0.312825
0.717688 0.0311598 0.312893
0.717712 0.093782 0.312684
0.717879 0.156147 0.312896
0.71789 0.218832 0.312735
0.530304 0.0311406 0.351
0.530366 0.0937022 0.350917
0.530388 0.15616 0.350997
0.530501 0.218726 0.350877
0.592666 0.0311535 0.350902
0.592729 0.0936169 0.351085
0.592797 0.156167 0.350906
0.592832 0.218688 0.35107
0.655071 0.0311943 0.351028
0.655115 0.0937943 0.350955
0.655194 0.156213 0.351115
0.655336 0.218747 0.350843
0.7176 0.031204 0.350928
0.717585 0.0936224 0.351051
0.717747 0.15615 0.350878
0.717792 0.218642 0.351035
0.530063 0.031226 0.389081
0.530018 0.0936835 0.38924
0.530181 0.156069 0.38905
0.530238 0.218605 0.389237
0.592445 0.0312837 0.38926
0.592495 0.0937039 0.389113
0.592583 0.156166 0.38929
0.592684 0.218578 0.389105
0.654976 0.0312396 0.389107
0.654923 0.0936913 0.389265
0.655074 0.156113 0.389082
0.655123 0.21878 0.389159
0.717511 0.0311795 0.389251
0.717673 0.0935582 0.389049
0.717687 0.156022 0.389179
0.717736 0.218624 0.389014
0.529937 0.0316702 0.4275
0.530324 0.0934085 0.427352
0.530029 0.156689 0.427343
0.530448 0.218346 0.427225
0.592694 0.0311482 0.427385
0.592417 0.0941571 0.427462
0.592927 0.155887 0.427364
0.592736 0.219015 0.427442
0.655073 0.031773 0.427498
0.655427 0.0934731 0.427314
0.655126 0.156468 0.427392
0.655488 0.218262 0.427202
0.717714 0.0310306 0.427329
0.717564 0.0942152 0.427347
0.717959 0.155977 0.427209
0.717672 0.219072 0.427343
0.534133 0.0322896 0.465921
0.534189 0.0941589 0.465725
0.534331 0.157319 0.465848
0.534403 0.21911 0.465629
0.596814 0.0315433 0.465763
0.596655 0.0948154 0.465871
0.596907 0.156591 0.465673
0.596979 0.219812 0.465782
0.659301 0.0324147 0.465905
0.659353 0.0941563 0.465615
0.659437 0.15728 0.465857
0.659523 0.219044 0.46557
0.72191 0.0316803 0.465587
0.721781 0.0948881 0.465743
0.722068 0.156759 0.465543
0.722099 0.219886 0.465776
0.597076 0.156998 0.504134
0.534338 0.219434 0.504184
0.721942 0.0951178 0.503892
0.722104 0.220111 0.503806
0.596887 0.0950421 0.503966
0.659581 0.157342 0.503836
0.597064 0.219907 0.503936
0.533761 0.0316457 0.542391
0.533681 0.0950199 0.542287
0.533958 0.15684 0.542395
0.533956 0.219978 0.542257
0.596329 0.0326367 0.542335
0.596458 0.0943904 0.542364
0.596526 0.157437 0.542191
0.596857 0.219346 0.542327
0.65926 0.0319163 0.542372
0.659053 0.0949489 0.542218
0.659262 0.156845 0.542275
0.659146 0.219867 0.542164
0.721732 0.0324473 0.542273
0.721834 0.094432 0.542324
0.721623 0.157416 0.542089
0.72188 0.219371 0.542221
0.533992 0.0320779 0.580559
0.534167 0.0945988 0.580597
0.534207 0.157134 0.58048
0.534376 0.219708 0.580515
0.596712 0.0320789 0.580647
0.596551 0.0946292 0.580549
0.59679 0.157182 0.580581
0.596784 0.21966 0.580432
0.659343 0.0321177 0.580525
0.659299 0.094554 0.58056
0.659278 0.157138 0.58042
0.659467 0.219542 0.580487
0.721847 0.0319842 0.580593
0.721738 0.0944969 0.580493
0.721891 0.15709 0.580487
0.721806 0.21956 0.580379
0.534481 0.0321194 0.619589
0.534419 0.0946216 0.619504
0.534492 0.157226 0.619444
0.534388 0.219688 0.619394
0.596865 0.0321375 0.619495
0.596912 0.0946031 0.619519
0.596909 0.157114 0.619471
0.5971 0.219637 0.619403
0.659545 0.0320868 0.619508
0.659317 0.0945627 0.619403
0.659483 0.157036 0.619385
0.659651 0.219494 0.619404
0.721991 0.0321453 0.619438
0.722048 0.0946016 0.619425
0.722083 0.157109 0.619377
0.722163 0.219495 0.619362
0.534517 0.0321252 0.658375
0.534559 0.0946328 0.65833
0.534427 0.15717 0.658233
0.534534 0.219663 0.658215
0.596951 0.0321555 0.658368
0.596944 0.0945753 0.658334
0.596955 0.157078 0.65828
0.597022 0.219488 0.658178
0.659419 0.0321632 0.658287
0.659492 0.0945054 0.658271
0.659562 0.157035 0.65821
0.659667 0.21951 0.658179
0.722197 0.0322156 0.658292
0.722057 0.094654 0.658218
0.722117 0.156994 0.658219
0.722238 0.21951 0.658155
0.534443 0.0321393 0.697186
0.534452 0.0946533 0.697139
0.534533 0.157226 0.69702
0.534679 0.219727 0.696915
0.596797 0.0321371 0.697216
0.596832 0.0946831 0.697158
0.5969 0.157222 0.697029
0.597004 0.219557 0.69697
0.65945 0.0322901 0.697099
0.659415 0.0945734 0.697088
0.659455 0.157096 0.697017
0.659531 0.219556 0.696872
0.721998 0.0323249 0.697045
0.722021 0.0947801 0.697021
0.722116 0.157154 0.696963
0.722143 0.21957 0.696884
0.5342 0.0322946 0.735964
0.534281 0.0946622 0.735998
0.534454 0.157365 0.735859
0.534705 0.219871 0.735763
0.596886 0.032211 0.735984
0.596928 0.0947732 0.735957
0.597031 0.157205 0.735793
0.597139 0.21963 0.735668
0.659599 0.032316 0.735932
0.659561 0.0946356 0.735894
0.659493 0.157 0.735871
0.659519 0.219495 0.735744
0.722177 0.0322062 0.735892
0.722082 0.0947376 0.735802
0.721919 0.157253 0.735784
0.721883 0.219666 0.735777
0.659706 0.219322 0.504093
0.659376 0.032567 0.503983
0.596933 0.031955 0.504239
0.72207 0.0320962 0.504091
0.65944 0.0944083 0.504115
0.534215 0.0327154 0.504017
0.534175 0.0945738 0.504151
0.722226 0.157099 0.50403
0.534345 0.157504 0.503927
0.533948 0.0322681 0.774667
0.534034 0.0945635 0.774677
0.534313 0.157218 0.774634
0.534289 0.219693 0.774477
0.596816 0.0321781 0.774695
0.596776 0.094667 0.774609
0.596868 0.156977 0.774552
0.597062 0.219545 0.774518
0.659602 0.032261 0.77474
0.659487 0.0947343 0.774721
0.65953 0.157227 0.774649
0.659611 0.219662 0.774625
0.722307 0.0323937 0.774718
0.722191 0.0948848 0.774664
0.722104 0.157268 0.774617
0.721979 0.219711 0.774658
0.534143 0.0321569 0.813422
0.534153 0.0947023 0.813447
0.534424 0.157308 0.813486
0.534599 0.219719 0.813328
0.596788 0.0321341 0.813519
0.596886 0.0946663 0.813407
0.597006 0.157058 0.813391
0.59713 0.219605 0.813271
0.659753 0.032228 0.813493
0.659475 0.0946099 0.813441
0.659579 0.15706 0.813421
0.65974 0.219609 0.813291
0.722398 0.0324308 0.813516
0.722395 0.0948177 0.813472
0.722393 0.157241 0.813427
0.722265 0.21969 0.813372
0.534171 0.0323681 0.852211
0.534289 0.0947327 0.852206
0.534533 0.157218 0.852184
0.534745 0.219555 0.852118
0.596926 0.0321407 0.852232
0.596972 0.0946077 0.852173
0.597132 0.157088 0.852124
0.597232 0.21948 0.852112
0.659939 0.0322792 0.852195
0.65981 0.0946222 0.852196
0.659831 0.157095 0.852157
0.659882 0.219465 0.852096
0.722685 0.0322952 0.852259
0.722576 0.0949739 0.852207
0.722526 0.157184 0.852188
0.722288 0.219684 0.852176
0.534424 0.0321981 0.89098
0.534382 0.0946815 0.89091
0.534649 0.157099 0.890914
0.534947 0.219661 0.890896
0.59725 0.032251 0.890931
0.597273 0.0946368 0.890974
0.597289 0.15703 0.89096
0.597437 0.219532 0.890865
0.660062 0.0324767 0.890925
0.659965 0.0947224 0.890949
0.659862 0.157058 0.890915
0.659862 0.219479 0.89094
0.722621 0.0323608 0.89096
0.722661 0.0949605 0.890978
0.722448 0.157188 0.890903
0.722477 0.219652 0.890972
0.534397 0.032341 0.929721
0.534486 0.0946729 0.92971
0.534449 0.157209 0.929768
0.534848 0.21951 0.929706
0.597243 0.0322256 0.92959
0.597151 0.0948637 0.929768
0.597394 0.156896 0.929787
0.597249 0.219601 0.929677
0.659851 0.032336 0.929685
0.659986 0.0946268 0.929729
0.659763 0.157256 0.929766
0.659961 0.219512 0.929663
0.72258 0.0323141 0.929736
0.722382 0.0948999 0.92979
0.722487 0.157243 0.929768
0.722407 0.219726 0.929743
0.534705 0.0323698 0.968569
0.534441 0.0947175 0.968777
0.534591 0.157309 0.968678
0.534805 0.219502 0.96869
0.597139 0.032344 0.968581
0.597079 0.0948111 0.968505
0.597053 0.156929 0.968673
0.597326 0.219651 0.9685
0.659812 0.0322909 0.968544
0.659524 0.0946519 0.968671
0.659624 0.157236 0.96857
0.659561 0.219506 0.968657
0.722229 0.0323564 0.968743
0.722138 0.0948946 0.968662
0.722042 0.157177 0.968765
0.722237 0.219812 0.968559
0.530714 0.281774 0.00687426
0.535209 0.344408 0.00682119
0.535412 0.406474 0.00684877
0.53551 0.469237 0.00710819
0.593427 0.281267 0.00694551
0.597791 0.343955 0.00678909
0.597704 0.406762 0.00708338
0.598029 0.468898 0.00701912
0.655631 0.28178 0.00691058
0.660292 0.34437 0.00681096
0.660488 0.406477 0.00695275
0.660476 0.469174 0.00711119
0.718455 0.281332 0.00690183
0.722843 0.344047 0.00674608
0.722836 0.406792 0.00703669
0.723081 0.468888 0.0070072
0.53075 0.281279 0.0452045
0.531015 0.343971 0.0452402
0.535491 0.406386 0.0453317
0.535678 0.468756 0.0452863
0.593106 0.281643 0.0451002
0.593603 0.343406 0.04496
0.597995 0.406272 0.0451607
0.598049 0.468947 0.0453508
0.655829 0.281241 0.0452412
0.656058 0.343923 0.0453209
0.660427 0.406325 0.045385
0.660607 0.468648 0.045314
0.71814 0.281628 0.0451214
0.718603 0.34345 0.0449612
0.722995 0.406263 0.0451446
0.723092 0.468964 0.045404
0.530677 0.28153 0.0832622
0.531343 0.343755 0.0830675
0.535375 0.406343 0.0833438
0.53569 0.468968 0.083611
0.59329 0.281365 0.0834346
0.59358 0.343866 0.083636
0.597882 0.406488 0.0837277
0.598267 0.468832 0.0835706
0.655671 0.281534 0.0833394
0.65625 0.343748 0.0831654
0.660359 0.406341 0.0833344
0.660573 0.46895 0.0836706
0.718386 0.28133 0.0834833
0.718536 0.34388 0.0836442
0.722778 0.406453 0.0837188
0.723104 0.468839 0.0835492
0.53081 0.28133 0.121692
0.531174 0.343847 0.121881
0.535459 0.406533 0.121931
0.535644 0.468866 0.121772
0.593298 0.281523 0.121484
0.593829 0.343743 0.121344
0.597906 0.406371 0.121649
0.598069 0.469033 0.121947
0.655834 0.281274 0.121718
0.65617 0.343914 0.121904
0.660446 0.406544 0.121937
0.66062 0.468794 0.121837
0.718384 0.281593 0.121484
0.718897 0.343697 0.121364
0.722816 0.406302 0.121606
0.723056 0.469018 0.121865
0.530822 0.281541 0.159751
0.53141 0.343714 0.159582
0.535307 0.406357 0.159875
0.535536 0.469038 0.160156
0.593229 0.281362 0.159903
0.593562 0.343982 0.160115
0.597734 0.40657 0.160214
0.597986 0.468864 0.160067
0.655784 0.28156 0.159703
0.656377 0.343727 0.159611
0.660289 0.406423 0.15988
0.660551 0.469021 0.160129
0.718381 0.281329 0.15987
0.718685 0.343893 0.16011
0.722834 0.406548 0.160171
0.723002 0.468831 0.159995
0.530803 0.281334 0.198181
0.531066 0.343911 0.198295
0.535152 0.406561 0.198424
0.535373 0.468944 0.19831
0.59322 0.281495 0.197936
0.59381 0.343726 0.197846
0.597638 0.406376 0.19812
0.597894 0.468991 0.198383
0.65578 0.281392 0.198115
0.656036 0.343972 0.198348
0.660227 0.406586 0.198406
0.660469 0.468857 0.198264
0.718211 0.281547 0.197893
0.718822 0.343741 0.197816
0.722709 0.406355 0.19805
0.722968 0.469017 0.198291
0.530757 0.281474 0.236147
0.53128 0.343679 0.236046
0.535082 0.406386 0.236367
0.535336 0.469064 0.236587
0.593202 0.281241 0.2364
0.593517 0.343844 0.236575
0.597575 0.406492 0.236621
0.597813 0.468881 0.236504
0.655706 0.281432 0.236124
0.656173 0.343703 0.236117
0.660099 0.406443 0.236288
0.660359 0.468998 0.23656
0.718088 0.281279 0.236388
0.718463 0.343885 0.23656
0.722624 0.406543 0.2366
0.722805 0.468875 0.236481
0.530614 0.281165 0.274608
0.530895 0.343756 0.274806
0.534873 0.406469 0.274845
0.535215 0.468866 0.2747
0.593123 0.281399 0.274426
0.593601 0.343608 0.274325
0.597503 0.406291 0.274528
0.597675 0.46904 0.274761
0.655562 0.28114 0.274601
0.655843 0.343772 0.274825
0.659963 0.406544 0.274813
0.66017 0.468879 0.274666
0.718049 0.281446 0.274392
0.718572 0.343634 0.274278
0.722537 0.406298 0.274483
0.72269 0.469028 0.274782
0.530493 0.281245 0.312625
0.530828 0.343517 0.312496
0.534819 0.40625 0.312696
0.535023 0.468947 0.312955
0.593073 0.281171 0.312858
0.59328 0.343657 0.313023
0.597298 0.406337 0.313029
0.597493 0.468806 0.312884
0.655515 0.281301 0.312605
0.655959 0.343627 0.31249
0.659952 0.406299 0.312679
0.659982 0.468965 0.312931
0.71801 0.281218 0.312806
0.718337 0.343718 0.313
0.722361 0.406409 0.312962
0.7226 0.468822 0.312813
0.530439 0.281161 0.351004
0.53074 0.343743 0.351233
0.534775 0.406421 0.351132
0.535044 0.468917 0.35101
0.592974 0.281244 0.350807
0.593178 0.343601 0.350654
0.59723 0.406268 0.350874
0.597392 0.468869 0.35112
0.655328 0.281176 0.351018
0.655611 0.343678 0.35125
0.659822 0.406411 0.351167
0.660031 0.468778 0.351017
0.717882 0.281238 0.350805
0.718229 0.343549 0.350664
0.722234 0.406233 0.350809
0.722464 0.46898 0.351082
0.53051 0.281011 0.389028
0.530561 0.343683 0.388872
0.534768 0.406277 0.38907
0.534712 0.468934 0.389299
0.59266 0.281168 0.389125
0.593067 0.343481 0.389331
0.597195 0.406386 0.389295
0.597389 0.468928 0.389136
0.655406 0.281099 0.389016
0.655481 0.343714 0.388913
0.659745 0.406343 0.389041
0.659803 0.469052 0.389292
0.717686 0.281221 0.389075
0.718013 0.343511 0.389306
0.722123 0.406436 0.389279
0.722418 0.468986 0.389144
0.530188 0.281452 0.427202
0.534763 0.343905 0.427365
0.534564 0.40645 0.427469
0.534821 0.469058 0.427372
0.593091 0.280747 0.427343
0.597097 0.343734 0.427432
0.597257 0.406464 0.427297
0.597122 0.469059 0.427489
0.65515 0.28145 0.427123
0.659704 0.343918 0.42732
0.659456 0.406476 0.427395
0.659779 0.469182 0.427308
0.718261 0.280889 0.427245
0.722112 0.343792 0.427362
0.722227 0.406497 0.427241
0.722085 0.469015 0.427484
0.534753 0.28217 0.465739
0.534626 0.344149 0.465742
0.534651 0.406767 0.46556
0.534723 0.4692 0.465852
0.596979 0.281447 0.465552
0.597196 0.344348 0.465546
0.59719 0.406663 0.465751
0.597298 0.469268 0.465592
0.659775 0.28215 0.465613
0.659466 0.34409 0.465628
0.659687 0.406763 0.465479
0.659519 0.469147 0.465707
0.722181 0.281417 0.465562
0.722272 0.344415 0.46554
0.722221 0.406481 0.465613
0.722285 0.469166 0.46547
0.534272 0.469188 0.503887
0.597053 0.40681 0.503806
0.534048 0.281864 0.542285
0.534187 0.344985 0.54227
0.534059 0.406977 0.54212
0.534313 0.470182 0.542367
0.596902 0.282458 0.542212
0.596751 0.344311 0.54216
0.596782 0.407457 0.542246
0.596702 0.469411 0.54226
0.659249 0.281957 0.542258
0.659427 0.344965 0.542239
0.659209 0.406799 0.542089
0.659354 0.470061 0.542273
0.7218 0.2825 0.542162
0.72173 0.344411 0.542094
0.721861 0.40762 0.542202
0.721658 0.46941 0.542118
0.534374 0.282215 0.580452
0.534302 0.344752 0.580384
0.534341 0.4073 0.580475
0.534025 0.469839 0.580491
0.596903 0.282173 0.580445
0.596852 0.344692 0.580477
0.596609 0.407353 0.580367
0.596842 0.469892 0.580625
0.65935 0.282025 0.580452
0.65947 0.34471 0.580409
0.659497 0.407237 0.580424
0.659304 0.469828 0.580383
0.722017 0.282177 0.580414
0.721993 0.34472 0.580387
0.721846 0.407291 0.5803
0.72191 0.469703 0.580468
0.534458 0.282163 0.619327
0.534585 0.344779 0.619305
0.534524 0.407246 0.619326
0.534234 0.469756 0.619358
0.597228 0.282084 0.619296
0.597085 0.344603 0.619285
0.597093 0.407222 0.619269
0.596937 0.469747 0.619407
0.659722 0.282054 0.619275
0.659865 0.34468 0.619249
0.659679 0.407129 0.619236
0.659631 0.469685 0.619309
0.722325 0.282097 0.619279
0.722291 0.344716 0.619273
0.72227 0.407325 0.619241
0.721983 0.469721 0.619345
0.534687 0.282188 0.658068
0.534816 0.344682 0.658107
0.534713 0.407139 0.65814
0.534437 0.469684 0.658113
0.597174 0.28203 0.658077
0.597232 0.344577 0.658067
0.5972 0.407165 0.65807
0.597215 0.469715 0.658081
0.659779 0.282052 0.658059
0.659775 0.344627 0.658009
0.659801 0.407108 0.658038
0.659681 0.469684 0.658095
0.722306 0.282048 0.65803
0.722263 0.344634 0.658013
0.722322 0.407162 0.658021
0.722248 0.469637 0.65813
0.534804 0.282264 0.696786
0.534909 0.344802 0.696879
0.53479 0.407218 0.696863
0.534536 0.469754 0.696896
0.597203 0.282081 0.696847
0.597318 0.344641 0.696814
0.597211 0.407196 0.696838
0.597172 0.469676 0.696876
0.659754 0.28203 0.696758
0.659705 0.344641 0.696792
0.65963 0.407127 0.696771
0.65965 0.469695 0.696875
0.722121 0.282109 0.69683
0.722152 0.344573 0.696824
0.722158 0.407044 0.696803
0.722131 0.469562 0.696843
0.534962 0.282364 0.735668
0.535015 0.344847 0.735618
0.535033 0.407262 0.7356
0.534808 0.469709 0.735715
0.597191 0.282086 0.735659
0.597304 0.344729 0.73569
0.597242 0.40724 0.735652
0.597165 0.469749 0.735743
0.65958 0.281954 0.73563
0.659606 0.344695 0.735629
0.65953 0.407272 0.735569
0.659568 0.469783 0.735707
0.722003 0.282234 0.735672
0.721973 0.344718 0.735697
0.721844 0.407178 0.735572
0.721916 0.469688 0.73568
0.596993 0.46978 0.504099
0.659449 0.469296 0.503781
0.659768 0.407214 0.503974
0.722252 0.469612 0.503931
0.534325 0.407101 0.503958
0.722134 0.40673 0.503684
0.722185 0.344768 0.503881
0.597214 0.344795 0.503978
0.534518 0.344256 0.503915
0.659592 0.344171 0.503769
0.659685 0.282336 0.503896
0.534581 0.282371 0.504017
0.722286 0.281665 0.503823
0.597122 0.281679 0.503946
0.53436 0.282137 0.774433
0.534597 0.344657 0.774464
0.534738 0.4072 0.77454
0.53484 0.469693 0.774582
0.597219 0.282018 0.774497
0.59743 0.344608 0.774506
0.597439 0.407244 0.774519
0.597395 0.469754 0.774561
0.659527 0.282129 0.77447
0.659722 0.344654 0.774523
0.659781 0.407064 0.774536
0.659767 0.469591 0.774562
0.721891 0.282182 0.774537
0.721906 0.344564 0.77452
0.72196 0.407096 0.774474
0.721943 0.469438 0.77461
0.534839 0.282111 0.813291
0.53514 0.344606 0.813346
0.535217 0.407219 0.813364
0.535051 0.469835 0.813394
0.597361 0.28203 0.813218
0.597509 0.344545 0.813278
0.597571 0.407149 0.813338
0.597637 0.469828 0.813305
0.659866 0.282049 0.813282
0.659952 0.344598 0.813376
0.659868 0.407183 0.813392
0.65999 0.469795 0.813474
0.72214 0.282178 0.813381
0.72206 0.344574 0.813424
0.721955 0.40708 0.813364
0.722142 0.469565 0.813557
0.53498 0.282139 0.85217
0.535248 0.344647 0.852158
0.535446 0.407239 0.852105
0.535215 0.469788 0.852127
0.597412 0.281989 0.852039
0.597641 0.344622 0.852048
0.597666 0.407079 0.852144
0.597712 0.469683 0.852127
0.659813 0.281928 0.852109
0.659959 0.344562 0.852165
0.660077 0.407167 0.852237
0.66016 0.469673 0.852222
0.722336 0.282087 0.852173
0.722507 0.344472 0.852244
0.722452 0.406984 0.852231
0.722569 0.46957 0.852293
0.535286 0.282168 0.890875
0.535422 0.344636 0.890909
0.535585 0.407183 0.890902
0.535632 0.469739 0.89091
0.597674 0.281972 0.890892
0.597661 0.344593 0.890871
0.597734 0.407123 0.890942
0.597961 0.469674 0.890933
0.659987 0.281982 0.890883
0.660124 0.344551 0.890898
0.660126 0.407039 0.891025
0.660317 0.469632 0.891002
0.722502 0.282105 0.890968
0.722598 0.344472 0.891003
0.722717 0.407027 0.891002
0.722859 0.469561 0.891025
0.535066 0.282049 0.929636
0.535318 0.344494 0.929752
0.535576 0.407116 0.929758
0.535573 0.469647 0.929697
0.597568 0.28197 0.929644
0.597721 0.344686 0.929705
0.597804 0.407098 0.929843
0.598021 0.469686 0.929814
0.660055 0.282173 0.92969
0.660199 0.344497 0.929713
0.660359 0.407087 0.929801
0.66041 0.469568 0.929826
0.722625 0.282028 0.929704
0.722818 0.344554 0.929735
0.722871 0.406969 0.929768
0.723023 0.469515 0.929864
0.535072 0.282035 0.968451
0.535335 0.34443 0.968575
0.535316 0.406832 0.968732
0.535691 0.469586 0.968742
0.597488 0.281951 0.968633
0.597726 0.344414 0.968672
0.597935 0.407054 0.968781
0.597901 0.46935 0.96886
0.660008 0.28201 0.968499
0.660254 0.344542 0.968565
0.660296 0.406832 0.968791
0.660542 0.469538 0.968809
0.722422 0.282072 0.968601
0.722575 0.344434 0.968675
0.722971 0.406984 0.968742
0.722851 0.469222 0.968818
0.535631 0.531454 0.00694109
0.535507 0.594238 0.00698732
0.535646 0.65655 0.0069348
0.535348 0.719331 0.00712885
0.597983 0.531667 0.00702948
0.598068 0.593903 0.0068739
0.597876 0.656738 0.0070326
0.597977 0.719089 0.00695566
0.660582 0.531397 0.0069205
0.660465 0.594177 0.00700915
0.660457 0.656544 0.00693377
0.660317 0.719341 0.00708058
0.722907 0.531613 0.00703506
0.722909 0.593858 0.00689453
0.722816 0.656635 0.00708447
0.722883 0.719037 0.0069522
0.535632 0.531483 0.0453469
0.535743 0.593815 0.0451748
0.535618 0.656503 0.0453458
0.535563 0.718897 0.04522
0.598182 0.531242 0.0452067
0.598063 0.593933 0.0453241
0.598045 0.656311 0.0451998
0.597904 0.719052 0.0454012
0.660536 0.531355 0.0453384
0.660558 0.593781 0.0451422
0.660406 0.656451 0.045317
0.66045 0.718852 0.0451629
0.723048 0.531247 0.0451768
0.722977 0.593914 0.0452771
0.722869 0.656282 0.0452114
0.722791 0.719044 0.0453781
0.535665 0.53135 0.0834899
0.535594 0.593987 0.0836765
0.535612 0.656347 0.0834654
0.535443 0.719088 0.0836371
0.598061 0.531442 0.0836549
0.598102 0.59381 0.0834817
0.597988 0.656506 0.0836266
0.597888 0.718822 0.0834714
0.66057 0.531327 0.0834675
0.660494 0.593901 0.0835942
0.660463 0.656286 0.0834452
0.660383 0.719076 0.0836366
0.722954 0.531466 0.083637
0.722972 0.593821 0.0834336
0.722819 0.656496 0.0836273
0.722814 0.718796 0.0834404
0.535583 0.53148 0.121905
0.535604 0.593871 0.121773
0.535573 0.656556 0.12187
0.535427 0.718852 0.121726
0.598021 0.531311 0.121774
0.59806 0.593929 0.121893
0.597976 0.656285 0.121715
0.597843 0.719037 0.121891
0.660532 0.531464 0.121859
0.660476 0.593808 0.121692
0.660371 0.656481 0.121896
0.6603 0.718886 0.121728
0.723032 0.531339 0.121726
0.722984 0.593983 0.121906
0.722862 0.656327 0.121729
0.722744 0.719005 0.121892
0.535518 0.531371 0.159999
0.535507 0.594032 0.160144
0.535481 0.656422 0.159957
0.5354 0.719115 0.160132
0.597963 0.531461 0.160153
0.597982 0.593841 0.159983
0.597902 0.656494 0.160102
0.597789 0.718904 0.159952
0.66045 0.531343 0.159954
0.660404 0.59396 0.160073
0.660315 0.656348 0.15996
0.660293 0.719041 0.160112
0.722979 0.531474 0.160066
0.722895 0.593881 0.159935
0.722724 0.65652 0.160128
0.722652 0.718893 0.15996
0.535409 0.531598 0.19834
0.535328 0.593916 0.198236
0.535323 0.656613 0.198353
0.535225 0.718944 0.198192
0.597861 0.531311 0.198244
0.597888 0.594043 0.198364
0.597708 0.656373 0.19818
0.597746 0.719036 0.19834
0.660328 0.531503 0.198353
0.660291 0.593844 0.198165
0.660213 0.656508 0.198335
0.660136 0.718821 0.198171
0.722844 0.531372 0.198174
0.722761 0.594002 0.198329
0.722676 0.65639 0.198149
0.722633 0.719032 0.198292
0.535328 0.531436 0.236413
0.535206 0.594119 0.236573
0.535261 0.656438 0.236488
0.535126 0.719026 0.236569
0.597736 0.531494 0.236607
0.597717 0.593889 0.236419
0.597668 0.656513 0.236583
0.59762 0.718846 0.236415
0.660278 0.531331 0.236451
0.660215 0.594048 0.236599
0.660114 0.656408 0.236382
0.66004 0.719024 0.236546
0.72268 0.531455 0.236556
0.722741 0.59381 0.236398
0.722583 0.656536 0.236566
0.72257 0.718824 0.236383
0.535147 0.531602 0.274834
0.535146 0.593966 0.274637
0.535149 0.656572 0.274859
0.535014 0.718803 0.27462
0.597692 0.531344 0.274637
0.597663 0.594068 0.274744
0.597597 0.656408 0.274677
0.59743 0.719062 0.274771
0.66015 0.531533 0.274803
0.660087 0.593889 0.27463
0.660073 0.656604 0.274799
0.659965 0.718871 0.274625
0.72269 0.531343 0.274621
0.722651 0.594016 0.274754
0.722455 0.656384 0.274635
0.722413 0.719074 0.274802
0.535082 0.531411 0.312854
0.535008 0.594046 0.31302
0.53501 0.656452 0.312921
0.534885 0.719043 0.313002
0.597514 0.531487 0.312945
0.597585 0.593863 0.312869
0.597411 0.656524 0.313023
0.597464 0.718855 0.312867
0.660086 0.531405 0.312849
0.659944 0.593997 0.313014
0.659977 0.656466 0.312881
0.659819 0.719017 0.313045
0.722564 0.531547 0.312956
0.722483 0.593959 0.312846
0.722406 0.656572 0.31301
0.722287 0.718921 0.312859
0.534973 0.531556 0.351122
0.534972 0.593913 0.35106
0.534757 0.656535 0.351308
0.53488 0.718846 0.35111
0.597454 0.53133 0.351009
0.597415 0.594064 0.3512
0.597298 0.656406 0.351071
0.597314 0.719031 0.351286
0.659891 0.531563 0.351177
0.659794 0.5939 0.351114
0.659764 0.656521 0.351254
0.659779 0.718865 0.351152
0.722431 0.531352 0.350981
0.722331 0.594103 0.351212
0.722298 0.6564 0.351053
0.722168 0.719044 0.351264
0.534851 0.531458 0.38918
0.534759 0.594156 0.38937
0.534774 0.656491 0.389329
0.534724 0.719106 0.38953
0.597334 0.531619 0.389349
0.597297 0.593963 0.389246
0.597138 0.656641 0.389487
0.597185 0.719037 0.389367
0.65989 0.531473 0.389173
0.659791 0.594192 0.389449
0.6597 0.656602 0.389294
0.659653 0.719174 0.389555
0.722184 0.531622 0.389327
0.72219 0.594021 0.389227
0.722071 0.656794 0.389469
0.722074 0.718999 0.389369
0.534638 0.53173 0.427569
0.534612 0.594201 0.427388
0.534588 0.656715 0.427717
0.534569 0.719141 0.427606
0.597178 0.53166 0.427411
0.597161 0.594284 0.427606
0.597175 0.65661 0.427506
0.597149 0.719267 0.427789
0.659593 0.531717 0.427562
0.659703 0.594137 0.427522
0.659612 0.656769 0.427706
0.659554 0.719163 0.427663
0.722391 0.531611 0.427381
0.722141 0.5942 0.427593
0.722046 0.656597 0.427493
0.722162 0.719354 0.427801
0.534901 0.531695 0.4656
0.534849 0.594293 0.465807
0.534626 0.656681 0.465649
0.534667 0.719373 0.465922
0.59706 0.531782 0.465849
0.597043 0.594184 0.465714
0.597059 0.656882 0.46604
0.596946 0.719253 0.465868
0.65965 0.531722 0.465611
0.659517 0.594291 0.465854
0.659523 0.656762 0.465729
0.659603 0.719249 0.466003
0.722102 0.531595 0.465743
0.722138 0.59412 0.465639
0.722041 0.65673 0.465882
0.722066 0.71941 0.465858
0.534552 0.532051 0.504118
0.659319 0.719273 0.504103
0.659713 0.53218 0.504098
0.596907 0.719801 0.504274
0.533815 0.531976 0.542278
0.533834 0.59512 0.542516
0.533637 0.656869 0.542356
0.533892 0.72001 0.542633
0.596658 0.532604 0.542447
0.596338 0.594353 0.54243
0.596671 0.657554 0.542587
0.596448 0.719468 0.542472
0.6591 0.531962 0.5422
0.659208 0.59497 0.542346
0.659035 0.656868 0.54235
0.65906 0.719931 0.542579
0.721837 0.532505 0.542294
0.721546 0.594523 0.542261
0.721678 0.657511 0.542436
0.721488 0.719393 0.542329
0.53378 0.532321 0.580647
0.533635 0.594774 0.580671
0.533705 0.657289 0.580709
0.53378 0.719637 0.580742
0.596559 0.532404 0.580577
0.596602 0.594844 0.580713
0.596453 0.657348 0.580643
0.596678 0.719809 0.580827
0.659398 0.532356 0.580574
0.659221 0.594843 0.580541
0.659301 0.657279 0.58072
0.659064 0.719873 0.580679
0.721732 0.532267 0.580479
0.721717 0.594813 0.580517
0.721544 0.657357 0.58055
0.721792 0.719798 0.580734
0.533868 0.532217 0.619443
0.534008 0.594668 0.619513
0.534031 0.657122 0.619562
0.534319 0.71958 0.619661
0.596891 0.532254 0.619451
0.596835 0.594727 0.619438
0.596777 0.657253 0.619526
0.596758 0.719715 0.619652
0.659537 0.532188 0.619416
0.659538 0.594767 0.619491
0.65943 0.657214 0.619547
0.659408 0.719673 0.619617
0.722161 0.532177 0.619448
0.721831 0.594671 0.619389
0.722019 0.657184 0.619514
0.721945 0.719566 0.619578
0.534311 0.532189 0.658226
0.534246 0.594615 0.658265
0.534389 0.657001 0.658299
0.534512 0.719582 0.658403
0.597072 0.532213 0.65807
0.596958 0.594669 0.658223
0.596909 0.65711 0.65834
0.597041 0.719651 0.658425
0.659688 0.532237 0.658197
0.659569 0.594665 0.658262
0.659581 0.657277 0.658336
0.65965 0.719758 0.65839
0.722057 0.532079 0.658163
0.722029 0.5947 0.658284
0.722022 0.657224 0.658311
0.722108 0.719699 0.658345
0.534428 0.532223 0.696984
0.534615 0.594619 0.697067
0.534508 0.65724 0.697087
0.534443 0.719659 0.697173
0.597152 0.532225 0.696854
0.59711 0.594726 0.696973
0.597111 0.657249 0.697063
0.597209 0.719703 0.697199
0.659605 0.532226 0.696849
0.659665 0.594734 0.696957
0.659743 0.657281 0.697041
0.659684 0.719764 0.697113
0.722085 0.532196 0.696943
0.722186 0.594741 0.697014
0.722185 0.657217 0.697064
0.722193 0.719789 0.697116
0.534777 0.532092 0.735731
0.534731 0.594574 0.735762
0.534667 0.657097 0.735798
0.534694 0.719648 0.735919
0.5972 0.532253 0.735743
0.5973 0.594704 0.735736
0.597347 0.657196 0.735816
0.597329 0.719706 0.735939
0.659661 0.532225 0.735745
0.659696 0.594685 0.735765
0.659736 0.657178 0.735784
0.659752 0.719758 0.735883
0.7219 0.532145 0.735744
0.722036 0.594664 0.735707
0.722051 0.657141 0.735853
0.722161 0.719807 0.735906
0.722012 0.531785 0.503797
0.596916 0.656894 0.504009
0.722086 0.71988 0.504201
0.534338 0.719306 0.504126
0.659472 0.594286 0.504006
0.722096 0.656796 0.503967
0.534422 0.594316 0.504078
0.534394 0.657063 0.504295
0.59698 0.594782 0.504196
0.596773 0.531877 0.50397
0.722163 0.59475 0.503978
0.659515 0.65723 0.504163
0.534765 0.532251 0.774556
0.534722 0.594743 0.774578
0.534658 0.657237 0.774587
0.534613 0.719774 0.774666
0.597396 0.532263 0.774572
0.597395 0.594693 0.77456
0.597429 0.657324 0.774568
0.597301 0.719825 0.774678
0.659853 0.532097 0.774583
0.659908 0.594699 0.774569
0.659877 0.657296 0.774623
0.659885 0.719933 0.774689
0.721983 0.532049 0.77463
0.722154 0.594545 0.774568
0.722259 0.657202 0.774677
0.722177 0.719856 0.774721
0.534732 0.53235 0.813295
0.534756 0.594862 0.813321
0.534676 0.657385 0.813408
0.534542 0.719896 0.813411
0.597683 0.532462 0.81334
0.597601 0.594842 0.813306
0.597605 0.657337 0.813311
0.597582 0.720011 0.813413
0.660148 0.532269 0.813379
0.660197 0.594691 0.813393
0.660105 0.657338 0.813438
0.660012 0.719969 0.813459
0.722411 0.532024 0.813552
0.722447 0.594749 0.813415
0.722537 0.657247 0.813502
0.72248 0.71995 0.813579
0.534991 0.532284 0.852074
0.535147 0.594781 0.85201
0.535016 0.657397 0.852119
0.534812 0.71977 0.852166
0.597865 0.53221 0.852075
0.597848 0.594782 0.852047
0.59782 0.657471 0.852058
0.597662 0.72001 0.852165
0.660234 0.53228 0.852173
0.660259 0.594953 0.852176
0.660329 0.657441 0.852205
0.660302 0.719926 0.852252
0.72265 0.532188 0.852322
0.722704 0.594824 0.852164
0.72296 0.657328 0.852254
0.722873 0.719893 0.852323
0.5354 0.532282 0.890839
0.535488 0.594802 0.890813
0.535332 0.657295 0.890935
0.535307 0.719771 0.891012
0.598061 0.532341 0.890914
0.597949 0.594872 0.890852
0.597896 0.657418 0.890883
0.597789 0.719824 0.890981
0.66042 0.532166 0.891008
0.660528 0.594715 0.890951
0.660487 0.657293 0.890966
0.660519 0.719748 0.891018
0.723111 0.532085 0.891022
0.723039 0.594615 0.890977
0.723075 0.657249 0.891024
0.722974 0.719801 0.891167
0.535636 0.532208 0.929698
0.535659 0.594618 0.929712
0.535757 0.657227 0.929809
0.535514 0.719696 0.929909
0.598014 0.532125 0.929801
0.598081 0.594742 0.929742
0.598005 0.657266 0.929798
0.598046 0.719818 0.929786
0.660588 0.532147 0.929767
0.660585 0.594664 0.929718
0.660627 0.657227 0.929779
0.660455 0.719665 0.929829
0.723071 0.531975 0.929825
0.723156 0.59467 0.929799
0.723167 0.65712 0.929869
0.723231 0.719758 0.929905
0.535595 0.531886 0.968791
0.535778 0.594513 0.968629
0.535563 0.65692 0.968811
0.535597 0.719675 0.968794
0.598165 0.532112 0.968747
0.598006 0.594387 0.968771
0.598183 0.657142 0.968728
0.597894 0.7195 0.968881
0.660438 0.53189 0.968792
0.660637 0.594599 0.968717
0.660393 0.656949 0.968786
0.660537 0.719725 0.968728
0.72311 0.531915 0.968707
0.722884 0.594243 0.968795
0.723087 0.657067 0.968734
0.722825 0.719467 0.968883
0.535294 0.781669 0.00705309
0.53507 0.844515 0.00699546
0.534691 0.90663 0.00694387
0.534689 0.969521 0.00666089
0.597548 0.781901 0.00717274
0.597341 0.844154 0.00711368
0.597373 0.906995 0.00671658
0.596966 0.969103 0.00679311
0.660248 0.78168 0.0070581
0.660042 0.84442 0.007008
0.659604 0.906625 0.00697045
0.659653 0.969537 0.00666428
0.722505 0.781887 0.00718533
0.722375 0.84413 0.00712963
0.722434 0.906973 0.00682765
0.722121 0.969168 0.00689791
0.535295 0.78155 0.045518
0.534929 0.843721 0.0453884
0.534967 0.906532 0.0449157
0.53031 0.969273 0.0450644
0.597873 0.781345 0.0452698
0.597518 0.844051 0.0452431
0.597191 0.906326 0.0451734
0.592836 0.969001 0.0451364
0.660121 0.781581 0.0454498
0.659824 0.843723 0.0454132
0.659824 0.906552 0.0449169
0.655105 0.969313 0.0450676
0.722769 0.78138 0.0452681
0.722499 0.844107 0.0452223
0.722158 0.906362 0.0452208
0.717827 0.969045 0.0451339
0.535451 0.781314 0.0835842
0.53515 0.844035 0.0833832
0.530536 0.906809 0.0833283
0.530553 0.968907 0.0834931
0.597834 0.781553 0.0837566
0.597262 0.84376 0.0837462
0.593148 0.906324 0.0834749
0.592932 0.969107 0.0832927
0.660304 0.781359 0.0835288
0.660089 0.844044 0.0833968
0.65539 0.906761 0.083331
0.655383 0.968957 0.0834598
0.7227 0.781503 0.0837393
0.722237 0.843748 0.0836984
0.718087 0.906426 0.0834601
0.717868 0.969163 0.0832639
0.535295 0.78152 0.122067
0.534818 0.843827 0.122084
0.53066 0.906405 0.121821
0.530519 0.969004 0.121597
0.597809 0.781405 0.12176
0.597472 0.843986 0.121602
0.593201 0.906643 0.121473
0.592983 0.968953 0.121647
0.660199 0.781552 0.122083
0.659696 0.84388 0.122111
0.655593 0.906404 0.121797
0.655494 0.969033 0.12158
0.722693 0.781357 0.121745
0.722381 0.843949 0.121575
0.718155 0.906672 0.121473
0.717894 0.968943 0.121625
0.535361 0.781467 0.159994
0.53501 0.844009 0.159842
0.530819 0.906616 0.159707
0.530571 0.968992 0.159899
0.597805 0.781551 0.160245
0.59731 0.843878 0.160312
0.593319 0.906528 0.16005
0.593114 0.969122 0.159823
0.660258 0.781438 0.16002
0.659934 0.844005 0.159847
0.655775 0.906525 0.15973
0.65549 0.968904 0.159884
0.722656 0.781542 0.160231
0.722164 0.843862 0.160325
0.718224 0.90653 0.160044
0.717948 0.969116 0.159816
0.535268 0.781557 0.198424
0.53482 0.843816 0.198543
0.530844 0.906457 0.198281
0.530619 0.969067 0.198013
0.597706 0.781324 0.198186
0.597511 0.843949 0.198011
0.593268 0.906611 0.19797
0.593124 0.968926 0.198173
0.660121 0.781467 0.19851
0.659741 0.843734 0.198555
0.655728 0.906318 0.198253
0.655531 0.969002 0.198021
0.722607 0.781316 0.198217
0.722368 0.843901 0.198069
0.718258 0.906588 0.197939
0.717958 0.968965 0.198127
0.535207 0.781254 0.236368
0.535023 0.843824 0.236251
0.530787 0.906505 0.236208
0.530548 0.968916 0.236341
0.597624 0.781482 0.236712
0.597196 0.843688 0.236759
0.59325 0.90639 0.236546
0.593026 0.969018 0.236223
0.660155 0.781287 0.236455
0.659846 0.843855 0.23626
0.655723 0.906449 0.236193
0.655474 0.968776 0.236337
0.72256 0.781491 0.236667
0.722038 0.84366 0.236785
0.718209 0.906293 0.23646
0.717943 0.968993 0.236238
0.535017 0.781468 0.274897
0.534589 0.843712 0.275034
0.530696 0.906245 0.274788
0.530389 0.968869 0.274442
0.597461 0.781296 0.274657
0.597346 0.843825 0.274498
0.593242 0.906434 0.274453
0.592922 0.968746 0.274572
0.659981 0.781504 0.274898
0.659529 0.843687 0.274982
0.65558 0.906245 0.274753
0.655378 0.968895 0.274408
0.722486 0.781273 0.274636
0.72222 0.843851 0.27448
0.717965 0.906482 0.274437
0.717793 0.968748 0.274579
0.534983 0.781219 0.312885
0.53474 0.84378 0.312732
0.530477 0.906375 0.312699
0.530285 0.968681 0.31278
0.597376 0.781426 0.31311
0.596844 0.843613 0.313295
0.593032 0.906153 0.313037
0.592701 0.968804 0.312656
0.659846 0.78124 0.312848
0.659696 0.843771 0.312716
0.655421 0.906402 0.312704
0.655171 0.968668 0.312801
0.722341 0.781434 0.313117
0.721845 0.843664 0.313259
0.717997 0.906195 0.313042
0.717596 0.968807 0.312684
0.534892 0.781377 0.351435
0.534488 0.843655 0.351496
0.530328 0.90623 0.351244
0.530103 0.968788 0.350869
0.597278 0.781296 0.351141
0.597084 0.843766 0.350988
0.592737 0.906373 0.350873
0.592713 0.968607 0.35104
0.6598 0.781379 0.351391
0.659398 0.843724 0.351494
0.655338 0.906263 0.351279
0.655067 0.968798 0.350884
0.722286 0.781291 0.351093
0.721993 0.843738 0.350967
0.717728 0.90635 0.350895
0.717686 0.968651 0.351066
0.534701 0.781384 0.389344
0.534692 0.843886 0.389175
0.530208 0.906427 0.389139
0.530095 0.968845 0.389297
0.597288 0.781542 0.389658
0.596928 0.843844 0.389739
0.592729 0.906487 0.389423
0.592524 0.968852 0.389085
0.659703 0.781372 0.389321
0.659694 0.843903 0.389202
0.655211 0.906424 0.389179
0.655023 0.968884 0.389242
0.722227 0.78151 0.389604
0.721776 0.843773 0.389747
0.717623 0.906428 0.389416
0.717572 0.968803 0.389088
0.534737 0.781709 0.427882
0.534503 0.844179 0.427852
0.534484 0.906376 0.427535
0.530107 0.968849 0.427329
0.597215 0.781621 0.427574
0.597127 0.844055 0.427534
0.596727 0.90648 0.427842
0.592515 0.969101 0.427549
0.659684 0.781716 0.427886
0.659452 0.844121 0.427845
0.659482 0.906496 0.427558
0.655117 0.968883 0.427327
0.722083 0.78168 0.427514
0.722045 0.844058 0.427485
0.72176 0.90655 0.427762
0.717606 0.96916 0.427483
0.534652 0.782011 0.465826
0.534786 0.844365 0.465809
0.534222 0.907036 0.466128
0.534421 0.9692 0.465762
0.597179 0.781918 0.46613
0.596966 0.844589 0.466135
0.596988 0.906848 0.465761
0.596789 0.96964 0.465932
0.659506 0.781949 0.465811
0.659618 0.844425 0.465794
0.659334 0.907109 0.466034
0.659519 0.969238 0.465747
0.722188 0.782008 0.466094
0.721917 0.84463 0.466063
0.721976 0.906987 0.465743
0.721926 0.969761 0.46581
0.721889 0.84505 0.504075
0.596786 0.844853 0.504101
0.659484 0.969535 0.504189
0.721957 0.970105 0.50391
0.65933 0.907565 0.504054
0.533842 0.78187 0.542484
0.533714 0.844938 0.54243
0.533829 0.906805 0.542539
0.533782 0.969965 0.542321
0.59659 0.782557 0.542535
0.596682 0.84445 0.542543
0.596349 0.907571 0.54243
0.596477 0.969407 0.542401
0.659041 0.781973 0.542441
0.658964 0.844992 0.542398
0.659164 0.906983 0.542544
0.659042 0.970034 0.542267
0.721692 0.782438 0.542553
0.721818 0.844465 0.54253
0.721622 0.907504 0.542317
0.721861 0.969326 0.542427
0.534185 0.782199 0.580889
0.53423 0.84472 0.580814
0.534107 0.907139 0.580698
0.534219 0.969627 0.58068
0.596574 0.782226 0.580733
0.59665 0.844754 0.580749
0.596672 0.907254 0.58071
0.596483 0.96961 0.580525
0.659265 0.782341 0.580821
0.659279 0.844762 0.580737
0.659173 0.907253 0.580672
0.659338 0.969703 0.58064
0.721774 0.782272 0.580701
0.721841 0.844762 0.580657
0.721986 0.907135 0.580654
0.721877 0.969572 0.580512
0.53429 0.782171 0.619739
0.534315 0.844641 0.6197
0.534468 0.907096 0.619676
0.534362 0.969673 0.619584
0.596961 0.782257 0.619709
0.596899 0.844643 0.619744
0.596925 0.907184 0.619647
0.597062 0.969579 0.619598
0.659417 0.782204 0.619693
0.659448 0.844785 0.619642
0.65948 0.907244 0.619618
0.659412 0.969773 0.619586
0.722154 0.782076 0.619631
0.722212 0.844543 0.619608
0.722093 0.907156 0.619502
0.722144 0.969673 0.619473
0.534506 0.782108 0.658446
0.53448 0.844616 0.658488
0.534467 0.907219 0.658477
0.534611 0.969697 0.658406
0.597162 0.782201 0.658437
0.596956 0.844742 0.658504
0.596937 0.907239 0.658551
0.596969 0.969715 0.658446
0.659619 0.78221 0.658426
0.659595 0.844697 0.658448
0.659499 0.907207 0.65841
0.659503 0.969763 0.658434
0.722219 0.782097 0.658396
0.722295 0.844725 0.658356
0.722119 0.90727 0.658332
0.722077 0.969838 0.658267
0.534627 0.782198 0.697282
0.534472 0.844795 0.697287
0.534325 0.907244 0.697335
0.534384 0.969638 0.697218
0.59712 0.782307 0.697205
0.596959 0.844848 0.697278
0.596949 0.907244 0.697331
0.596821 0.969622 0.697288
0.659718 0.782218 0.697169
0.65959 0.84488 0.697252
0.659724 0.907337 0.697213
0.659524 0.969813 0.69716
0.722269 0.782317 0.697122
0.722122 0.844754 0.697084
0.722154 0.90733 0.69712
0.721996 0.96988 0.697046
0.534619 0.782199 0.736068
0.53436 0.844739 0.736039
0.534135 0.907164 0.735971
0.534134 0.969641 0.735976
0.597311 0.78224 0.73599
0.597129 0.844861 0.735957
0.597095 0.907338 0.735971
0.597056 0.969764 0.735961
0.659748 0.782346 0.735989
0.659695 0.844925 0.736027
0.659745 0.907434 0.735948
0.659611 0.969927 0.736014
0.722214 0.78239 0.735929
0.722188 0.844849 0.735913
0.722151 0.907346 0.735952
0.722083 0.969746 0.735919
0.53445 0.782365 0.504356
0.721863 0.781929 0.504015
0.659513 0.78241 0.504309
0.596925 0.781788 0.504071
0.534519 0.84441 0.504351
0.659442 0.844397 0.504284
0.596908 0.970029 0.503945
0.534465 0.969564 0.50422
0.596876 0.906891 0.504259
0.721987 0.906962 0.504151
0.534305 0.907608 0.504143
0.534627 0.782272 0.774768
0.534464 0.844845 0.774758
0.534089 0.907377 0.77475
0.533946 0.969833 0.774758
0.59713 0.782343 0.774787
0.597099 0.844909 0.774742
0.597036 0.907482 0.774727
0.596992 0.969882 0.77475
0.659832 0.782449 0.774826
0.659924 0.84493 0.774854
0.659795 0.907331 0.774777
0.659595 0.96973 0.774777
0.722131 0.782307 0.774741
0.722268 0.844802 0.774815
0.722281 0.907508 0.774822
0.722276 0.969867 0.774727
0.534471 0.782328 0.813532
0.534431 0.844741 0.813539
0.534311 0.907248 0.813461
0.534099 0.969754 0.813449
0.59746 0.782502 0.813554
0.597365 0.844869 0.813579
0.59713 0.907332 0.813558
0.59698 0.969738 0.813484
0.660077 0.782465 0.81367
0.660175 0.844974 0.81359
0.660003 0.90747 0.813563
0.659952 0.96986 0.813565
0.722367 0.782345 0.813657
0.722542 0.844882 0.813627
0.722573 0.907376 0.813596
0.722418 0.9699 0.813535
0.534799 0.782251 0.852275
0.534702 0.844696 0.852355
0.534487 0.907312 0.852212
0.53429 0.969759 0.852199
0.597506 0.782342 0.852317
0.597388 0.844901 0.852288
0.597329 0.907349 0.852303
0.597205 0.969802 0.852208
0.660274 0.782429 0.852396
0.66021 0.84486 0.852382
0.660101 0.907428 0.852319
0.660043 0.969857 0.852272
0.722903 0.782373 0.852433
0.722925 0.845034 0.85242
0.722882 0.907538 0.85236
0.722832 0.969961 0.852272
0.535192 0.78229 0.89113
0.534995 0.844702 0.891086
0.534823 0.907312 0.891037
0.53457 0.969829 0.891021
0.59777 0.78229 0.891089
0.597737 0.844781 0.891047
0.597524 0.907337 0.891003
0.597415 0.969768 0.890946
0.660336 0.782269 0.89117
0.660294 0.844761 0.891137
0.660236 0.907394 0.891033
0.659969 0.969983 0.890983
0.723063 0.782313 0.891168
0.723042 0.844745 0.891152
0.722923 0.907376 0.89111
0.722843 0.97 0.890915
0.535486 0.78232 0.929953
0.535112 0.84484 0.929953
0.534812 0.907356 0.929844
0.53464 0.969877 0.929721
0.59776 0.782322 0.929932
0.59766 0.844923 0.929887
0.597593 0.907309 0.929777
0.59725 0.969835 0.929707
0.6604 0.7824 0.929952
0.660294 0.844787 0.929912
0.660135 0.907464 0.929832
0.660084 0.969846 0.929748
0.723025 0.782228 0.930013
0.722966 0.844916 0.929921
0.722869 0.907349 0.929883
0.722693 0.97002 0.929771
0.535266 0.782007 0.968931
0.535059 0.844796 0.968875
0.535027 0.907218 0.968663
0.534669 0.969973 0.968626
0.597841 0.782259 0.968872
0.597654 0.84457 0.968862
0.597315 0.907422 0.968772
0.597234 0.9698 0.968491
0.660245 0.781927 0.968939
0.66017 0.844786 0.96886
0.660037 0.907094 0.968693
0.659685 0.969936 0.968652
0.722813 0.782333 0.96892
0.722665 0.844596 0.968877
0.72242 0.907518 0.968865
0.722434 0.969805 0.968624
0.780221 0.0322938 0.00697658
0.780616 0.0940919 0.00710786
0.780546 0.157247 0.00698773
0.780887 0.218781 0.00699106
0.843001 0.0317746 0.00716404
0.842967 0.0948706 0.00707087
0.843383 0.156519 0.00713785
0.843232 0.219647 0.00694061
0.905397 0.0323402 0.00707325
0.905793 0.0941352 0.00720585
0.90574 0.157285 0.00707959
0.906117 0.218834 0.00711969
0.968164 0.0316921 0.00720733
0.968081 0.0948139 0.00709176
0.968569 0.156564 0.00714281
0.968496 0.219781 0.00697922
0.780333 0.0315776 0.0453074
0.780314 0.0943168 0.0452278
0.780501 0.156565 0.0453575
0.780561 0.219218 0.0451483
0.842756 0.0318831 0.0452547
0.84299 0.0941547 0.0454039
0.843041 0.156858 0.0452364
0.843272 0.218969 0.0452957
0.905539 0.0315787 0.0453794
0.905528 0.0943366 0.0452776
0.905783 0.156601 0.0453852
0.905771 0.219286 0.0452322
0.967956 0.0318512 0.0453239
0.968169 0.0939897 0.0454125
0.968232 0.156749 0.045294
0.968448 0.218933 0.0453622
0.780353 0.0317154 0.083425
0.780563 0.0940732 0.0835397
0.7806 0.156734 0.0834247
0.780869 0.219012 0.083561
0.842897 0.0315039 0.0835477
0.842989 0.0943164 0.0834916
0.843352 0.156471 0.0835815
0.843367 0.219197 0.0834141
0.905392 0.0316998 0.0834494
0.905732 0.0940303 0.083616
0.905792 0.156748 0.0835204
0.905949 0.218962 0.0835859
0.968033 0.0313996 0.0836465
0.968076 0.0941301 0.0835418
0.968377 0.156419 0.0836427
0.968432 0.21914 0.0834701
0.780498 0.0314808 0.121735
0.780583 0.0941843 0.121656
0.780756 0.156477 0.121834
0.780932 0.219109 0.121612
0.842948 0.0316876 0.121633
0.84311 0.0940027 0.12181
0.84333 0.156698 0.121673
0.843461 0.218919 0.121802
0.905486 0.0314896 0.121788
0.90562 0.0941753 0.121742
0.905821 0.156417 0.121922
0.905957 0.219114 0.121711
0.967947 0.031568 0.121706
0.968208 0.0939067 0.121877
0.968355 0.156592 0.121694
0.968471 0.218865 0.121821
0.780508 0.0316191 0.159802
0.780699 0.0940185 0.160022
0.78073 0.156621 0.159892
0.780815 0.218839 0.159972
0.843037 0.0314212 0.159972
0.843124 0.0941496 0.15987
0.843248 0.156447 0.16005
0.84331 0.219113 0.159868
0.905499 0.0316153 0.15988
0.9056 0.0938674 0.160096
0.905765 0.156566 0.159976
0.905903 0.21881 0.160069
0.968067 0.0313694 0.160064
0.968201 0.0940418 0.159993
0.968331 0.156311 0.160081
0.968418 0.219068 0.159885
0.780455 0.0314376 0.198148
0.780562 0.0940935 0.198072
0.780608 0.156375 0.198292
0.780694 0.219079 0.198068
0.84296 0.0315962 0.198027
0.843067 0.0939087 0.198223
0.843136 0.156638 0.198113
0.843233 0.218903 0.198232
0.905455 0.0314197 0.19819
0.905575 0.0941182 0.198137
0.905708 0.156471 0.198323
0.905775 0.219068 0.198083
0.967948 0.0315323 0.1981
0.968112 0.0938181 0.198308
0.96817 0.156503 0.198164
0.968278 0.218818 0.198278
0.780372 0.03154 0.236242
0.780396 0.0938476 0.236451
0.780469 0.156564 0.236324
0.780556 0.218849 0.236448
0.842877 0.0313639 0.236364
0.842933 0.0939727 0.236307
0.843022 0.15629 0.236498
0.843095 0.218989 0.236273
0.905423 0.0315102 0.236217
0.905443 0.0938662 0.236464
0.905546 0.156529 0.236329
0.905651 0.218844 0.236469
0.967969 0.0313195 0.236385
0.968091 0.0939665 0.236372
0.968112 0.156323 0.236477
0.968173 0.218988 0.236331
0.780246 0.031223 0.274597
0.780238 0.0938983 0.274533
0.780385 0.156251 0.274687
0.780494 0.218946 0.274481
0.842707 0.0314091 0.274434
0.842802 0.0937342 0.274661
0.842856 0.156294 0.274541
0.842964 0.218716 0.274646
0.90526 0.0312817 0.274549
0.905265 0.0939308 0.274485
0.905451 0.156263 0.274671
0.905463 0.218944 0.274482
0.967739 0.0314366 0.274409
0.96792 0.0937258 0.274738
0.968027 0.156402 0.274476
0.968079 0.218717 0.274669
0.780094 0.031202 0.312661
0.780132 0.0936127 0.312895
0.780324 0.156352 0.312722
0.780368 0.218701 0.312803
0.842563 0.0311479 0.312817
0.842597 0.0937967 0.312687
0.8428 0.156219 0.312869
0.842849 0.218943 0.312651
0.905113 0.0313068 0.31258
0.905216 0.0936674 0.312826
0.905336 0.156351 0.312622
0.905477 0.218702 0.312829
0.967712 0.0311706 0.312765
0.96775 0.0938067 0.312738
0.967939 0.156165 0.312813
0.967981 0.218875 0.312656
0.780138 0.0311027 0.351023
0.780174 0.0936155 0.350912
0.780237 0.156165 0.351057
0.780217 0.218764 0.350792
0.842513 0.0312379 0.35084
0.842621 0.0936196 0.351001
0.842734 0.156152 0.350865
0.842797 0.218731 0.350989
0.905077 0.0312323 0.350987
0.905179 0.0937661 0.350847
0.905236 0.156214 0.350971
0.905395 0.218791 0.350792
0.967589 0.031259 0.350835
0.967635 0.0936361 0.351039
0.967744 0.156174 0.350787
0.967871 0.218705 0.350947
0.780062 0.0311677 0.389069
0.780074 0.0936501 0.389187
0.78016 0.156226 0.389042
0.780117 0.21877 0.389115
0.842476 0.03115 0.389202
0.842551 0.0936944 0.388977
0.842622 0.15617 0.389152
0.84268 0.218606 0.388949
0.904905 0.0312274 0.38901
0.905057 0.0936864 0.389172
0.90517 0.15617 0.388987
0.905204 0.218752 0.389102
0.967443 0.0310847 0.389158
0.96751 0.0936571 0.38901
0.967515 0.156168 0.389123
0.967705 0.218576 0.388963
0.780127 0.0318134 0.427398
0.780552 0.0934656 0.427308
0.780259 0.156706 0.427406
0.780559 0.21844 0.42706
0.842735 0.0310278 0.42727
0.842592 0.0942428 0.427351
0.843022 0.155971 0.427256
0.84268 0.219166 0.427259
0.904983 0.0317196 0.427389
0.905382 0.0935023 0.427188
0.905152 0.156687 0.427374
0.905564 0.218507 0.427137
0.967603 0.0310549 0.427209
0.967597 0.0941372 0.427361
0.967952 0.155949 0.427222
0.967747 0.219135 0.427311
0.784331 0.0323764 0.465788
0.784502 0.0941822 0.46557
0.784432 0.157347 0.465789
0.784723 0.219111 0.465374
0.846831 0.0317342 0.465624
0.846863 0.0950008 0.465799
0.847034 0.156677 0.465602
0.84707 0.21994 0.465683
0.909231 0.0323214 0.465828
0.909449 0.0941818 0.465624
0.909384 0.15744 0.465786
0.909587 0.219091 0.465467
0.971768 0.0317043 0.46558
0.971732 0.0949349 0.465746
0.971997 0.156591 0.465589
0.972047 0.219774 0.465691
0.784104 0.0318493 0.542346
0.784086 0.0950566 0.54222
0.784352 0.157008 0.542326
0.784111 0.220133 0.542173
0.846575 0.032519 0.542237
0.846729 0.0943772 0.542264
0.84665 0.157619 0.542183
0.846916 0.219532 0.542269
0.909207 0.0319307 0.542342
0.909078 0.0950733 0.542232
0.909308 0.156946 0.542325
0.909264 0.219966 0.542161
0.971394 0.0324269 0.542311
0.971684 0.0944017 0.542359
0.971754 0.157461 0.542262
0.971832 0.219414 0.542301
0.784307 0.03223 0.580462
0.784458 0.0946642 0.580483
0.784432 0.157229 0.580411
0.784519 0.219704 0.580442
0.846886 0.0322645 0.580587
0.846812 0.0948043 0.580509
0.847042 0.157292 0.580559
0.846973 0.219697 0.580457
0.909155 0.0322434 0.580519
0.909441 0.0947202 0.580594
0.909337 0.157175 0.580423
0.909598 0.219693 0.580534
0.971673 0.0322328 0.580593
0.971595 0.0946779 0.580514
0.971865 0.157211 0.580619
0.971807 0.219661 0.580474
0.784703 0.0321771 0.619517
0.784559 0.0945868 0.619431
0.784655 0.157009 0.619357
0.784644 0.219519 0.619396
0.846949 0.0322217 0.619503
0.847152 0.0946426 0.619509
0.847082 0.157177 0.619449
0.847163 0.219662 0.619467
0.909507 0.0321578 0.619548
0.909495 0.0946643 0.619488
0.909668 0.157181 0.619449
0.909744 0.219651 0.619435
0.971914 0.0322247 0.61945
0.972018 0.0945772 0.619479
0.972049 0.157039 0.619498
0.972158 0.219514 0.619479
0.784589 0.0322735 0.658309
0.784574 0.0945885 0.658268
0.784678 0.157026 0.658217
0.784694 0.219451 0.658178
0.847142 0.0322474 0.658384
0.847212 0.0947133 0.658328
0.847244 0.157173 0.658308
0.847164 0.219769 0.658192
0.909411 0.0321727 0.658368
0.909607 0.0946446 0.658328
0.909604 0.157254 0.658266
0.909672 0.21976 0.658258
0.972037 0.0322332 0.65829
0.972047 0.0945929 0.658324
0.972099 0.15711 0.658317
0.972163 0.219602 0.658271
0.784495 0.0322872 0.69714
0.784492 0.0947938 0.697098
0.784534 0.157264 0.697058
0.784547 0.219565 0.696998
0.846959 0.0323376 0.697194
0.846962 0.0947755 0.697081
0.84704 0.157179 0.697072
0.847081 0.219718 0.696962
0.909447 0.0323139 0.69717
0.909494 0.0947328 0.697099
0.909555 0.157246 0.697053
0.909508 0.219722 0.69699
0.971942 0.032243 0.697054
0.972012 0.0946242 0.697103
0.972048 0.157145 0.697101
0.972185 0.219709 0.697012
0.784481 0.0323005 0.735814
0.784591 0.0949291 0.735862
0.784559 0.157405 0.735836
0.784493 0.219857 0.735807
0.847067 0.0323895 0.735892
0.847134 0.0948661 0.735828
0.847004 0.157377 0.735832
0.846981 0.219818 0.735767
0.909414 0.0322743 0.735942
0.909492 0.0948503 0.735861
0.909649 0.157396 0.735879
0.909652 0.219761 0.73573
0.971959 0.0323111 0.735873
0.971961 0.0947777 0.735871
0.972084 0.157289 0.735847
0.972208 0.219882 0.735774
0.784951 0.219328 0.503967
0.90985 0.219366 0.504002
0.784523 0.0944773 0.50402
0.971849 0.0320163 0.504088
0.972091 0.219902 0.503804
0.847008 0.032019 0.504073
0.846957 0.0951037 0.503856
0.784359 0.0325977 0.50386
0.909585 0.0945348 0.504097
0.909438 0.0325986 0.503918
0.97186 0.0951368 0.503872
0.972104 0.156886 0.50402
0.847151 0.156978 0.504087
0.784555 0.157398 0.503857
0.847088 0.220091 0.503798
0.909568 0.157592 0.503892
0.784524 0.0324003 0.774683
0.784536 0.0949027 0.774691
0.784325 0.157413 0.77461
0.784198 0.219875 0.774572
0.847196 0.0324172 0.774647
0.847138 0.0949084 0.774667
0.847088 0.157347 0.774595
0.847103 0.219817 0.774429
0.909481 0.0323789 0.77471
0.90954 0.094881 0.774594
0.909583 0.15745 0.774582
0.909655 0.219873 0.774463
0.971801 0.0324743 0.774666
0.971782 0.0949292 0.774653
0.971839 0.157338 0.774612
0.9721 0.219866 0.774529
0.784936 0.0322408 0.813498
0.785049 0.094931 0.813471
0.784978 0.15742 0.813377
0.78475 0.219908 0.813309
0.847355 0.0323789 0.813451
0.847352 0.0949494 0.813487
0.847243 0.157561 0.813452
0.847186 0.219894 0.813272
0.909475 0.032419 0.813458
0.909549 0.0950499 0.813444
0.909608 0.157474 0.813416
0.909538 0.219964 0.813264
0.971753 0.0323773 0.813484
0.971868 0.0948116 0.81346
0.971867 0.157382 0.813408
0.971894 0.219752 0.813273
0.785086 0.0325758 0.85224
0.785036 0.0947345 0.852262
0.785078 0.157536 0.852239
0.784652 0.219694 0.852181
0.847622 0.0323335 0.85226
0.847602 0.0949759 0.852278
0.847483 0.157413 0.852291
0.8475 0.220002 0.852187
0.909818 0.0323568 0.85231
0.909735 0.0948393 0.85229
0.909781 0.157354 0.852311
0.909857 0.219812 0.852158
0.972001 0.0324476 0.852361
0.971877 0.0948834 0.852338
0.971869 0.157309 0.852269
0.972038 0.219718 0.852131
0.785231 0.032493 0.891037
0.785096 0.0948935 0.891062
0.785095 0.157343 0.891022
0.784963 0.219699 0.890951
0.847613 0.0323928 0.891068
0.847723 0.0948893 0.891124
0.847581 0.157396 0.891125
0.847585 0.219641 0.891001
0.90985 0.0323622 0.891157
0.909865 0.0948631 0.891164
0.909958 0.157281 0.891109
0.910056 0.219774 0.891055
0.972095 0.0323297 0.891173
0.972174 0.0948365 0.891149
0.972158 0.157354 0.891111
0.972373 0.219794 0.891014
0.785043 0.0324899 0.929823
0.785024 0.0948265 0.929777
0.784905 0.157393 0.929783
0.785084 0.219576 0.929757
0.847617 0.0324699 0.929872
0.847432 0.0949505 0.929959
0.847592 0.157232 0.9299
0.847649 0.219755 0.929883
0.909881 0.0324436 0.929985
0.910193 0.0948251 0.92997
0.91007 0.157405 0.929933
0.910305 0.219672 0.929884
0.972454 0.0323596 0.929883
0.972437 0.0949514 0.929964
0.972647 0.157251 0.929911
0.972583 0.21981 0.929829
0.784775 0.0323175 0.968675
0.784454 0.0947044 0.968773
0.784628 0.157268 0.968666
0.784789 0.21955 0.96873
0.847356 0.0324299 0.968859
0.84741 0.094939 0.96876
0.84728 0.157175 0.968821
0.847485 0.219774 0.968625
0.909954 0.0322984 0.968779
0.909875 0.0947072 0.968903
0.909914 0.157357 0.968802
0.910041 0.219643 0.968845
0.972368 0.0323431 0.968863
0.97234 0.0949051 0.968813
0.972407 0.157223 0.968865
0.972666 0.219909 0.96867
0.780723 0.281806 0.00692485
0.785283 0.344436 0.00682078
0.78552 0.406538 0.0069386
0.785466 0.469194 0.00711572
0.843575 0.281308 0.00692682
0.848038 0.343995 0.00678526
0.847961 0.406776 0.00707337
0.848134 0.468837 0.0070324
0.905931 0.281884 0.00698695
0.910549 0.344462 0.00684137
0.910604 0.406555 0.00698769
0.910607 0.469276 0.00707052
0.96877 0.281441 0.00695922
0.97315 0.344139 0.00672254
0.973033 0.406931 0.00700693
0.973125 0.46903 0.00691892
0.780904 0.281211 0.0452352
0.781198 0.343985 0.0452901
0.785539 0.406406 0.0453945
0.785687 0.468698 0.0453195
0.843397 0.28161 0.0451047
0.843832 0.343509 0.045016
0.84813 0.406323 0.0451627
0.848206 0.468967 0.0453915
0.906122 0.28124 0.0452641
0.906228 0.344007 0.0453295
0.910632 0.406485 0.0454295
0.910748 0.468789 0.0453266
0.9685 0.281619 0.0451532
0.968902 0.34353 0.0449342
0.973231 0.406419 0.0451491
0.973234 0.469113 0.045311
0.780786 0.281634 0.0832735
0.781362 0.343788 0.0831081
0.785474 0.406359 0.0833503
0.785564 0.468976 0.0836316
0.843546 0.281371 0.0834675
0.843806 0.343902 0.0836626
0.848021 0.406464 0.0837198
0.848212 0.468826 0.0835539
0.905949 0.281603 0.0833726
0.906552 0.343807 0.0831343
0.910654 0.406402 0.0833969
0.910721 0.469006 0.083659
0.968615 0.281374 0.0835227
0.968796 0.343988 0.0836673
0.973042 0.406573 0.0837116
0.973351 0.468932 0.083566
0.780967 0.28131 0.121736
0.781281 0.343865 0.121843
0.78546 0.406503 0.12195
0.78562 0.468791 0.121813
0.843472 0.281572 0.121523
0.844017 0.343725 0.121328
0.847972 0.406355 0.121597
0.84813 0.468979 0.121873
0.906111 0.281293 0.121766
0.906401 0.343904 0.121915
0.910582 0.40657 0.121961
0.910759 0.468877 0.121799
0.968447 0.281546 0.121549
0.9691 0.343767 0.121411
0.972999 0.406427 0.121632
0.973283 0.469119 0.121931
0.780837 0.281504 0.15971
0.781472 0.343683 0.159561
0.785359 0.406318 0.159859
0.785541 0.468953 0.160121
0.843421 0.281348 0.159961
0.84372 0.343871 0.160077
0.84789 0.406529 0.160145
0.848131 0.468809 0.160007
0.905932 0.281468 0.159782
0.906435 0.343667 0.159607
0.910342 0.406365 0.159865
0.910663 0.469085 0.160139
0.968457 0.281288 0.15998
0.96876 0.343923 0.16014
0.972946 0.4066 0.160204
0.973204 0.468912 0.160062
0.780748 0.281284 0.198165
0.781065 0.343879 0.198317
0.78521 0.406502 0.198372
0.785496 0.468876 0.198217
0.843345 0.281488 0.197912
0.843837 0.343744 0.19783
0.847703 0.406378 0.198029
0.84793 0.469087 0.198316
0.905842 0.281323 0.198205
0.906015 0.343931 0.198333
0.910194 0.406544 0.198417
0.910452 0.468903 0.198298
0.96839 0.281493 0.197947
0.968859 0.343738 0.197824
0.972742 0.406405 0.198057
0.972975 0.469042 0.198383
0.78066 0.28143 0.236175
0.78116 0.343608 0.236045
0.785078 0.406333 0.236258
0.785257 0.469002 0.23655
0.843159 0.281261 0.236396
0.843414 0.343883 0.236569
0.847593 0.406552 0.236589
0.847826 0.468946 0.236479
0.905741 0.281435 0.236187
0.906208 0.343674 0.235989
0.910067 0.406342 0.236292
0.910232 0.468972 0.236576
0.968221 0.281245 0.236414
0.968447 0.343866 0.236562
0.972605 0.406521 0.236604
0.972787 0.468883 0.236492
0.780535 0.281258 0.274593
0.780859 0.34381 0.274794
0.784961 0.406459 0.274803
0.785192 0.468894 0.274633
0.843018 0.281414 0.274365
0.843526 0.343641 0.274234
0.847449 0.406402 0.274461
0.847618 0.469054 0.274729
0.905564 0.281179 0.274584
0.905807 0.343776 0.274773
0.910005 0.406534 0.274758
0.910191 0.468931 0.274659
0.968147 0.281413 0.274387
0.968588 0.34366 0.274239
0.972511 0.40639 0.274493
0.97272 0.469092 0.274765
0.78042 0.281362 0.312585
0.780935 0.343712 0.3125
0.784944 0.406403 0.312698
0.785103 0.469016 0.312905
0.842933 0.281217 0.31273
0.843287 0.343723 0.312958
0.847367 0.406466 0.312995
0.847663 0.468981 0.312845
0.905448 0.281316 0.31253
0.905923 0.343655 0.312437
0.910016 0.406434 0.312644
0.910104 0.469013 0.312927
0.968028 0.281201 0.312788
0.968367 0.343682 0.312921
0.972392 0.406451 0.312986
0.972683 0.468937 0.312798
0.780331 0.281221 0.350963
0.780627 0.343763 0.351195
0.784726 0.406443 0.351101
0.784985 0.468881 0.350966
0.842947 0.281299 0.35073
0.843304 0.343652 0.350602
0.847321 0.406368 0.350851
0.84751 0.469056 0.351122
0.905347 0.281179 0.350919
0.905808 0.343727 0.351158
0.909853 0.406421 0.35113
0.910077 0.468909 0.350961
0.968058 0.281196 0.350761
0.96843 0.343552 0.350553
0.97238 0.406345 0.350782
0.972601 0.469052 0.351057
0.780509 0.281179 0.38891
0.780498 0.343746 0.388885
0.784857 0.406248 0.38898
0.784766 0.468996 0.389242
0.842829 0.281301 0.389005
0.843119 0.343623 0.38926
0.847289 0.406501 0.389249
0.847488 0.468998 0.389066
0.905564 0.281215 0.388874
0.905707 0.343751 0.388798
0.910053 0.406307 0.38899
0.909862 0.469032 0.389178
0.967795 0.281292 0.388993
0.968307 0.343582 0.389236
0.972535 0.406518 0.389205
0.972663 0.469063 0.389069
0.780286 0.281573 0.427132
0.784785 0.34402 0.427329
0.784496 0.406481 0.427387
0.784761 0.469098 0.427279
0.843283 0.280934 0.427175
0.847155 0.344002 0.427285
0.847423 0.406616 0.427177
0.847301 0.469146 0.427416
0.905322 0.281609 0.427102
0.910016 0.344072 0.42725
0.909802 0.406543 0.427339
0.91005 0.469197 0.427189
0.968295 0.280892 0.427131
0.972372 0.343869 0.427284
0.972519 0.406548 0.427199
0.972374 0.469179 0.427423
0.784983 0.282375 0.465534
0.784674 0.344246 0.465685
0.785 0.406844 0.465409
0.784651 0.46909 0.465648
0.847162 0.281664 0.465436
0.847308 0.344522 0.465441
0.847216 0.406717 0.465608
0.84736 0.469261 0.465472
0.909967 0.282255 0.465532
0.909702 0.34412 0.465549
0.909947 0.406853 0.465367
0.909834 0.469201 0.465586
0.972278 0.28153 0.465439
0.972469 0.344341 0.465379
0.972271 0.406539 0.465629
0.972497 0.469238 0.465468
0.784268 0.469252 0.503791
0.784664 0.407302 0.503929
0.972211 0.406681 0.50372
0.847258 0.281818 0.503873
0.784219 0.282025 0.54219
0.784169 0.345109 0.542179
0.784071 0.406922 0.542077
0.784287 0.470053 0.542216
0.847018 0.28257 0.542126
0.846875 0.34454 0.542126
0.847057 0.407646 0.542211
0.846748 0.469485 0.54204
0.909338 0.28195 0.542197
0.909372 0.345058 0.542153
0.909334 0.406958 0.542026
0.909502 0.47008 0.542192
0.971756 0.282487 0.542167
0.971867 0.344501 0.542091
0.971987 0.407576 0.542188
0.971821 0.469438 0.542103
0.784544 0.282141 0.580365
0.784463 0.344805 0.580301
0.784596 0.407287 0.580401
0.784307 0.469869 0.580337
0.847114 0.282192 0.580361
0.847076 0.344688 0.580378
0.846906 0.407254 0.580354
0.847092 0.46971 0.580433
0.909561 0.282247 0.580488
0.90945 0.344776 0.580307
0.909621 0.407206 0.580393
0.909514 0.469687 0.580287
0.971833 0.282193 0.580456
0.972003 0.344831 0.580476
0.971806 0.407305 0.580385
0.972075 0.46974 0.580525
0.784735 0.282078 0.619296
0.784835 0.344625 0.619237
0.784666 0.407253 0.619246
0.784615 0.469751 0.619339
0.847264 0.282108 0.619374
0.847387 0.344666 0.61936
0.847286 0.40721 0.619302
0.847137 0.469671 0.619363
0.909703 0.282127 0.619434
0.909764 0.344765 0.619381
0.909712 0.407241 0.619306
0.909728 0.469681 0.619408
0.972209 0.282048 0.61942
0.97227 0.344553 0.619412
0.972325 0.40717 0.619351
0.972202 0.469601 0.619389
0.784637 0.282038 0.658047
0.78465 0.344499 0.658055
0.784695 0.407157 0.658174
0.784751 0.469724 0.658156
0.847175 0.282195 0.658154
0.847095 0.344665 0.658163
0.847151 0.407024 0.658121
0.8472 0.46955 0.658139
0.909786 0.28218 0.658239
0.909824 0.344704 0.658181
0.909801 0.407129 0.658147
0.909719 0.469579 0.658183
0.972272 0.2821 0.658215
0.972409 0.344607 0.658266
0.972345 0.407129 0.658174
0.972231 0.46959 0.658251
0.784447 0.282022 0.696856
0.784471 0.344666 0.69686
0.784674 0.407183 0.69694
0.784522 0.469691 0.696883
0.847088 0.282316 0.696896
0.846979 0.344758 0.696859
0.847091 0.407188 0.696937
0.847057 0.46968 0.696983
0.909677 0.282256 0.696934
0.909759 0.344758 0.696932
0.909558 0.406987 0.69693
0.909655 0.46954 0.696936
0.972275 0.282207 0.696951
0.97237 0.344617 0.696982
0.972368 0.407105 0.69701
0.972018 0.469554 0.697035
0.784452 0.282263 0.735645
0.784472 0.34472 0.735685
0.784445 0.407189 0.735792
0.784282 0.469653 0.735725
0.847038 0.282268 0.735651
0.846982 0.3447 0.735635
0.846898 0.407151 0.735698
0.846934 0.469686 0.73575
0.909644 0.282292 0.735608
0.909706 0.344772 0.735699
0.909475 0.407081 0.735723
0.90963 0.469466 0.735775
0.972109 0.282377 0.735669
0.972315 0.344817 0.735709
0.972255 0.407173 0.735751
0.971965 0.469566 0.735843
0.847253 0.469786 0.50389
0.909859 0.407238 0.503866
0.972254 0.469643 0.503939
0.909763 0.469248 0.503707
0.847122 0.406914 0.50373
0.972407 0.344756 0.503877
0.847326 0.344898 0.503861
0.909736 0.344207 0.503692
0.784612 0.34445 0.503802
0.909804 0.282472 0.503811
0.784851 0.282547 0.503993
0.972095 0.281758 0.503802
0.784359 0.28218 0.774484
0.784244 0.344651 0.774511
0.784183 0.407072 0.774551
0.784233 0.469566 0.774618
0.84705 0.282176 0.774462
0.846997 0.344568 0.774452
0.847051 0.407149 0.774525
0.846993 0.469618 0.774579
0.909618 0.282266 0.774412
0.909627 0.344702 0.774473
0.909583 0.407109 0.774545
0.909591 0.469576 0.774587
0.972081 0.28232 0.774471
0.972135 0.3447 0.774547
0.972119 0.407237 0.774532
0.972127 0.469632 0.774643
0.78456 0.282147 0.813386
0.784384 0.344672 0.813377
0.784332 0.407148 0.813332
0.784559 0.469591 0.813386
0.847212 0.2823 0.813285
0.847148 0.34461 0.81324
0.847384 0.407089 0.813289
0.847179 0.469486 0.813371
0.909709 0.282389 0.813277
0.909834 0.344723 0.813303
0.909837 0.407112 0.813313
0.909928 0.469596 0.813374
0.972111 0.282262 0.813283
0.972281 0.344793 0.813353
0.972368 0.407287 0.813402
0.972338 0.469679 0.81347
0.784802 0.282113 0.852256
0.785011 0.344539 0.852261
0.785053 0.407092 0.852161
0.785122 0.469488 0.852183
0.84739 0.282298 0.852161
0.847194 0.344682 0.852082
0.847394 0.406984 0.852135
0.847423 0.469454 0.852151
0.909936 0.2823 0.852072
0.909981 0.344733 0.852092
0.909943 0.407094 0.852133
0.909961 0.469567 0.85212
0.972349 0.282334 0.852123
0.972568 0.344707 0.852147
0.972498 0.40716 0.852204
0.972553 0.46966 0.852224
0.785019 0.282112 0.890958
0.785187 0.344579 0.89102
0.785195 0.406989 0.891008
0.785324 0.469488 0.890994
0.84759 0.282115 0.890958
0.847571 0.344546 0.890937
0.847792 0.407125 0.891036
0.847731 0.469542 0.891008
0.91009 0.282256 0.890848
0.910091 0.344644 0.890915
0.910149 0.407097 0.890974
0.910319 0.469621 0.890973
0.972552 0.282294 0.89097
0.972689 0.344728 0.890961
0.97283 0.407225 0.890891
0.97293 0.469604 0.890898
0.784996 0.282044 0.929675
0.78518 0.3444 0.92969
0.785445 0.406973 0.929789
0.785562 0.469481 0.929794
0.847774 0.282018 0.929773
0.847796 0.344547 0.929723
0.847921 0.406988 0.929816
0.848106 0.469568 0.929876
0.910198 0.282257 0.929743
0.910264 0.344573 0.929755
0.910474 0.407105 0.929759
0.910477 0.469633 0.929793
0.972807 0.282111 0.929758
0.972945 0.344609 0.929718
0.972911 0.407054 0.929678
0.972977 0.469656 0.929689
0.785177 0.282097 0.968513
0.785305 0.344511 0.968565
0.785392 0.406797 0.968748
0.785639 0.469461 0.968741
0.847672 0.282013 0.968682
0.847819 0.344445 0.968751
0.848098 0.407031 0.968798
0.847921 0.469237 0.968858
0.910336 0.282195 0.968574
0.91044 0.344597 0.968641
0.91051 0.40685 0.968833
0.91075 0.469579 0.968786
0.972793 0.282158 0.968736
0.972958 0.344562 0.968645
0.973104 0.407094 0.968636
0.973008 0.469346 0.968735
0.785505 0.531321 0.00695971
0.785308 0.594124 0.00705926
0.785383 0.656409 0.00695078
0.78512 0.719263 0.0071396
0.847922 0.531607 0.00707766
0.84795 0.593859 0.00696309
0.847776 0.65665 0.00708023
0.847839 0.718915 0.00697682
0.910543 0.531439 0.00694998
0.910358 0.594181 0.00705558
0.910467 0.656464 0.00697272
0.910173 0.719334 0.00715617
0.972939 0.531767 0.00703583
0.973035 0.593954 0.00692385
0.972835 0.65675 0.0070872
0.972851 0.719021 0.00696109
0.785484 0.531337 0.0453399
0.785411 0.593673 0.0451798
0.785356 0.656424 0.0453438
0.78531 0.718793 0.0452176
0.848152 0.531248 0.045223
0.847994 0.59384 0.0453566
0.847853 0.65618 0.0452043
0.847789 0.718907 0.0454152
0.910556 0.531479 0.0453829
0.910567 0.593782 0.0452014
0.910353 0.65642 0.0453579
0.910319 0.718805 0.0452216
0.97318 0.531401 0.0451895
0.973029 0.594059 0.0453265
0.972954 0.656285 0.0452068
0.972789 0.719003 0.0453753
0.7855 0.531272 0.083454
0.785419 0.593951 0.0835932
0.785453 0.656289 0.0834632
0.785218 0.719045 0.0836652
0.848025 0.531414 0.0836457
0.847989 0.593798 0.0835008
0.847808 0.656406 0.0836574
0.847791 0.71872 0.0834787
0.910635 0.5313 0.0834973
0.910475 0.593994 0.0836175
0.910438 0.65632 0.0834654
0.910283 0.719033 0.0836692
0.973082 0.531568 0.0836702
0.973066 0.593888 0.0834846
0.972884 0.656544 0.0836132
0.972872 0.718744 0.0834731
0.785559 0.531419 0.121856
0.785423 0.593827 0.121685
0.785293 0.656528 0.121864
0.78519 0.718833 0.12176
0.848087 0.531292 0.121714
0.84797 0.593988 0.121893
0.847832 0.656362 0.121702
0.847801 0.719057 0.12191
0.910698 0.53155 0.121874
0.910564 0.593869 0.121696
0.910482 0.656579 0.12188
0.910318 0.718888 0.121752
0.973136 0.531343 0.121798
0.973043 0.594037 0.121866
0.972887 0.656381 0.121757
0.972834 0.719064 0.12191
0.785477 0.531358 0.159921
0.785371 0.594 0.160084
0.785278 0.656371 0.159938
0.785197 0.719049 0.160144
0.848017 0.531481 0.160072
0.847838 0.593883 0.159914
0.847746 0.656538 0.160097
0.847691 0.718893 0.159984
0.910518 0.531446 0.159944
0.910392 0.59414 0.160109
0.910335 0.656456 0.159947
0.910233 0.719142 0.160166
0.973008 0.531498 0.160117
0.972961 0.593874 0.159937
0.972817 0.656608 0.160134
0.972751 0.718967 0.15999
0.785277 0.531525 0.198266
0.785234 0.593864 0.198122
0.785172 0.656491 0.198314
0.785145 0.718881 0.198162
0.847848 0.531339 0.198131
0.847733 0.594062 0.198307
0.847659 0.656375 0.19812
0.84758 0.719049 0.198361
0.910362 0.531602 0.198318
0.910291 0.593869 0.198143
0.910247 0.656558 0.198347
0.910081 0.718955 0.198204
0.9729 0.531389 0.198176
0.972871 0.594085 0.198349
0.972693 0.656417 0.198167
0.972589 0.719123 0.198351
0.785232 0.531357 0.236339
0.785119 0.59406 0.23647
0.785026 0.656355 0.236388
0.785053 0.719049 0.23655
0.847643 0.531584 0.23651
0.847708 0.593939 0.236342
0.847561 0.656576 0.236528
0.847517 0.718853 0.236386
0.910208 0.53137 0.236375
0.910205 0.594051 0.236533
0.910111 0.656449 0.236379
0.910006 0.718995 0.236542
0.972713 0.531533 0.23654
0.972713 0.593869 0.236422
0.97267 0.65659 0.236549
0.972568 0.718912 0.236404
0.785168 0.531582 0.274767
0.785074 0.593894 0.274566
0.784976 0.656565 0.274761
0.784898 0.718852 0.274621
0.847598 0.531355 0.274588
0.847517 0.594041 0.274734
0.847419 0.656381 0.274614
0.847419 0.719018 0.274773
0.910099 0.531558 0.274727
0.910145 0.593896 0.2746
0.910003 0.656581 0.274756
0.909906 0.718872 0.274628
0.972718 0.53143 0.274553
0.972652 0.594083 0.274733
0.972533 0.656382 0.274599
0.972438 0.719076 0.274783
0.785105 0.531434 0.31279
0.78497 0.594046 0.313014
0.784857 0.656364 0.312873
0.784723 0.718992 0.313028
0.847492 0.531525 0.312925
0.847449 0.593867 0.312825
0.847355 0.656464 0.312959
0.847221 0.718767 0.312886
0.910132 0.531508 0.312743
0.909982 0.594031 0.312949
0.909946 0.656301 0.312819
0.909761 0.718981 0.312991
0.972599 0.531599 0.31288
0.972625 0.593983 0.312796
0.972407 0.65651 0.312947
0.972378 0.718853 0.312849
0.784894 0.531552 0.351161
0.784818 0.593905 0.351095
0.784718 0.656546 0.351228
0.784719 0.718861 0.351066
0.847456 0.531458 0.350954
0.847309 0.594055 0.351198
0.847298 0.656323 0.350955
0.847116 0.718966 0.351234
0.90993 0.531571 0.351075
0.909858 0.593884 0.350996
0.909755 0.656479 0.351182
0.909753 0.718793 0.351049
0.97262 0.531455 0.350933
0.972531 0.594122 0.351143
0.972378 0.656427 0.351036
0.972252 0.719021 0.351239
0.784893 0.531505 0.389209
0.784699 0.59414 0.389423
0.784617 0.656508 0.389246
0.784578 0.719142 0.389439
0.847317 0.531625 0.389267
0.847344 0.594047 0.38919
0.84719 0.656663 0.389372
0.847089 0.718919 0.389272
0.909955 0.531516 0.389136
0.909824 0.594163 0.389348
0.909806 0.656534 0.389262
0.909645 0.719125 0.389444
0.972499 0.53172 0.3893
0.972415 0.594049 0.389125
0.972208 0.656709 0.389419
0.972127 0.718994 0.389279
0.784692 0.53179 0.427514
0.784733 0.594172 0.427387
0.784608 0.656756 0.42766
0.784589 0.719045 0.427524
0.84726 0.531652 0.427379
0.847194 0.594362 0.427581
0.84715 0.65667 0.427452
0.847129 0.719268 0.42773
0.909758 0.531802 0.427503
0.909787 0.59413 0.427414
0.909739 0.656772 0.427692
0.909533 0.719102 0.427531
0.972516 0.531691 0.427335
0.972342 0.594212 0.427527
0.972274 0.656721 0.42746
0.972159 0.719384 0.427663
0.784801 0.531793 0.465582
0.784735 0.594304 0.465772
0.784611 0.656819 0.465657
0.784885 0.719359 0.465902
0.847094 0.531736 0.465784
0.84707 0.594258 0.465668
0.847198 0.656875 0.465919
0.847135 0.719398 0.465886
0.909838 0.531764 0.465529
0.909694 0.594263 0.465806
0.90966 0.656852 0.465694
0.909627 0.719382 0.465884
0.97241 0.531786 0.46576
0.972362 0.594163 0.465625
0.972434 0.656765 0.465858
0.972073 0.719272 0.465761
0.909547 0.594342 0.503961
0.972341 0.531827 0.50376
0.783983 0.531869 0.542192
0.784163 0.594983 0.542398
0.784112 0.657002 0.542371
0.784112 0.720073 0.542498
0.846876 0.532605 0.542253
0.846696 0.59445 0.542289
0.846675 0.657596 0.542472
0.846597 0.719367 0.542418
0.909369 0.531952 0.542145
0.909414 0.595069 0.54234
0.909176 0.656831 0.542269
0.909265 0.719858 0.54248
0.971946 0.532534 0.542248
0.971648 0.59444 0.542192
0.971791 0.657472 0.542424
0.971615 0.719454 0.542405
0.784151 0.532192 0.580524
0.784044 0.594754 0.580516
0.784199 0.657184 0.58069
0.784049 0.719674 0.580616
0.846842 0.532203 0.580389
0.846995 0.594698 0.580572
0.846761 0.657212 0.580536
0.846937 0.719706 0.580741
0.909614 0.532154 0.580524
0.909422 0.594622 0.580549
0.909476 0.657197 0.580664
0.909342 0.719802 0.58069
0.971833 0.532228 0.580385
0.971945 0.594707 0.580513
0.971647 0.657186 0.580569
0.971906 0.719823 0.580795
0.784371 0.532209 0.619335
0.78444 0.59469 0.619482
0.78439 0.657093 0.619561
0.784665 0.719699 0.619593
0.847272 0.532139 0.619388
0.847164 0.594674 0.619363
0.847271 0.657317 0.61945
0.84705 0.719636 0.619631
0.909491 0.532049 0.619419
0.909677 0.594638 0.619471
0.909502 0.657107 0.619534
0.909681 0.719685 0.619711
0.972155 0.532163 0.619443
0.97201 0.594689 0.619437
0.97198 0.657239 0.619577
0.972042 0.719718 0.619714
0.784613 0.532248 0.658156
0.784472 0.59459 0.658213
0.784615 0.657082 0.658332
0.784764 0.719563 0.658383
0.847145 0.531998 0.658201
0.847126 0.594566 0.658251
0.847157 0.657118 0.658341
0.847134 0.719595 0.658469
0.909727 0.531989 0.658238
0.909676 0.594603 0.658243
0.909652 0.657106 0.658341
0.909766 0.719638 0.658484
0.972127 0.532173 0.658214
0.97207 0.594639 0.658296
0.972155 0.657146 0.658409
0.972256 0.719657 0.658518
0.784454 0.532161 0.696924
0.784572 0.594517 0.697038
0.784651 0.65703 0.697076
0.784602 0.719535 0.697121
0.847103 0.532153 0.697054
0.847034 0.594484 0.697062
0.847069 0.657011 0.697127
0.847139 0.719489 0.697201
0.909675 0.532114 0.696947
0.909579 0.594616 0.697032
0.909611 0.65717 0.697104
0.909689 0.719687 0.69722
0.972001 0.53221 0.696975
0.972173 0.594687 0.697087
0.972092 0.657183 0.697195
0.972208 0.719765 0.697245
0.784236 0.532074 0.735749
0.784377 0.594422 0.735792
0.784377 0.657063 0.735845
0.784474 0.719693 0.735913
0.846834 0.532004 0.735754
0.846824 0.594492 0.735746
0.846819 0.657064 0.735834
0.847037 0.719599 0.735924
0.909517 0.531919 0.735759
0.90945 0.594539 0.735805
0.909618 0.657073 0.735853
0.909605 0.719647 0.735961
0.971846 0.532066 0.735855
0.971976 0.594556 0.735891
0.972038 0.657147 0.735935
0.972065 0.719764 0.735975
0.847123 0.59457 0.504096
0.784574 0.719238 0.504085
0.909409 0.719205 0.504039
0.847061 0.719664 0.504308
0.972066 0.719791 0.50418
0.78462 0.657185 0.504186
0.846956 0.656651 0.504037
0.784621 0.532231 0.504021
0.909907 0.532227 0.504035
0.847073 0.531781 0.503759
0.784578 0.594234 0.504
0.972192 0.594618 0.503948
0.909571 0.657263 0.504159
0.972152 0.656716 0.50393
0.784205 0.531929 0.774673
0.784293 0.59443 0.774563
0.784379 0.657085 0.774636
0.784418 0.719666 0.774737
0.847089 0.532038 0.774557
0.8473 0.594506 0.774576
0.847216 0.657081 0.774597
0.847142 0.719734 0.774609
0.909624 0.531981 0.774624
0.909577 0.594575 0.774614
0.909613 0.657028 0.7746
0.909604 0.719778 0.774674
0.971997 0.532088 0.774593
0.972034 0.594646 0.774666
0.972221 0.657038 0.774727
0.972091 0.719542 0.774764
0.784746 0.532117 0.813482
0.784916 0.594608 0.813379
0.784965 0.657277 0.813402
0.784917 0.719749 0.813473
0.847235 0.531919 0.813374
0.847395 0.59469 0.813335
0.847376 0.657254 0.813358
0.847475 0.719795 0.813401
0.90988 0.531932 0.813436
0.909828 0.594572 0.813393
0.909858 0.657285 0.813433
0.909875 0.719743 0.813445
0.972227 0.532161 0.813487
0.97215 0.59457 0.813459
0.97229 0.657158 0.813495
0.972185 0.719682 0.813584
0.785181 0.532107 0.852159
0.785172 0.594551 0.852131
0.785278 0.657296 0.852182
0.785278 0.719912 0.852272
0.847531 0.531966 0.852109
0.847666 0.594685 0.852136
0.847697 0.657341 0.852151
0.847665 0.719837 0.852209
0.909959 0.53211 0.852164
0.909939 0.594681 0.852188
0.909997 0.657232 0.852176
0.909905 0.719675 0.852297
0.972582 0.532209 0.852237
0.972577 0.594915 0.852205
0.972576 0.657149 0.852238
0.972423 0.719512 0.852342
0.785461 0.532077 0.890965
0.785505 0.594602 0.890954
0.785513 0.65717 0.89103
0.785534 0.719746 0.891137
0.847831 0.532029 0.89096
0.847842 0.594598 0.890999
0.847858 0.657162 0.89101
0.847942 0.719645 0.89114
0.910283 0.53209 0.890972
0.910322 0.594636 0.890977
0.910262 0.657082 0.890974
0.910243 0.719549 0.891085
0.972999 0.532238 0.890899
0.972984 0.594656 0.890883
0.9729 0.657093 0.890988
0.972618 0.719563 0.89109
0.78564 0.531983 0.929829
0.785591 0.594512 0.92984
0.785663 0.657098 0.929854
0.785567 0.719635 0.929925
0.848011 0.53202 0.929864
0.848102 0.59449 0.929849
0.848016 0.656923 0.92988
0.848056 0.719589 0.929981
0.91053 0.532148 0.929827
0.91051 0.594408 0.929752
0.910431 0.656997 0.929831
0.910132 0.719559 0.929936
0.973007 0.532175 0.929758
0.973098 0.594622 0.9297
0.972977 0.657015 0.929745
0.972971 0.719558 0.929873
0.785445 0.531706 0.968851
0.785633 0.594506 0.968771
0.785362 0.65677 0.968835
0.785498 0.719614 0.968838
0.848071 0.532016 0.968748
0.847836 0.594326 0.968847
0.848003 0.65699 0.968761
0.847742 0.719301 0.968944
0.910504 0.531821 0.968811
0.910703 0.594551 0.968728
0.910415 0.656855 0.968866
0.910441 0.719666 0.968834
0.973163 0.532081 0.9687
0.972893 0.594382 0.968746
0.973069 0.657047 0.968761
0.972759 0.719327 0.968912
0.785175 0.781619 0.00709845
0.785029 0.844452 0.00704701
0.78468 0.906654 0.00708789
0.784825 0.969645 0.00681034
0.847561 0.781737 0.00725685
0.84741 0.844019 0.00718946
0.84741 0.906939 0.00687897
0.847154 0.969132 0.00702319
0.910255 0.781605 0.00709853
0.91004 0.844446 0.00705198
0.909792 0.906698 0.00710738
0.909865 0.969591 0.00684865
0.972549 0.781887 0.00724699
0.972426 0.844087 0.00721057
0.972466 0.906922 0.00682576
0.972255 0.96908 0.00692991
0.785087 0.781586 0.045486
0.784789 0.843767 0.0454282
0.784877 0.906574 0.0450092
0.780233 0.969377 0.0451289
0.847766 0.781279 0.0453383
0.847524 0.84409 0.0452406
0.847205 0.906289 0.0452946
0.842911 0.969033 0.0452338
0.910183 0.781519 0.0455521
0.909866 0.843719 0.0454474
0.909942 0.906577 0.0450646
0.905294 0.969373 0.0452105
0.972839 0.781317 0.045311
0.972525 0.844058 0.0452842
0.972227 0.9063 0.0453061
0.968001 0.968964 0.0452506
0.785216 0.781298 0.0835243
0.784968 0.844015 0.0834147
0.780404 0.906815 0.0833798
0.780441 0.968995 0.0835083
0.847638 0.781474 0.0837782
0.847207 0.843697 0.0837544
0.843083 0.906396 0.0835662
0.842864 0.969148 0.0833607
0.910324 0.781276 0.0835991
0.910026 0.843982 0.0834271
0.905298 0.906798 0.0834408
0.905503 0.968951 0.0835345
0.97272 0.781443 0.0838199
0.972222 0.843689 0.0837943
0.968111 0.906392 0.0836018
0.967876 0.969162 0.0834284
0.785151 0.781466 0.122031
0.784628 0.84378 0.122098
0.780588 0.906397 0.121829
0.780376 0.969101 0.121635
0.847625 0.781386 0.121782
0.847321 0.843949 0.121613
0.84305 0.906657 0.121549
0.842888 0.968991 0.121707
0.910192 0.781502 0.122107
0.909638 0.843711 0.122095
0.905499 0.906373 0.121869
0.905319 0.969102 0.121603
0.972709 0.781304 0.121839
0.972311 0.843859 0.121686
0.968026 0.906545 0.121556
0.967871 0.96889 0.121747
0.78512 0.781392 0.159998
0.784879 0.843996 0.159833
0.780648 0.906664 0.159745
0.780402 0.968995 0.15991
0.847638 0.78153 0.160264
0.847062 0.843817 0.160365
0.843067 0.906467 0.160025
0.84294 0.969102 0.159818
0.910111 0.781362 0.160076
0.909798 0.843948 0.159856
0.905621 0.906595 0.159766
0.905389 0.968971 0.159907
0.972682 0.781617 0.160325
0.9721 0.843838 0.160388
0.968152 0.906394 0.160087
0.967913 0.969034 0.159876
0.785076 0.781505 0.19848
0.784666 0.843761 0.198548
0.780698 0.906431 0.198245
0.780437 0.96906 0.198065
0.847531 0.781291 0.198229
0.847258 0.84389 0.198073
0.843131 0.906625 0.19793
0.842899 0.968973 0.1981
0.910015 0.78154 0.198534
0.909522 0.84368 0.198618
0.905584 0.906339 0.198295
0.905421 0.969012 0.198056
0.972609 0.781427 0.198245
0.972327 0.843987 0.198068
0.968186 0.906626 0.197992
0.967925 0.968911 0.198204
0.785014 0.781295 0.236405
0.78476 0.843857 0.236221
0.780599 0.906514 0.236159
0.780365 0.968803 0.236382
0.847451 0.781471 0.236691
0.846973 0.843682 0.236755
0.843098 0.906418 0.236498
0.842876 0.969044 0.236214
0.910019 0.781334 0.236435
0.90975 0.843881 0.236273
0.905595 0.906485 0.236179
0.905353 0.968834 0.236294
0.972562 0.781507 0.236742
0.972011 0.843664 0.236839
0.96816 0.906351 0.236532
0.967888 0.969002 0.236269
0.784931 0.781519 0.274899
0.784395 0.843712 0.274968
0.780461 0.906277 0.274745
0.78027 0.968892 0.274464
0.84739 0.78124 0.27462
0.847133 0.84382 0.274428
0.842969 0.906485 0.274363
0.842761 0.96877 0.274556
0.909848 0.781414 0.274909
0.909413 0.843675 0.275029
0.905514 0.906273 0.274694
0.905302 0.968951 0.274393
0.972398 0.781271 0.274658
0.972142 0.843796 0.274516
0.968041 0.906416 0.274401
0.967741 0.968755 0.274537
0.7849 0.78122 0.312804
0.784555 0.84378 0.312625
0.780326 0.906339 0.312647
0.780152 0.968624 0.312769
0.847255 0.781328 0.313103
0.846749 0.843574 0.313189
0.842937 0.906201 0.312953
0.842613 0.968788 0.312661
0.909731 0.781201 0.312849
0.909539 0.843726 0.312685
0.905329 0.906423 0.31258
0.905167 0.968785 0.312718
0.972207 0.781375 0.313117
0.971632 0.84362 0.313251
0.967916 0.906256 0.312978
0.967597 0.968898 0.312645
0.784732 0.781385 0.351343
0.784289 0.843614 0.351395
0.780304 0.906162 0.351243
0.780016 0.968686 0.35088
0.847219 0.781215 0.351065
0.846915 0.843661 0.350894
0.842752 0.906274 0.350843
0.8426 0.968622 0.350944
0.909602 0.781315 0.351324
0.909107 0.843633 0.351498
0.905187 0.906213 0.351142
0.905003 0.968844 0.350778
0.972167 0.781308 0.351035
0.97185 0.843791 0.350925
0.967693 0.906462 0.350778
0.967588 0.968731 0.351002
0.784613 0.781399 0.389287
0.784504 0.843878 0.389216
0.780063 0.906376 0.389086
0.780133 0.968812 0.389223
0.847185 0.781462 0.389617
0.846799 0.843814 0.389717
0.842664 0.90631 0.3894
0.842511 0.968749 0.389029
0.909543 0.781396 0.389287
0.90946 0.84389 0.389205
0.905105 0.906367 0.389033
0.904936 0.968837 0.389143
0.972164 0.781584 0.389565
0.971759 0.843872 0.389667
0.967579 0.906428 0.389304
0.967486 0.968747 0.389014
0.784642 0.781659 0.427864
0.784316 0.844073 0.427867
0.784489 0.906224 0.427459
0.7802 0.96874 0.427231
0.847067 0.781603 0.427539
0.84702 0.844041 0.427454
0.846875 0.906431 0.42779
0.842626 0.969046 0.427521
0.909611 0.781702 0.42786
0.909228 0.844123 0.427855
0.909491 0.906418 0.427427
0.904987 0.96879 0.427189
0.972166 0.781697 0.427513
0.972133 0.844024 0.427416
0.971699 0.906505 0.427698
0.967475 0.969154 0.427401
0.784569 0.782023 0.465777
0.784562 0.844407 0.465736
0.784425 0.907015 0.465984
0.784702 0.969256 0.465617
0.84717 0.78202 0.466144
0.846974 0.844617 0.466093
0.846997 0.906919 0.465757
0.846809 0.969732 0.465836
0.909512 0.782012 0.465749
0.909601 0.844382 0.465727
0.909396 0.907037 0.465973
0.909436 0.969335 0.465622
0.972133 0.78191 0.466079
0.9719 0.844503 0.466025
0.971884 0.906964 0.465692
0.971651 0.969596 0.465754
0.784295 0.844364 0.504279
0.90954 0.844364 0.504242
0.84694 0.970068 0.503927
0.78399 0.781973 0.54239
0.784204 0.84496 0.54239
0.784351 0.906945 0.542412
0.784063 0.96995 0.542243
0.84687 0.782356 0.542589
0.846749 0.844344 0.542578
0.846686 0.907436 0.542319
0.846746 0.969401 0.542366
0.909055 0.781802 0.542431
0.909145 0.844778 0.542381
0.909154 0.906839 0.542462
0.909069 0.969952 0.542327
0.971694 0.782441 0.542541
0.971617 0.844332 0.542495
0.9715 0.907337 0.542355
0.971558 0.969257 0.542392
0.784331 0.782181 0.580767
0.784601 0.84468 0.580747
0.784552 0.907213 0.580585
0.784469 0.9697 0.580621
0.846832 0.782213 0.580694
0.846861 0.844712 0.580712
0.846972 0.907199 0.580725
0.846858 0.969807 0.580477
0.909491 0.782255 0.580806
0.909352 0.844781 0.580796
0.909237 0.907218 0.580664
0.909336 0.969685 0.580676
0.971794 0.78227 0.58076
0.971722 0.844718 0.580676
0.971843 0.907164 0.580768
0.971561 0.969744 0.580543
0.784701 0.782144 0.619691
0.784592 0.844692 0.619625
0.784689 0.907149 0.619619
0.784671 0.969687 0.619516
0.847159 0.782216 0.619738
0.847257 0.844686 0.619762
0.847091 0.90719 0.619694
0.847081 0.969705 0.619574
0.909682 0.782162 0.619738
0.909573 0.844811 0.619702
0.909622 0.907268 0.619735
0.909445 0.969712 0.619608
0.972071 0.782337 0.619708
0.971972 0.844792 0.619703
0.971944 0.907381 0.619666
0.972057 0.969828 0.619583
0.78482 0.782097 0.658419
0.784743 0.844674 0.658405
0.784655 0.907318 0.658338
0.784694 0.969862 0.658329
0.84718 0.78221 0.658557
0.847317 0.844727 0.658547
0.847188 0.907223 0.658504
0.847095 0.969717 0.658385
0.909754 0.782183 0.65857
0.909718 0.844723 0.658562
0.909596 0.907296 0.658541
0.909499 0.969735 0.658425
0.972104 0.782194 0.658478
0.972087 0.844699 0.658486
0.972035 0.907313 0.658527
0.971976 0.969851 0.658415
0.784734 0.782167 0.697122
0.784607 0.844836 0.697198
0.784536 0.907358 0.69715
0.784435 0.969875 0.697203
0.847086 0.782178 0.697234
0.847155 0.844787 0.69731
0.847065 0.907254 0.697239
0.847035 0.969821 0.697174
0.909677 0.782157 0.69734
0.90967 0.844761 0.697307
0.909571 0.907308 0.697309
0.909547 0.969817 0.697234
0.97227 0.782226 0.697283
0.972156 0.844783 0.697289
0.971935 0.9073 0.697252
0.971824 0.969773 0.697213
0.78453 0.782185 0.735943
0.784396 0.844733 0.735998
0.784564 0.907373 0.735917
0.784521 0.969826 0.735803
0.847146 0.782118 0.735964
0.847016 0.844735 0.73595
0.846992 0.907205 0.735901
0.847007 0.969811 0.735876
0.909639 0.782296 0.73599
0.909564 0.844863 0.736045
0.90967 0.907311 0.736039
0.909449 0.969762 0.736003
0.97215 0.78224 0.736001
0.972093 0.844756 0.736064
0.971991 0.907272 0.736084
0.971934 0.969847 0.736025
0.847 0.781788 0.504045
0.971966 0.781809 0.503999
0.784484 0.782386 0.504336
0.909516 0.782431 0.504316
0.846821 0.844879 0.504047
0.971956 0.844864 0.503955
0.846862 0.906793 0.504168
0.971914 0.906806 0.504174
0.784372 0.907524 0.503996
0.909294 0.907471 0.503976
0.784531 0.969473 0.504135
0.971756 0.970015 0.503878
0.909501 0.969509 0.504144
0.78442 0.782369 0.774729
0.784375 0.844908 0.774699
0.784503 0.907294 0.774676
0.784608 0.969976 0.77463
0.847109 0.782283 0.774702
0.847132 0.844846 0.774683
0.847098 0.907369 0.774663
0.847062 0.969955 0.77464
0.909694 0.78225 0.774754
0.909548 0.844819 0.7747
0.909576 0.907364 0.774748
0.909478 0.969816 0.77473
0.972083 0.782163 0.774772
0.972011 0.844823 0.774816
0.971996 0.907382 0.77487
0.971866 0.969961 0.77476
0.78486 0.782175 0.813524
0.784922 0.844756 0.813555
0.785022 0.907347 0.813447
0.784957 0.969924 0.813503
0.847394 0.782366 0.813445
0.847478 0.844748 0.813426
0.847323 0.907244 0.813511
0.847351 0.96985 0.813475
0.909931 0.782248 0.813515
0.90973 0.844726 0.813547
0.909682 0.907159 0.813549
0.909636 0.969803 0.813514
0.972008 0.782192 0.813565
0.971968 0.84477 0.813618
0.971941 0.907534 0.813632
0.971804 0.969985 0.813546
0.785529 0.782397 0.852376
0.785472 0.844829 0.85237
0.785345 0.907353 0.852286
0.785397 0.969949 0.852201
0.847637 0.782337 0.852316
0.847782 0.844663 0.852318
0.847708 0.907239 0.85229
0.847599 0.969825 0.852292
0.9099 0.782155 0.852351
0.90994 0.844752 0.852453
0.909932 0.907311 0.852429
0.90986 0.969879 0.85236
0.972252 0.782112 0.852416
0.972226 0.844767 0.852458
0.972333 0.90724 0.852402
0.972085 0.969864 0.852361
0.785471 0.782265 0.891185
0.785363 0.844858 0.89114
0.78537 0.907297 0.891067
0.78529 0.969876 0.890981
0.847812 0.782225 0.891228
0.847705 0.844829 0.891204
0.847736 0.907371 0.891171
0.847696 0.969852 0.891092
0.91024 0.782204 0.891285
0.910099 0.844729 0.891324
0.909978 0.907287 0.891285
0.90993 0.969842 0.89117
0.97269 0.782212 0.891259
0.972591 0.844719 0.891331
0.972453 0.907242 0.89123
0.972286 0.969708 0.891134
0.785517 0.782219 0.929993
0.785414 0.844783 0.929995
0.785186 0.907407 0.929917
0.785187 0.969892 0.929831
0.847763 0.782178 0.93008
0.847715 0.844865 0.93002
0.84772 0.907246 0.930052
0.847531 0.969946 0.929943
0.910195 0.782256 0.930119
0.910148 0.844708 0.930119
0.910047 0.907322 0.930069
0.910069 0.969806 0.930001
0.972836 0.782085 0.930061
0.972737 0.844767 0.930097
0.972656 0.907244 0.930005
0.972451 0.969861 0.929912
0.785191 0.781905 0.969008
0.785088 0.844829 0.968964
0.785097 0.907252 0.968783
0.784797 0.970036 0.968806
0.84777 0.782225 0.968976
0.84758 0.844553 0.968934
0.847438 0.907451 0.968985
0.847462 0.969807 0.968752
0.910201 0.782053 0.969071
0.910043 0.844923 0.969034
0.910051 0.907177 0.96885
0.909792 0.969919 0.968871
0.97279 0.782189 0.968942
0.972734 0.844546 0.96897
0.972504 0.907361 0.968861
0.972459 0.969656 0.968713
0.249329 0.187627 0.0261126
0.249252 0.0626481 0.0261199
0.249366 0.125313 0.102521
0.187074 0.0622886 0.21733
0.187504 9.51593e-05 0.0261709
0.187112 0.124817 0.179174
0.0619503 0.062956 0.0258661
0.0620183 0.125266 0.0261848
0.062471 0.187939 0.0258731
0.249152 0.0627948 0.0642267
0.124833 5.488e-04 0.0259421
0.124281 0.0627141 0.0261279
0.124606 0.125425 0.0259579
0.124458 0.187686 0.0261049
0.062268 0.187466 0.217338
0.186962 0.06263 0.179024
0.186713 0.0629478 0.0258919
0.186763 0.125146 0.0261331
0.187093 0.187914 0.0258584
0.249636 0.124905 0.21732
0.249436 1.35298e-04 0.178882
0.249315 0.187799 0.0642382
0.249299 0.124951 0.0644162
0.124568 0.124938 0.217324
0.0618951 0.0624148 0.0644527
0.0619597 0.125398 0.0642385
0.0620844 0.187688 0.0643467
0.187034 8.46962e-05 0.217137
0.124202 0.062839 0.0642897
0.124404 0.125035 0.0644189
0.124416 0.187816 0.0642377
0.0620021 0.125217 0.217242
0.186791 0.0624271 0.0644208
0.186846 0.125358 0.0642285
0.186977 0.187532 0.0643518
0.186722 2.9962e-04 0.0641089
0.124246 2.63027e-04 0.102481
0.249588 0.187552 0.10262
0.187138 0.187794 0.178995
0.187239 0.187438 0.217335
0.0618283 0.0628199 0.102529
0.0620747 0.125112 0.102682
0.0621757 0.187896 0.102483
0.124529 0.0625851 0.21717
0.124276 0.0624875 0.102653
0.124451 0.125362 0.102546
0.124709 0.187657 0.102615
0.124662 0.187732 0.217194
0.186645 0.062796 0.102497
0.186853 0.124999 0.102695
0.187084 0.187838 0.102428
0.06196 2.09379e-04 0.217112
0.249264 0.0627357 0.140678
0.249533 0.125476 0.0259561
0.249562 0.0624445 0.179082
0.062022 0.0623986 0.140922
0.062131 0.125284 0.140819
0.0622818 0.187403 0.140899
0.24918 0.0624623 0.102628
0.124339 0.0627516 0.140757
0.124562 0.124914 0.140889
0.124637 0.18781 0.140784
0.186919 0.0623918 0.140904
0.186981 0.125228 0.140813
0.187148 0.187497 0.140915
0.18708 0.125149 0.217252
0.249596 0.125349 0.178973
0.124785 0.187524 0.179081
0.186835 1.06944e-04 0.140738
0.0620246 0.0624085 0.21729
0.0619795 0.0626515 0.178988
0.0621545 0.124838 0.179188
0.0622216 0.187714 0.178966
0.124564 0.0623284 0.179104
0.124648 0.125262 0.17904
0.249654 0.187531 0.179089
0.0619061 1.91616e-04 0.140746
0.249606 0.0625874 0.217209
0.24944 0.124943 0.140881
0.124585 1.42589e-04 0.178977
0.249522 0.187877 0.140757
0.249727 0.187706 0.217214
0.0625896 2.54482e-04 0.0261898
0.0617789 3.06765e-04 0.0641545
1.92355e-05 6.2111e-04 0.0259388
0.249177 2.07642e-04 0.102461
0.128233 0.0639716 0.484745
0.18779 8.73375e-04 0.446592
0.249534 0.124606 0.293631
0.0627715 0.125603 0.446596
0.129211 0.00139418 0.48477
0.00399625 0.00153413 0.484775
0.0670293 0.188839 0.48476
0.0667774 0.0637197 0.48481
0.124643 0.24991 0.293618
0.249464 0.124495 0.370013
0.192084 0.188698 0.484785
0.192097 0.0637905 0.484667
0.190878 0.126235 0.484616
0.00153885 0.125192 0.446453
0.123762 0.06204 0.408301
0.125015 0.063118 0.446684
0.249435 5.49333e-05 0.255287
0.129198 0.126524 0.484804
0.186643 0.0623812 0.408383
0.0642762 0.187793 0.446446
0.063771 0.0628027 0.446512
0.188908 0.187464 0.446445
0.123884 0.186924 0.408178
0.126243 3.48854e-04 0.446541
0.187039 0.187127 0.408303
0.124006 0.124811 0.408319
0.0613419 0.12456 0.408211
0.186202 0.124528 0.408182
0.124358 0.249623 0.370092
0.0657836 0.126167 0.48478
0.124214 0.249834 0.408187
1.76762e-04 0.188119 0.446574
0.0617008 0.249715 0.408234
0.00298408 0.0640235 0.484662
0.0619143 0.062697 0.255317
0.0620368 0.124831 0.255508
0.0621735 0.187614 0.25538
0.0618996 0.187307 0.408254
0.124504 0.0621895 0.255513
0.124425 0.124998 0.25539
0.124749 0.187337 0.255534
0.188066 0.125864 0.446744
0.186993 0.0625125 0.255347
0.187024 0.124706 0.255548
0.187165 0.187523 0.255413
0.0626727 8.89041e-04 0.446707
0.249388 0.0623806 0.293574
0.249546 0.187487 0.293591
0.249478 0.187104 0.33181
0.0618547 0.0621981 0.293637
0.0619203 0.125031 0.293624
0.062116 0.187254 0.293667
0.126314 0.125213 0.446462
0.124275 0.0624055 0.293554
0.124527 0.124627 0.293613
0.12453 0.187546 0.293594
0.00322644 0.189049 0.484633
0.186808 0.0620398 0.293725
0.186784 0.124787 0.293666
0.187129 0.187108 0.293682
0.249301 0.124934 0.331848
0.124347 3.26835e-05 0.25531
0.0616575 0.249971 0.369968
3.04356e-04 0.0631012 0.446633
0.249659 0.187199 0.255527
0.0615442 0.062421 0.331764
0.0617622 0.12468 0.331856
0.0619165 0.187435 0.331802
0.0652976 0.00160023 0.484747
0.124112 0.0619787 0.331871
0.12426 0.124908 0.331827
0.124367 0.187178 0.331853
0.190561 0.00147383 0.484741
0.186676 0.0623412 0.331802
0.186647 0.12452 0.331895
0.186947 0.187325 0.331846
0.189165 0.0628694 0.446551
0.0622069 0.249901 0.255471
9.46843e-04 3.26617e-04 0.446557
0.249365 0.187431 0.369981
0.128411 0.188852 0.484778
0.0614865 0.062044 0.370048
0.06168 0.124841 0.370082
0.0616788 0.187057 0.370034
0.125425 0.188128 0.446623
0.124046 0.0622144 0.370107
0.1242 0.124508 0.370037
0.124252 0.187348 0.370042
0.00444238 0.126525 0.484757
0.186556 0.062127 0.370096
0.186709 0.124832 0.370105
0.186771 0.186959 0.369972
0.249472 0.124995 0.255416
0.0615763 0.0624579 0.408312
0.24888 0.0620847 0.408264
0.249238 0.0623905 0.370046
0.249023 0.187021 0.408099
0.249377 0.124778 0.408379
0.249292 0.0620353 0.33189
0.249607 0.0622062 0.2555
0.187308 0.249824 0.255464
0.123943 6.45869e-05 0.408371
0.249406 0.249753 0.37003
0.0620266 0.249789 0.331844
0.186748 0.249884 0.408269
0.249618 0.249711 0.29357
0.186804 0.249901 0.36997
0.18703 0.24975 0.331771
0.249198 0.249991 0.408243
0.0617455 9.32037e-05 0.293545
0.00269721 9.05092e-04 0.523122
0.00287354 0.0637142 0.523205
0.00295758 0.12586 0.523162
0.00331782 0.18865 0.523075
0.0654494 0.0011511 0.523156
0.0654793 0.0632954 0.523207
0.0656848 0.126059 0.523087
0.0652999 0.188464 0.523268
0.128017 7.99728e-04 0.523269
0.128173 0.0635514 0.52317
0.128109 0.125989 0.523382
0.128495 0.188545 0.523109
0.190686 0.00113746 0.523241
0.190531 0.063292 0.523187
0.190883 0.125906 0.523082
0.19049 0.188432 0.523219
0.00255485 9.72165e-04 0.561592
0.00357332 0.0634145 0.561567
0.00270472 0.125875 0.561673
0.00344293 0.188404 0.561482
0.0658772 8.76454e-04 0.56164
0.0652091 0.0633451 0.561539
0.065948 0.125725 0.561456
0.0652389 0.188465 0.561605
0.127711 9.81087e-04 0.56158
0.128211 0.0633657 0.561611
0.127553 0.125825 0.561645
0.12836 0.188184 0.561554
0.190597 7.98172e-04 0.561587
0.190165 0.0636439 0.561564
0.191019 0.125715 0.561411
0.19018 0.188301 0.561496
0.0028019 0.00110265 0.987859
0.00146333 0.0639148 0.98776
0.0023951 0.125923 0.987765
0.00171289 0.188701 0.987636
0.0654614 0.00139552 0.987733
0.0645116 0.0633824 0.987728
0.0641069 0.126244 0.987617
0.0651662 0.188233 0.987618
0.127657 0.00106126 0.987761
0.126345 0.0638873 0.987632
0.127178 0.125794 0.987635
0.126501 0.18861 0.987545
0.190384 0.00125725 0.987716
0.189529 0.0632274 0.987701
0.188869 0.126187 0.987646
0.189957 0.188277 0.987636
0.249544 0.25045 0.025772
0.249824 0.250371 0.178861
0.0622612 0.250373 0.217084
0.0622882 0.250407 0.0642666
0.187305 0.250342 0.217065
0.124804 0.250323 0.17887
0.187332 0.250165 0.102482
0.0011439 0.312993 0.0258842
0.0032825 0.375188 0.0260498
0.00461972 0.437951 0.0263992
0.0629726 0.31299 0.0255747
0.0659177 0.375608 0.0263262
0.0666492 0.437663 0.0262853
0.126053 0.31297 0.0258529
0.128274 0.375322 0.0260905
0.129617 0.438034 0.0264265
0.187749 0.312903 0.0256241
0.190955 0.375597 0.0262639
0.191822 0.437677 0.0262786
0.00186843 0.375489 0.0645476
0.00412638 0.437426 0.064523
0.0624827 0.313067 0.0640779
0.065209 0.375369 0.0643391
0.0670374 0.438015 0.0646922
0.124295 0.313125 0.0639591
0.126604 0.375696 0.0645607
0.129081 0.437554 0.0645418
0.187364 0.313016 0.064077
0.190227 0.375342 0.0642977
0.192188 0.438031 0.0646839
0.249829 0.250121 0.140722
0.00319862 0.375194 0.102595
0.00448821 0.437907 0.102914
0.0617014 0.313045 0.102278
0.0643653 0.375409 0.102795
0.0665814 0.437495 0.102759
0.125216 0.313005 0.102304
0.128129 0.375369 0.10264
0.129486 0.437955 0.10293
0.186654 0.312982 0.102248
0.189264 0.375553 0.102705
0.191615 0.437602 0.102811
0.124705 0.250522 0.0257205
0.249233 0.312969 0.14052
0.00188633 0.37536 0.141007
0.00395705 0.43742 0.141015
0.0628002 0.312892 0.140621
0.0656416 0.375185 0.140903
0.0669186 0.437946 0.14119
2.49483e-04 0.312967 0.102322
0.124289 0.312992 0.14052
0.126907 0.375485 0.141014
0.129073 0.437493 0.141016
0.187821 0.312961 0.14052
0.190665 0.375283 0.140881
0.19196 0.437958 0.141194
0.249579 0.250204 0.0642504
0.0623987 0.250419 0.140654
0.00301225 0.375226 0.179029
0.00428732 0.437985 0.179392
0.19169 0.437974 0.217616
0.0616819 0.313027 0.178737
0.0642403 0.375395 0.179278
0.0663548 0.437419 0.179266
0.190544 0.375318 0.217312
0.125213 0.31287 0.178763
0.12812 0.375279 0.179072
0.129302 0.437973 0.179404
0.186822 0.312972 0.178701
0.189351 0.375385 0.17931
0.191518 0.4375 0.179218
0.128793 0.437453 0.217469
0.00156113 0.375391 0.217433
0.00375652 0.437469 0.217433
0.187811 0.31292 0.216989
0.0626626 0.312831 0.216975
0.0653886 0.375232 0.217267
0.0666767 0.437946 0.217633
0.126779 0.375365 0.217505
0.124051 0.312855 0.216985
0.187039 0.25029 0.0259447
0.249266 0.313097 0.063978
0.18701 0.250363 0.0641802
0.187342 0.250419 0.140632
0.249255 0.312867 0.21691
0.124771 0.250521 0.10236
0.0623467 0.250413 0.0259656
0.24964 0.250471 0.102424
0.124631 0.250212 0.0642407
0.124937 0.250106 0.140779
0.06242 0.250207 0.102536
0.187307 0.250104 0.179022
0.0667784 0.499914 0.140954
2.35588e-04 0.312797 0.178806
0.2499 0.25002 0.217197
4.47603e-05 0.25052 0.0257262
0.0667185 0.5 0.0644746
0.0623426 0.250027 0.178995
0.124792 0.250052 0.217212
0.00418949 0.499983 0.17924
0.0620564 0.250092 0.293539
0.190968 0.437859 0.446279
0.126854 0.250258 0.446357
0.00415721 0.312973 0.484646
0.00120814 0.37524 0.29374
0.24951 0.250069 0.331693
0.00205423 0.312676 0.446471
0.00176897 0.250367 0.446383
0.24997 0.312522 0.331768
0.249727 0.25007 0.255288
0.00388195 0.499956 0.255641
0.00342079 0.437591 0.44636
0.1901 0.312687 0.446158
0.190739 0.251079 0.484662
0.191633 0.437491 0.484555
0.124695 0.250233 0.255281
0.00376564 0.437889 0.484594
0.190969 0.375341 0.484538
0.00349413 0.375445 0.446098
0.0026766 0.375113 0.255443
0.00387986 0.437946 0.255783
0.187971 0.250526 0.446557
0.0614659 0.312814 0.255169
0.0638881 0.375311 0.255649
0.0662002 0.437353 0.255639
0.00438022 0.375304 0.484573
0.124996 0.312594 0.255211
0.127884 0.375063 0.25546
0.128975 0.437975 0.255779
0.00478289 0.251197 0.484634
0.186685 0.312781 0.255174
0.18919 0.375254 0.255623
0.191257 0.437394 0.25564
0.067643 0.312931 0.484627
0.249186 0.312713 0.293476
0.00352333 0.43736 0.293773
0.0661785 0.375275 0.484518
0.0623579 0.31263 0.293455
0.0650944 0.375101 0.293625
0.066369 0.437881 0.293915
0.128249 0.375378 0.446057
0.124004 0.312771 0.293427
0.126335 0.37526 0.293783
0.12867 0.437421 0.293791
0.128396 0.437608 0.446364
0.187518 0.312642 0.293478
0.190226 0.37507 0.293608
0.191432 0.437943 0.293854
0.0666229 0.437857 0.484599
0.0652091 0.312661 0.446267
0.00258378 0.375124 0.331799
0.00375401 0.437838 0.331956
0.130003 0.250927 0.484707
0.0613791 0.3126 0.331673
0.0637211 0.375175 0.331919
0.0659273 0.43736 0.331934
0.124867 0.312656 0.33172
0.127662 0.37507 0.331821
0.128801 0.437801 0.33204
0.124411 0.250095 0.331707
0.186367 0.312661 0.331705
0.18887 0.375075 0.33184
0.191042 0.437301 0.331885
0.00115242 0.375285 0.369893
0.00347906 0.437412 0.370073
0.0656196 0.251143 0.484535
0.187168 0.250152 0.293468
0.0619733 0.312528 0.369999
0.064945 0.375089 0.370005
0.0662932 0.437931 0.370029
0.248996 0.312682 0.370018
0.124001 0.312614 0.370018
0.126123 0.375369 0.369977
0.128576 0.437331 0.370105
0.127043 0.312676 0.446437
0.128737 0.437758 0.484643
0.187046 0.312599 0.36996
0.189928 0.374936 0.369996
0.191318 0.437914 0.370039
0.192439 0.313268 0.484605
0.00289796 0.374821 0.408021
0.00365443 0.437979 0.408181
0.0661369 0.437864 0.446147
0.0624326 0.312644 0.408345
0.0652857 0.375336 0.408039
0.065905 0.437525 0.408114
0.129384 0.375231 0.484624
0.0627346 0.250584 0.446549
0.125216 0.312443 0.408246
0.127663 0.374774 0.408028
0.128696 0.437817 0.40816
0.128327 0.312829 0.484676
0.0659414 0.374815 0.446274
0.187568 0.312693 0.40833
0.190028 0.375284 0.408099
0.190815 0.437601 0.408176
0.190765 0.374831 0.446389
3.362e-04 0.312554 0.408225
0.00324081 0.25091 0.522974
0.00334119 0.313329 0.522969
0.00343561 0.375992 0.522969
0.00373611 0.438148 0.522974
0.0660515 0.250943 0.523023
0.065765 0.313203 0.522979
0.0661528 0.375677 0.522944
0.0658367 0.438509 0.523092
0.128356 0.250877 0.523049
0.128527 0.313251 0.523042
0.128324 0.375948 0.522981
0.128649 0.438153 0.522995
0.191168 0.250959 0.523012
0.19064 0.313499 0.52301
0.191142 0.375698 0.522983
0.190923 0.438351 0.523102
0.00288446 0.250939 0.56152
0.00346861 0.313515 0.561425
0.00298555 0.375972 0.561376
0.00370378 0.438573 0.561387
0.0659809 0.251006 0.561411
0.0655615 0.313446 0.561412
0.0657631 0.375966 0.561353
0.0655226 0.438423 0.561411
0.127762 0.250833 0.56146
0.128352 0.313348 0.561403
0.127885 0.375905 0.561512
0.12847 0.438464 0.561401
0.190906 0.250929 0.561469
0.190429 0.313483 0.561421
0.191054 0.375937 0.561438
0.190411 0.438502 0.561506
0.127426 0.250755 0.987554
0.00377528 0.313136 0.987499
0.00441466 0.375601 0.987792
0.00490506 0.437992 0.98778
0.0659404 0.313159 0.98767
0.0673139 0.375367 0.987785
0.0670912 0.438079 0.987832
0.12872 0.313024 0.987534
0.129436 0.375549 0.98785
0.129897 0.438095 0.987876
0.190837 0.313177 0.987704
0.192368 0.375384 0.987803
0.192223 0.438123 0.987883
0.189131 0.251051 0.987495
0.00266626 0.250771 0.987586
0.0642128 0.251069 0.987487
0.191296 0.687599 0.179162
0.12929 0.500128 0.0261501
0.191646 0.562609 0.179127
0.00441091 0.500288 0.141144
0.191319 0.625075 0.217371
0.0668634 0.500292 0.102817
0.12868 0.687494 0.217435
0.191891 0.500067 0.0644551
0.00427281 0.500034 0.0260953
0.128901 0.687905 0.179322
0.129423 0.500343 0.0646362
0.00393172 0.500307 0.21759
0.00440942 0.562837 0.0262461
0.00410985 0.625083 0.0260982
0.00430384 0.687864 0.0262827
0.0666236 0.562545 0.0260822
0.0668443 0.62537 0.0262874
0.0665994 0.687581 0.026131
0.129256 0.500019 0.179189
0.129457 0.562809 0.0262922
0.129198 0.624985 0.0261025
0.12933 0.687787 0.0262845
0.00439717 0.500325 0.0646062
0.191869 0.562562 0.0261391
0.191982 0.625252 0.0262808
0.19172 0.687516 0.0261023
0.0662963 0.687807 0.217519
0.00414744 0.56249 0.0644281
0.00432356 0.625334 0.064562
0.00409122 0.687417 0.0644392
0.0668504 0.562731 0.0645646
0.0667395 0.624941 0.0644272
0.0666975 0.687713 0.0646145
0.0668613 0.50043 0.0263827
0.129234 0.562512 0.0644516
0.129388 0.625321 0.0645338
0.129168 0.687401 0.0644051
0.00374674 0.687486 0.217392
0.191972 0.562772 0.0645583
0.191739 0.624883 0.0643436
0.191719 0.687763 0.0645837
0.00379306 0.562444 0.217402
0.0042993 0.562818 0.102828
0.00407725 0.625017 0.102714
0.00409561 0.687726 0.102889
0.128873 0.562535 0.217393
0.0667135 0.562487 0.102654
0.0667351 0.625254 0.102838
0.0665034 0.687466 0.10272
0.0663008 0.625014 0.217378
0.129329 0.562803 0.102861
0.129133 0.625041 0.102661
0.129209 0.687797 0.102862
0.00386857 0.625436 0.217527
0.191786 0.56256 0.102675
0.19189 0.625403 0.102785
0.191491 0.687546 0.102741
0.191577 0.562913 0.217472
0.00422884 0.562504 0.140961
0.00412764 0.625362 0.141092
0.00389073 0.687498 0.140975
0.191563 0.625398 0.179291
0.0667913 0.562797 0.141103
0.0665256 0.624949 0.140892
0.0665213 0.687809 0.141112
0.128919 0.625411 0.217548
0.129334 0.562569 0.140914
0.129241 0.625495 0.141069
0.12889 0.687553 0.140941
0.0665326 0.562863 0.217513
0.191818 0.562877 0.141048
0.191591 0.625105 0.140899
0.191568 0.687932 0.141158
0.00412748 0.562791 0.179339
0.00395263 0.624994 0.179178
0.00390952 0.687835 0.179316
0.191335 0.687839 0.217506
0.0666408 0.562507 0.179168
0.0664881 0.625362 0.179338
0.0662519 0.687522 0.179169
0.129247 0.562866 0.179313
0.12894 0.62506 0.179152
0.129505 0.5001 0.102744
0.129048 0.50039 0.217596
0.19197 0.500332 0.102783
0.129402 0.500349 0.141123
0.0667654 0.500327 0.179362
0.191767 0.500448 0.17934
0.00442325 0.500025 0.102739
0.0664298 0.749935 0.0645441
0.192094 0.500424 0.0263504
0.191877 0.500044 0.140933
0.0664289 0.500029 0.217408
0.191416 0.749935 0.0645164
0.191159 0.749938 0.217488
0.00384886 0.749954 0.10281
0.191463 0.500103 0.217401
0.0660737 0.749989 0.217449
0.00380638 0.500569 0.446368
0.191143 0.500103 0.370093
0.129206 0.500172 0.484684
0.191364 0.500391 0.255764
0.00385686 0.500498 0.370072
0.191417 0.500289 0.332045
0.0666882 0.625381 0.484738
0.12886 0.500451 0.293935
0.0663031 0.50033 0.255767
0.00486173 0.562936 0.484609
0.190892 0.500134 0.446547
0.191275 0.500107 0.29385
0.00358812 0.500145 0.408223
0.0659492 0.749971 0.293866
0.128493 0.500097 0.408265
0.0660588 0.500218 0.446494
0.128418 0.68798 0.446644
0.0663585 0.500336 0.484667
0.128756 0.500475 0.446396
0.00331157 0.749967 0.332069
0.128736 0.500386 0.370143
0.0662157 0.500585 0.40824
0.00408725 0.500213 0.484684
0.0664086 0.687821 0.484945
0.191048 0.68832 0.446767
0.190787 0.625307 0.446653
0.00385215 0.562774 0.255669
0.00369651 0.625083 0.255546
0.00370494 0.687797 0.255785
0.128925 0.56303 0.484803
0.0662447 0.56246 0.255581
0.0663084 0.625368 0.255749
0.0661509 0.687537 0.255583
0.191237 0.500178 0.484712
0.128991 0.562888 0.255708
0.128788 0.625073 0.255567
0.128629 0.687842 0.255854
0.191402 0.687982 0.484935
0.191329 0.562604 0.255579
0.191305 0.625388 0.255733
0.191108 0.687551 0.255577
0.128579 0.688105 0.484917
0.00361457 0.56261 0.293761
0.00368528 0.625307 0.294004
0.00345546 0.687361 0.293817
0.0663782 0.500434 0.332029
0.0662303 0.56295 0.293972
0.066087 0.624999 0.29375
0.0660734 0.68783 0.294016
0.0664383 0.562831 0.484822
0.128584 0.562634 0.293755
0.128759 0.625389 0.293993
0.128624 0.687505 0.293843
0.00376273 0.500464 0.293886
0.191331 0.56298 0.293943
0.191192 0.625035 0.293847
0.19111 0.687878 0.293982
0.191019 0.563141 0.446601
0.0037463 0.562838 0.332051
0.00356121 0.624896 0.331992
0.00352216 0.687768 0.332182
0.129042 0.625347 0.48493
0.0663424 0.562607 0.331962
0.0662538 0.625348 0.332234
0.0658973 0.687563 0.332022
0.191111 0.500515 0.408257
0.128733 0.562852 0.332077
0.128615 0.625003 0.332005
0.128594 0.68789 0.332159
0.128291 0.625715 0.446848
0.19124 0.562582 0.332001
0.191249 0.625316 0.332194
0.191034 0.687546 0.332048
0.00361073 0.56265 0.370136
0.00367166 0.625416 0.370285
0.00347844 0.687593 0.370195
0.190984 0.625647 0.484836
0.0663108 0.562918 0.370188
0.0661889 0.625054 0.370253
0.0659527 0.687904 0.370387
0.128624 0.562585 0.370171
0.128667 0.625438 0.370341
0.128634 0.687755 0.370271
0.00377009 0.687992 0.484893
0.191356 0.562882 0.370209
0.191178 0.625102 0.37018
0.191149 0.687913 0.370345
0.0040958 0.625149 0.48485
0.00380054 0.562923 0.40831
0.0033594 0.625205 0.408425
0.00335497 0.688053 0.408528
0.0661607 0.562704 0.408281
0.0661623 0.62557 0.408457
0.0660098 0.687976 0.40847
0.128667 0.563005 0.408377
0.128548 0.625336 0.408498
0.12854 0.687967 0.408456
0.191009 0.562763 0.40831
0.191081 0.625483 0.408511
0.190956 0.687822 0.408443
0.00352061 0.562777 0.446567
0.00350521 0.625481 0.446655
0.00355963 0.688134 0.446733
0.191348 0.562869 0.484844
0.0661423 0.563241 0.446585
0.0658273 0.62546 0.446645
0.0660607 0.68835 0.44677
0.128508 0.562762 0.446605
0.128692 0.500024 0.331972
0.0661887 0.500013 0.370128
0.128523 0.749958 0.255695
0.129004 0.500125 0.255619
0.191101 0.74999 0.293866
0.00355224 0.749953 0.255622
0.0661071 0.500047 0.293747
0.0036564 0.500003 0.331913
0.00341568 0.500863 0.52312
0.00374239 0.563359 0.523051
0.00321904 0.62583 0.523239
0.00333794 0.68822 0.523213
0.0661967 0.500686 0.523006
0.0658488 0.563274 0.523191
0.0659062 0.625876 0.523083
0.065461 0.688488 0.5234
0.128376 0.500806 0.523196
0.128474 0.56328 0.523168
0.128003 0.625937 0.523258
0.128083 0.68836 0.523236
0.191028 0.500698 0.523072
0.190912 0.563564 0.523169
0.190749 0.625773 0.523031
0.190694 0.688614 0.523314
0.00302874 0.500896 0.56146
0.0035648 0.563586 0.561487
0.00296317 0.625918 0.561606
0.00318643 0.688621 0.561717
0.0661297 0.501157 0.561511
0.0655023 0.563376 0.561691
0.0660261 0.626037 0.561565
0.0654674 0.688601 0.561767
0.127907 0.500806 0.561513
0.128486 0.563644 0.561575
0.12798 0.62613 0.561682
0.128398 0.688629 0.561754
0.190875 0.501199 0.561537
0.190181 0.563596 0.561643
0.190905 0.626083 0.561635
0.190168 0.68849 0.561723
0.0673553 0.500467 0.98782
0.192531 0.500504 0.987881
0.129536 0.500592 0.987848
0.00453966 0.500492 0.987754
0.00484288 0.562935 0.9877
0.00440913 0.625495 0.987772
0.00464261 0.68791 0.987845
0.0669457 0.562977 0.987791
0.0671765 0.625431 0.987825
0.0668179 0.688012 0.987841
0.129822 0.563055 0.987819
0.129425 0.62556 0.987835
0.129738 0.687967 0.987887
0.192136 0.563111 0.987786
0.192461 0.625496 0.987805
0.191947 0.688097 0.987857
0.00408986 0.750242 0.064726
0.249537 0.999744 0.217222
0.0618348 0.99991 0.102624
5.64939e-04 0.875202 0.217393
0.249488 0.937748 0.217086
0.0664868 0.750252 0.102945
0.00389946 0.750385 0.141212
0.0669685 0.812872 0.217699
0.129622 0.81294 0.179552
0.188119 0.87516 0.179265
0.0618784 0.937896 0.178933
0.00426002 0.812999 0.0264836
0.00344378 0.875659 0.0262527
0.00227783 0.937963 0.0262922
0.066636 0.750395 0.0263742
0.0661154 0.812803 0.0264414
0.0661209 0.875403 0.0264859
0.0645311 0.938288 0.0260057
0.191366 0.750397 0.102951
0.129323 0.812976 0.0264929
0.128401 0.87572 0.0262542
0.127199 0.937975 0.0262673
0.191704 0.750436 0.0263912
0.191162 0.812888 0.0264532
0.191165 0.875503 0.0264893
0.189562 0.938314 0.0259374
0.0621456 0.937299 0.217209
0.124258 0.999839 0.0643888
0.00357935 0.812762 0.0648227
0.00233806 0.875221 0.0646579
0.249276 0.937308 0.102555
0.00331069 0.812819 0.217656
0.124742 0.937328 0.179041
0.0669206 0.812761 0.0648398
0.0647403 0.87545 0.0645116
0.0625689 0.937516 0.0643347
0.187136 0.937217 0.217264
0.18676 0.999809 0.102588
0.128634 0.812814 0.0648395
0.127398 0.875229 0.0646832
0.124869 0.937942 0.0641302
0.0645441 0.87534 0.217302
0.190949 0.812823 0.179427
0.191885 0.812841 0.0648655
0.189847 0.875524 0.064417
0.187563 0.937482 0.064279
0.191199 0.750344 0.17943
0.00461017 0.812858 0.103117
0.0014951 0.875309 0.10258
0.129044 0.750306 0.0646935
0.124368 0.937797 0.217155
0.128565 0.750322 0.217631
0.0659543 0.81286 0.103031
0.0632567 0.875097 0.102849
0.0618121 0.937759 0.102382
0.124542 0.999722 0.217241
0.128926 0.75009 0.0262408
0.12955 0.812862 0.103145
0.126377 0.875267 0.102575
0.124345 0.937338 0.102586
0.125639 0.875169 0.217476
0.00349298 0.750326 0.217619
0.190941 0.812866 0.103057
0.188188 0.875063 0.102829
0.186766 0.937682 0.102381
0.12838 0.812761 0.217701
0.00343822 0.812888 0.141239
0.124354 0.999848 0.140813
0.249106 0.937675 0.140662
0.0618883 0.999779 0.179044
6.34724e-04 0.875187 0.141007
0.0670262 0.812953 0.141318
0.064272 0.875313 0.140837
0.0619629 0.937279 0.140833
0.128834 0.750364 0.141214
0.191269 0.750115 0.141029
0.128432 0.812953 0.141323
0.125621 0.875145 0.141024
0.12422 0.937784 0.14069
0.186858 0.937815 0.178936
0.126966 0.875338 0.179092
0.192043 0.812888 0.141343
0.189259 0.875226 0.140855
0.187001 0.937267 0.140772
0.19209 0.812856 0.217739
0.0038267 0.750155 0.0262548
0.00453554 0.812959 0.179455
0.00184952 0.875382 0.179038
0.186943 0.999822 0.179037
0.189444 0.875327 0.217309
0.0658799 0.812889 0.179432
0.0631367 0.875251 0.179217
0.249733 0.937233 0.178959
0.0661589 0.750382 0.179393
0.128855 0.750012 0.102823
0.2493 0.999878 0.140778
0.00369968 0.750089 0.179205
0.06634 0.750127 0.14101
0.249222 0.999805 0.06432
0.128663 0.750058 0.17924
0.0663328 0.750555 0.484908
0.0658703 0.750377 0.255794
0.128336 0.750311 0.370454
0.0660461 0.7507 0.446818
0.129167 0.750804 0.485056
0.191016 0.75039 0.33221
0.186645 0.999637 0.331892
0.249792 0.937269 0.255408
0.191025 0.750151 0.370285
0.249653 0.937257 0.331839
0.0656668 0.750603 0.408622
0.186416 0.999599 0.408308
9.09381e-05 0.875065 0.29387
0.0612981 0.999537 0.408279
0.24947 0.937593 0.293489
0.186934 0.999692 0.255372
0.128568 0.750029 0.332048
0.12414 0.999939 0.331826
0.190661 0.750573 0.485005
0.127052 0.938611 0.446537
0.191126 0.813483 0.485137
0.0658084 0.750071 0.370317
0.00300832 0.750309 0.370498
0.00342117 0.75024 0.293997
0.0663737 0.813373 0.485087
0.0662179 0.939073 0.484866
0.191114 0.750409 0.255782
0.190532 0.876071 0.446728
0.00431862 0.812891 0.255915
0.00180179 0.875345 0.255446
0.249321 0.999935 0.331758
0.18915 0.938258 0.446445
0.0657615 0.812769 0.255902
0.0629954 0.875142 0.255692
0.0617162 0.937737 0.255316
0.127956 0.93896 0.484788
0.129385 0.81282 0.255938
0.126772 0.875292 0.25545
0.12464 0.937269 0.255439
0.128799 0.876362 0.484863
0.190846 0.812721 0.255903
0.18806 0.875016 0.25566
0.18706 0.93759 0.255351
0.190617 0.876347 0.484914
0.00304524 0.81275 0.294069
0.190823 0.750587 0.408757
0.00404438 0.813256 0.484933
0.0668548 0.812785 0.294103
0.0640482 0.875204 0.293668
0.0618155 0.93721 0.293629
0.00400887 0.876045 0.484812
0.128256 0.812718 0.294091
0.125287 0.875121 0.293832
0.124301 0.937649 0.293559
0.192066 0.812912 0.294025
0.189445 0.875277 0.293709
0.187048 0.937128 0.293676
0.0658184 0.75029 0.332226
0.00415822 0.812765 0.33227
0.00141185 0.875146 0.33192
0.249149 0.937589 0.370025
0.0032459 0.750755 0.446923
0.0654635 0.812719 0.332237
0.0625278 0.87498 0.331944
0.061542 0.937625 0.331704
0.128468 0.750331 0.294022
0.129461 0.812881 0.332272
0.126756 0.875225 0.331953
0.12426 0.937193 0.331911
0.129007 0.813442 0.485034
0.190735 0.812735 0.332272
0.18791 0.87505 0.331971
0.186692 0.937617 0.331791
0.00292811 0.93891 0.484722
0.00297431 0.812745 0.370402
0.124175 0.999615 0.293633
0.24938 0.999597 0.293598
0.0614791 0.999968 0.370007
0.0669079 0.812791 0.370374
0.0638652 0.875311 0.370081
0.0614111 0.937107 0.370062
0.0656079 0.876388 0.484926
0.128223 0.812999 0.370358
0.125118 0.875012 0.370209
0.124047 0.937466 0.370094
0.191796 0.813384 0.446803
0.192094 0.81289 0.370414
0.18921 0.87541 0.370116
0.186611 0.937192 0.370112
0.00438296 0.750491 0.484913
0.00437704 0.812975 0.408552
0.0021164 0.875534 0.408258
0.128484 0.75019 0.408534
0.0618409 0.999751 0.255405
0.0655732 0.812879 0.408445
0.0638403 0.875329 0.408319
0.0625607 0.937657 0.408328
0.186639 0.999923 0.370072
0.129527 0.81297 0.408553
0.127051 0.875682 0.408337
0.124617 0.937349 0.408294
0.00317715 0.750248 0.408487
0.190652 0.812893 0.408565
0.188935 0.875289 0.408471
0.187436 0.937695 0.408306
0.00328953 0.813218 0.44683
0.00297028 0.875837 0.446609
0.00195363 0.938429 0.446428
0.191623 0.938873 0.484887
0.066913 0.813292 0.446823
0.0656611 0.876104 0.4466
0.0642092 0.93829 0.446547
0.128178 0.813242 0.446769
0.127822 0.875838 0.446634
0.190868 0.750625 0.446882
0.128299 0.750732 0.446864
0.249619 0.937299 0.408366
0.0614519 0.999697 0.331791
0.12394 0.999631 0.370057
0.249174 0.999859 0.370124
0.186804 0.999943 0.293548
0.249135 0.999975 0.408472
0.00286371 0.751007 0.561751
0.00298537 0.751032 0.523364
0.127875 0.75109 0.523445
0.00306274 0.813361 0.523324
0.00286711 0.875826 0.523257
0.00286806 0.93856 0.523094
0.0659498 0.813393 0.523486
0.0655753 0.876003 0.523289
0.06521 0.938578 0.523327
0.128014 0.813475 0.523385
0.127873 0.875839 0.523337
0.12815 0.938474 0.523165
0.191046 0.813501 0.523545
0.19066 0.876171 0.523294
0.190505 0.938444 0.523408
0.00370803 0.813493 0.561764
0.00271367 0.876045 0.561757
0.00314978 0.938323 0.561632
0.0649857 0.813493 0.561887
0.0656178 0.875903 0.561751
0.0651261 0.938444 0.561687
0.128497 0.813483 0.561904
0.127771 0.876117 0.561682
0.128315 0.938463 0.561692
0.190325 0.8133 0.561859
0.190677 0.876073 0.561812
0.190249 0.938536 0.561674
0.0658023 0.751025 0.5617
0.190912 0.751109 0.56173
0.127861 0.750995 0.561742
0.190578 0.750815 0.523261
0.0657384 0.750718 0.523173
0.00423345 0.75056 0.98793
0.0044405 0.813203 0.98802
0.00396526 0.875866 0.987882
0.00428978 0.938832 0.987884
0.0669895 0.750448 0.987946
0.0667559 0.813237 0.987941
0.066941 0.875951 0.987901
0.0662104 0.938604 0.987817
0.129356 0.750567 0.987961
0.129383 0.813237 0.988013
0.128904 0.875835 0.987861
0.129082 0.93874 0.987806
0.192127 0.750511 0.987939
0.1918 0.81326 0.987984
0.191853 0.875946 0.987943
0.191152 0.938535 0.987807
0.374222 2.95843e-04 0.102462
0.499418 0.125018 0.0643426
0.49958 0.187785 0.217069
0.311994 0.125119 0.217212
0.499445 2.90533e-04 0.102398
0.437019 0.0624075 0.21725
0.311797 0.0629556 0.0259251
0.311652 0.12512 0.0261582
0.312092 0.1879 0.0259368
0.499439 0.125311 0.102404
0.37504 5.71811e-04 0.0259841
0.374287 0.0627131 0.0262104
0.374433 0.125459 0.0260417
0.374199 0.187731 0.0261333
0.499654 0.187522 0.179033
0.437596 3.91887e-04 0.0262091
0.436748 0.0631009 0.0259616
0.436639 0.125117 0.0262277
0.437062 0.187875 0.0259021
0.31197 1.49172e-04 0.217132
0.499244 0.0629908 0.0642025
0.437309 0.249959 0.102451
0.499367 0.0627521 0.0261454
0.437241 0.187501 0.217273
0.311671 0.0624958 0.064422
0.311717 0.12533 0.0642133
0.311793 0.187516 0.0643531
0.499538 0.125305 0.178909
0.374135 0.0628334 0.0643404
0.374224 0.124994 0.0644582
0.374297 0.187769 0.0642747
0.374556 0.12488 0.217256
0.436723 0.0625824 0.0644339
0.436782 0.125432 0.0642319
0.436834 0.18754 0.0643183
0.499658 0.0627368 0.217054
0.49958 1.96368e-04 0.178864
0.49942 0.0626266 0.102552
0.499599 0.062407 0.179029
0.374556 0.18777 0.217095
0.311535 0.0628153 0.102529
0.311849 0.125077 0.102621
0.311959 0.187814 0.102421
0.374275 0.062557 0.102609
0.374325 0.125304 0.102507
0.374576 0.187592 0.102588
0.436968 0.125225 0.217101
0.436793 0.0627906 0.102458
0.436971 0.125121 0.102593
0.437006 0.187816 0.102385
0.499433 0.062712 0.140626
0.499607 0.124839 0.140773
0.499515 0.187793 0.140657
0.311828 0.0624733 0.140878
0.311943 0.125211 0.140766
0.312229 0.187449 0.140784
0.374349 0.0627251 0.140634
0.374538 0.124948 0.140821
0.37454 0.187727 0.140693
0.437041 0.0624171 0.140823
0.43706 0.125207 0.140687
0.437219 0.187394 0.14081
0.312053 0.0622869 0.217291
0.311748 2.21037e-04 0.0641574
0.499616 0.187627 0.102578
0.374617 0.0625706 0.217121
0.311906 0.0626178 0.178903
0.312121 0.124818 0.179083
0.312118 0.187778 0.178903
0.374522 0.0623571 0.179048
0.374519 0.12525 0.178952
0.374646 0.187504 0.17903
0.312257 0.187381 0.217274
0.436942 0.0626964 0.178887
0.437131 0.124885 0.179114
0.437096 0.18766 0.178909
0.437007 1.85531e-04 0.217116
0.312712 2.55373e-04 0.0262672
0.49964 0.12545 0.0259284
0.499565 0.125025 0.217183
0.25001 6.26101e-04 0.0258704
0.31177 1.36833e-04 0.140691
0.3745 2.08237e-04 0.178852
0.437245 0.249964 0.178855
0.436737 3.02116e-04 0.064141
0.437002 2.29247e-04 0.140616
0.499333 0.187859 0.0641663
0.499345 0.187647 0.0261069
0.374777 0.249969 0.217105
0.499953 6.57416e-04 0.0258498
0.316482 0.0638551 0.484885
0.379363 0.00143469 0.484826
0.316354 0.126237 0.484784
0.43656 0.124634 0.408294
0.378151 0.189133 0.484812
0.313042 7.53686e-04 0.446695
0.436931 9.28738e-05 0.293507
0.252812 0.0639442 0.484744
0.499519 0.125108 0.255253
0.4369 0.249798 0.331858
0.251413 2.25292e-04 0.446482
0.499072 0.249958 0.40839
0.379509 0.126441 0.484903
0.440566 0.126366 0.484776
0.374315 0.249717 0.370069
0.376654 0.125368 0.446385
0.437763 0.125702 0.446577
0.499357 0.187577 0.293523
0.314056 0.062845 0.446506
0.49884 0.0621115 0.408291
0.375519 0.0633249 0.4466
0.251943 0.125032 0.446467
0.374477 0.124812 0.408393
0.499251 0.124832 0.331842
0.375385 0.188205 0.446585
0.499248 0.0621018 0.331834
0.313977 0.187715 0.446507
0.374028 0.187063 0.408183
0.441626 0.0640349 0.484888
0.499569 0.124658 0.293614
0.250328 0.0631021 0.44668
0.499437 0.0624147 0.293541
0.31145 0.124565 0.408172
0.312047 0.0625456 0.255295
0.312107 0.124712 0.255505
0.312264 0.187517 0.255342
0.254641 0.00139889 0.484804
0.374598 0.0623481 0.25549
0.374491 0.125075 0.255285
0.374666 0.187267 0.255474
0.436909 0.18743 0.40842
0.437058 0.0626447 0.255287
0.437143 0.124778 0.255437
0.437189 0.187624 0.255273
0.254356 0.126392 0.484742
0.49932 0.187306 0.331809
0.311752 0.249972 0.408328
0.436801 0.0622823 0.408507
0.311946 0.062118 0.293687
0.311913 0.124781 0.293601
0.312129 0.18705 0.293643
0.37374 0.06208 0.408226
0.374561 0.0625471 0.293544
0.374566 0.12471 0.293623
0.374602 0.187521 0.29353
0.313068 0.125843 0.446626
0.436907 0.0622575 0.29366
0.436867 0.124975 0.293599
0.437133 0.187153 0.293641
0.437803 7.90961e-04 0.446707
0.499669 0.187333 0.255447
0.376409 3.11622e-04 0.446606
0.311971 0.249831 0.331848
0.253233 0.18868 0.484592
0.311866 0.0624689 0.331794
0.31185 0.124572 0.331855
0.312054 0.187476 0.331751
0.499237 0.249747 0.370095
0.374209 0.0621059 0.331909
0.374364 0.124893 0.331855
0.37439 0.187144 0.33186
0.31568 0.0013596 0.484728
0.43663 0.0623853 0.33177
0.436824 0.12471 0.331891
0.436856 0.187502 0.331803
0.439088 0.187889 0.446527
0.374615 1.45964e-04 0.255254
0.499409 1.83368e-04 0.255253
0.499227 0.187329 0.37014
0.317108 0.188692 0.484899
0.311666 0.0620076 0.370136
0.311727 0.125001 0.370062
0.311818 0.187103 0.370043
0.440628 0.00149899 0.484834
0.37403 0.0624006 0.370082
0.374169 0.124586 0.370095
0.374253 0.187316 0.370004
0.378023 0.0639415 0.484822
0.436645 0.061964 0.370078
0.436856 0.124854 0.37013
0.436804 0.187142 0.370056
0.442133 0.188962 0.484833
0.311972 0.187336 0.40832
0.49901 0.0623183 0.369937
0.311813 0.0623164 0.408497
0.439057 0.0628176 0.446534
0.498634 0.187156 0.408248
0.499492 0.0623264 0.255447
0.312333 0.249773 0.255437
0.499133 0.124656 0.370012
0.498995 0.124779 0.408372
0.499465 0.24973 0.293603
0.499268 1.03388e-04 0.331753
0.437291 0.249779 0.255404
0.311846 0.249956 0.370076
0.374618 0.249765 0.293659
0.43656 0.249908 0.408422
0.250622 0.188154 0.446603
0.315837 0.00114998 0.523134
0.253018 9.30548e-04 0.523235
0.253258 0.063499 0.523097
0.253296 0.125867 0.523082
0.253292 0.188479 0.523101
0.315825 0.0634936 0.523228
0.316025 0.126171 0.523237
0.315388 0.18848 0.523249
0.378025 8.84433e-04 0.523189
0.378162 0.0634255 0.523154
0.37798 0.125964 0.523248
0.378178 0.188761 0.52317
0.440665 0.00123368 0.523195
0.440551 0.0635879 0.523225
0.440564 0.126265 0.52311
0.4405 0.188526 0.523249
0.252424 8.57555e-04 0.561609
0.253156 0.0633532 0.561485
0.252592 0.125758 0.561625
0.253245 0.188291 0.561473
0.31586 9.00696e-04 0.5616
0.315266 0.0635032 0.561537
0.316032 0.12581 0.561663
0.315258 0.188447 0.561654
0.377603 9.17207e-04 0.561657
0.378401 0.0633814 0.561577
0.377683 0.12587 0.561572
0.378477 0.188505 0.561437
0.440678 7.71642e-04 0.561694
0.44027 0.0634832 0.561616
0.440867 0.125884 0.561463
0.440284 0.188651 0.561655
0.252814 8.90594e-04 0.987834
0.251459 0.0638035 0.987683
0.252291 0.125836 0.987717
0.251467 0.188703 0.987673
0.315586 0.00127356 0.98783
0.31455 0.0632782 0.987804
0.313853 0.126164 0.98775
0.314954 0.188273 0.987736
0.377713 0.00104121 0.987869
0.376257 0.0637856 0.987767
0.377179 0.125845 0.987778
0.376296 0.188783 0.987716
0.440358 0.0013143 0.987837
0.439445 0.0633467 0.987853
0.438739 0.12625 0.987827
0.4398 0.188323 0.987763
0.250084 0.31302 0.102308
0.312062 0.250307 0.0259918
0.437001 0.250287 0.0641584
0.436986 0.250203 0.0259215
0.441765 0.499895 0.140909
0.250947 0.312917 0.0259216
0.499608 0.250325 0.0256965
0.374523 0.250201 0.0642356
0.499596 0.250439 0.102269
0.437235 0.250293 0.140532
0.253335 0.37517 0.0261121
0.254796 0.438074 0.0264319
0.312734 0.312947 0.0255733
0.315925 0.37561 0.026211
0.316809 0.437629 0.0262174
0.375768 0.31293 0.0257949
0.378155 0.375115 0.0260281
0.379614 0.438014 0.0263385
0.437568 0.312826 0.0255436
0.440733 0.37546 0.0261992
0.441609 0.437528 0.0262164
0.374574 0.250376 0.102362
0.251694 0.375542 0.0645806
0.254212 0.43744 0.0645768
0.312398 0.312941 0.064043
0.315292 0.375273 0.0642308
0.317269 0.438016 0.0646428
0.374209 0.312945 0.0639439
0.376696 0.375411 0.0644775
0.379101 0.437405 0.0644952
0.437245 0.312833 0.0639977
0.440109 0.375173 0.0642435
0.442065 0.437893 0.0646281
0.437178 0.250334 0.216958
0.253105 0.375283 0.102589
0.254538 0.437977 0.102877
0.37409 0.312906 0.216876
0.311617 0.312973 0.102199
0.314362 0.375398 0.102667
0.316676 0.437514 0.102732
0.375146 0.312897 0.102206
0.378138 0.375136 0.102539
0.379523 0.437861 0.102859
0.436642 0.312817 0.102181
0.43927 0.375337 0.102657
0.441597 0.437459 0.102727
0.374572 0.250369 0.0257248
0.251926 0.375388 0.140957
0.254142 0.437564 0.140995
0.437642 0.312813 0.216933
0.312804 0.312956 0.140476
0.315566 0.375247 0.140784
0.316875 0.437907 0.141108
0.374264 0.312907 0.140448
0.376886 0.375317 0.140943
0.379098 0.437412 0.140921
0.378788 0.437478 0.217409
0.437752 0.312763 0.140448
0.440453 0.375121 0.140806
0.441807 0.437833 0.141124
0.440261 0.375265 0.21724
0.312201 0.250393 0.140559
0.25306 0.375301 0.179027
0.254369 0.437985 0.179389
0.250253 0.312965 0.178738
0.311793 0.312939 0.178617
0.314299 0.375383 0.179183
0.31652 0.437563 0.179192
0.441484 0.437952 0.217569
0.375174 0.31288 0.178683
0.377973 0.375262 0.178997
0.379236 0.43792 0.179376
0.499207 0.312976 0.0639072
0.436762 0.312979 0.178677
0.439208 0.375305 0.179163
0.441411 0.437429 0.179193
0.316684 0.438034 0.217583
0.251785 0.375339 0.217453
0.253874 0.437573 0.217476
0.376734 0.375323 0.217403
0.312779 0.312869 0.216868
0.315474 0.375417 0.217258
0.499703 0.250038 0.140646
0.499529 0.250131 0.064201
0.311933 0.25036 0.0641727
0.312288 0.250281 0.217014
0.374711 0.250347 0.178775
0.499187 0.312907 0.14046
0.499105 0.312896 0.216916
0.499674 0.250345 0.178788
0.312259 0.250048 0.178873
0.374895 0.250043 0.140652
0.499791 0.250031 0.217111
0.312273 0.250092 0.102449
0.379271 0.499966 0.179145
0.316855 0.499993 0.140914
0.315764 0.250953 0.484736
0.312161 0.250053 0.293493
0.37829 0.312989 0.48484
0.379966 0.25118 0.484866
0.253531 0.437909 0.484673
0.441072 0.437805 0.446449
0.379242 0.375192 0.484735
0.374728 0.250164 0.25527
0.251183 0.375256 0.369941
0.437053 0.250065 0.293471
0.253758 0.499984 0.33198
0.440758 0.437553 0.408382
0.374288 0.250085 0.408442
0.31281 0.250725 0.446628
0.499612 0.250176 0.255253
0.251569 0.375154 0.293766
0.440013 0.375313 0.408126
0.437809 0.250583 0.446656
0.440208 0.312856 0.446333
0.440785 0.374827 0.446446
0.254904 0.251042 0.484765
0.25331 0.312783 0.484624
0.317238 0.313179 0.48472
0.254239 0.375098 0.484655
0.441046 0.375425 0.484669
0.252929 0.375187 0.255456
0.253954 0.437976 0.255745
0.378239 0.437442 0.446562
0.311792 0.312739 0.255096
0.314089 0.375209 0.255591
0.316238 0.43736 0.255608
0.31584 0.375424 0.484601
0.375021 0.312607 0.255127
0.377811 0.375138 0.255459
0.378863 0.437966 0.255729
0.378286 0.375289 0.446209
0.436561 0.312769 0.255104
0.438877 0.375237 0.255568
0.441119 0.437306 0.255595
0.437426 0.312761 0.408495
0.37693 0.31267 0.44667
0.25176 0.250332 0.446494
0.25354 0.437408 0.293777
0.378575 0.437796 0.484822
0.312457 0.312551 0.293493
0.315174 0.375114 0.293596
0.31634 0.437954 0.29391
0.498805 0.312671 0.293416
0.374044 0.312709 0.29342
0.376258 0.375256 0.293781
0.378486 0.437415 0.293792
0.498997 0.312679 0.37014
0.437266 0.312703 0.293489
0.440033 0.37517 0.293663
0.441317 0.437918 0.293891
0.253383 0.375283 0.446059
0.315145 0.312758 0.446233
0.252797 0.374994 0.331821
0.253917 0.437759 0.331971
0.37684 0.250444 0.446505
0.311463 0.312701 0.331763
0.313862 0.375114 0.331921
0.316034 0.437444 0.331965
0.44225 0.313132 0.484685
0.374892 0.312606 0.331772
0.377526 0.375121 0.331867
0.378582 0.437731 0.33207
0.436287 0.312558 0.331734
0.4386 0.375043 0.331967
0.440852 0.437396 0.331912
0.499949 0.312652 0.255181
0.378623 0.437887 0.408299
0.253414 0.437427 0.370094
0.441466 0.437765 0.484706
0.440509 0.251094 0.484753
0.312016 0.312581 0.370033
0.31493 0.375047 0.369977
0.316272 0.437967 0.370179
0.499655 0.312523 0.331779
0.373976 0.312764 0.37013
0.376131 0.375373 0.369956
0.378413 0.437393 0.370165
0.253197 0.437483 0.446372
0.436902 0.312687 0.370057
0.439721 0.375053 0.370094
0.440975 0.437919 0.370162
0.315837 0.375034 0.446305
0.252057 0.312583 0.446525
0.252579 0.37482 0.408042
0.253791 0.437994 0.408104
0.316097 0.437838 0.446375
0.312358 0.312703 0.408336
0.314771 0.375302 0.40809
0.315788 0.437437 0.408251
0.316483 0.437786 0.484694
0.250257 0.31245 0.408242
0.374969 0.312671 0.40842
0.377572 0.374833 0.408153
0.250168 0.312549 0.2552
0.436617 0.250046 0.370045
0.499298 0.250037 0.331803
0.374297 0.250004 0.331779
0.253154 0.250752 0.523049
0.253502 0.313322 0.522969
0.253267 0.37595 0.523007
0.253191 0.438196 0.523159
0.315628 0.250923 0.523097
0.315496 0.313236 0.523005
0.316 0.375625 0.523115
0.315584 0.438479 0.523147
0.378062 0.250992 0.523168
0.378771 0.313414 0.523064
0.377834 0.375833 0.523109
0.378291 0.438093 0.523109
0.441352 0.251017 0.52312
0.440871 0.31341 0.523016
0.441086 0.375856 0.523061
0.440637 0.438382 0.523153
0.252781 0.250829 0.561557
0.253482 0.313364 0.561408
0.252844 0.375781 0.561541
0.253507 0.438569 0.561365
0.315681 0.250813 0.561558
0.315106 0.313214 0.56163
0.315688 0.375871 0.56142
0.315154 0.438511 0.561589
0.377637 0.251072 0.561509
0.378255 0.313406 0.561447
0.377497 0.375935 0.561554
0.378221 0.438533 0.561507
0.440769 0.250848 0.561442
0.440106 0.313291 0.561561
0.440748 0.376068 0.561465
0.440413 0.438159 0.561448
0.252449 0.250775 0.987627
0.253666 0.3131 0.987587
0.254481 0.37566 0.987902
0.254991 0.4381 0.987896
0.315796 0.313183 0.987651
0.317237 0.375442 0.987786
0.317231 0.438238 0.987783
0.378367 0.313184 0.987548
0.379318 0.375678 0.987807
0.379988 0.43804 0.987808
0.440671 0.313142 0.987636
0.442209 0.375337 0.98774
0.442179 0.438077 0.987788
0.438926 0.251053 0.987575
0.377262 0.2508 0.987602
0.314127 0.251098 0.987562
0.379351 0.500321 0.141084
0.379606 0.50035 0.0645634
0.254454 0.500417 0.141099
0.25454 0.500102 0.0261346
0.253928 0.625419 0.217518
0.254702 0.500399 0.0645563
0.441926 0.500299 0.102731
0.316748 0.500425 0.179315
0.316992 0.500342 0.102762
0.254704 0.562919 0.0262488
0.25441 0.625006 0.0260678
0.254442 0.687811 0.026274
0.441486 0.687542 0.179165
0.317044 0.562591 0.0260355
0.317165 0.625357 0.0262001
0.316833 0.687544 0.0260696
0.379012 0.500415 0.217539
0.379675 0.562956 0.0261898
0.379379 0.625082 0.0260703
0.379563 0.68777 0.0262871
0.441689 0.625319 0.179282
0.441829 0.562641 0.0260998
0.442136 0.625332 0.0262417
0.44191 0.687584 0.0261036
0.316391 0.687866 0.217513
0.254398 0.5625 0.064433
0.254495 0.625353 0.0644678
0.254133 0.687363 0.0643744
0.442051 0.500457 0.0263163
0.317038 0.562921 0.0644873
0.316828 0.624966 0.0643042
0.316756 0.68772 0.0645938
0.378997 0.625385 0.217553
0.379316 0.562524 0.0644205
0.379524 0.625356 0.0645291
0.37926 0.687378 0.0643702
0.379422 0.500053 0.0261041
0.442087 0.562802 0.0645218
0.441916 0.624858 0.0643671
0.441803 0.687637 0.0645877
0.254365 0.562892 0.102823
0.254233 0.625069 0.102676
0.25419 0.687782 0.102874
0.253889 0.562533 0.217398
0.316753 0.562556 0.102634
0.316941 0.625397 0.102757
0.316583 0.687472 0.102744
0.317236 0.500471 0.0262156
0.379456 0.562826 0.102771
0.379256 0.625009 0.102687
0.379296 0.687741 0.102843
0.378865 0.562514 0.217408
0.441794 0.562434 0.102672
0.441931 0.625272 0.102813
0.441672 0.687501 0.102724
0.44139 0.624992 0.217368
0.254315 0.562597 0.140914
0.254341 0.625457 0.141061
0.253976 0.68754 0.140968
0.254171 0.500491 0.217592
0.316891 0.562862 0.14101
0.316644 0.625088 0.140857
0.316749 0.687892 0.141073
0.378874 0.687463 0.217336
0.3793 0.562507 0.140895
0.379364 0.625415 0.14105
0.379087 0.687532 0.140953
0.316408 0.625038 0.217374
0.44185 0.562797 0.141034
0.44166 0.624966 0.140904
0.441661 0.687875 0.141094
0.316597 0.562962 0.217429
0.254265 0.562875 0.179295
0.254082 0.62507 0.179115
0.254052 0.687867 0.179282
0.441405 0.687809 0.217513
0.316737 0.562602 0.179082
0.31671 0.625336 0.179261
0.316508 0.687538 0.179171
0.253874 0.687454 0.217321
0.379196 0.562865 0.179232
0.379134 0.624978 0.179118
0.379097 0.687842 0.179302
0.441374 0.562872 0.217468
0.441668 0.562447 0.179136
0.441654 0.50031 0.179298
0.316609 0.50016 0.217408
0.441375 0.500061 0.217364
0.254358 0.500065 0.179179
0.253773 0.749921 0.10281
0.37889 0.749978 0.102823
0.441535 0.749952 0.0645163
0.316939 0.500086 0.0644456
0.254468 0.500154 0.102716
0.316487 0.749932 0.0644733
0.379493 0.500084 0.102647
0.441299 0.749995 0.217438
0.316361 0.749963 0.21742
0.378907 0.749956 0.179195
0.253843 0.749949 0.179232
0.441792 0.500022 0.0644045
0.316324 0.500399 0.255746
0.316075 0.500524 0.408384
0.440948 0.62538 0.484839
0.440879 0.687713 0.408525
0.378907 0.500073 0.255639
0.378307 0.687991 0.446832
0.378351 0.62563 0.446773
0.316129 0.500092 0.2938
0.316113 0.563143 0.446693
0.441339 0.687897 0.484912
0.441077 0.500371 0.408408
0.378338 0.562864 0.446675
0.316183 0.688164 0.446775
0.440807 0.625336 0.446725
0.441071 0.749983 0.293853
0.378675 0.563054 0.484917
0.44094 0.688079 0.446881
0.315856 0.625334 0.446679
0.253319 0.688024 0.446746
0.441166 0.563047 0.446675
0.441047 0.500154 0.484757
0.441213 0.500215 0.332053
0.253471 0.562774 0.446617
0.316351 0.562882 0.484871
0.440972 0.500014 0.370073
0.253485 0.625546 0.44683
0.254054 0.625413 0.48485
0.378592 0.500029 0.332012
0.253782 0.50036 0.293963
0.253655 0.563137 0.484883
0.253964 0.562896 0.25568
0.253827 0.625062 0.255612
0.253742 0.687896 0.255808
0.253747 0.500394 0.370137
0.316347 0.562624 0.255589
0.316309 0.625354 0.255704
0.316277 0.687567 0.255591
0.378508 0.749957 0.332147
0.378908 0.562835 0.255692
0.378765 0.625072 0.255618
0.378714 0.687924 0.255796
0.316528 0.688091 0.484935
0.441196 0.562537 0.255558
0.441266 0.625365 0.255773
0.441168 0.687563 0.255585
0.441186 0.56298 0.484837
0.253718 0.562556 0.293768
0.253771 0.625281 0.293957
0.253681 0.687468 0.293855
0.253513 0.688107 0.484954
0.316307 0.562955 0.293941
0.316186 0.625013 0.293832
0.316269 0.687877 0.294048
0.316013 0.500182 0.48479
0.378641 0.56262 0.293801
0.378658 0.62531 0.293967
0.37866 0.687536 0.293835
0.253661 0.500457 0.446403
0.441235 0.562836 0.293963
0.441073 0.62496 0.293815
0.441085 0.687879 0.294012
0.31592 0.625637 0.484911
0.253753 0.562826 0.33206
0.253763 0.625029 0.331997
0.253683 0.687901 0.332157
0.441212 0.50037 0.255781
0.316164 0.562608 0.331959
0.316213 0.625252 0.332196
0.316086 0.68753 0.332078
0.316276 0.500337 0.332063
0.378574 0.562794 0.33213
0.378659 0.624937 0.332009
0.378618 0.687753 0.332209
0.441174 0.562466 0.331968
0.441078 0.625294 0.332212
0.440957 0.687379 0.332124
0.253417 0.562625 0.370148
0.253713 0.625382 0.370399
0.253611 0.687617 0.370263
0.378579 0.500349 0.370249
0.316045 0.562925 0.370226
0.316027 0.625069 0.370202
0.315987 0.687864 0.370372
0.378449 0.562573 0.370198
0.378658 0.625392 0.370349
0.378358 0.687628 0.370279
0.378813 0.625424 0.484925
0.441085 0.56286 0.370217
0.440952 0.625063 0.370254
0.440912 0.687793 0.370448
0.378549 0.68805 0.485001
0.253521 0.562965 0.408418
0.253538 0.625272 0.408452
0.253471 0.687942 0.408571
0.315851 0.562783 0.408334
0.315956 0.625587 0.408488
0.315882 0.687772 0.408496
0.378762 0.500336 0.293934
0.378645 0.562919 0.408473
0.378399 0.625126 0.408444
0.378491 0.687833 0.408567
0.440875 0.562623 0.408441
0.440772 0.625448 0.408549
0.378363 0.500406 0.446553
0.316016 0.500178 0.446539
0.253984 0.500033 0.255604
0.378387 0.500151 0.408399
0.25404 0.500381 0.484613
0.379011 0.500302 0.484752
0.440741 0.500252 0.446678
0.316012 0.500145 0.370134
0.441184 0.5001 0.293825
0.253497 0.500334 0.408232
0.253694 0.749989 0.255628
0.440797 0.749896 0.370358
0.316162 0.749956 0.293872
0.253253 0.500838 0.523046
0.253367 0.563361 0.523153
0.252958 0.62598 0.523164
0.252978 0.688326 0.52321
0.316165 0.500778 0.523123
0.315558 0.563358 0.523268
0.315696 0.625753 0.523198
0.315515 0.688608 0.523386
0.378163 0.500886 0.523232
0.378283 0.563338 0.523281
0.377866 0.625949 0.523312
0.378212 0.688255 0.52332
0.441009 0.500747 0.523074
0.440674 0.563367 0.523241
0.440928 0.625812 0.52312
0.440662 0.688341 0.523286
0.252464 0.501106 0.561538
0.253213 0.563724 0.561522
0.252441 0.626147 0.56167
0.253158 0.688829 0.561737
0.315666 0.50125 0.561487
0.31508 0.56354 0.56177
0.315745 0.626056 0.561669
0.315094 0.6885 0.561813
0.377811 0.500923 0.561535
0.3783 0.563661 0.561561
0.377692 0.625945 0.561706
0.378333 0.688516 0.561769
0.440594 0.501022 0.561594
0.43992 0.563427 0.561744
0.440454 0.626137 0.561681
0.440274 0.688683 0.561705
0.442561 0.500452 0.987781
0.379772 0.500589 0.987713
0.254704 0.500657 0.987755
0.317737 0.500531 0.987754
0.255126 0.563066 0.987822
0.254631 0.6255 0.987754
0.254938 0.687986 0.987843
0.317272 0.563045 0.987613
0.317593 0.625451 0.987695
0.317001 0.687993 0.987748
0.380126 0.562999 0.987736
0.379694 0.62544 0.987691
0.38 0.687825 0.987839
0.442146 0.562975 0.98769
0.442522 0.625414 0.987788
0.442116 0.687988 0.987788
0.499494 0.999946 0.140724
0.49951 0.9375 0.102492
0.253822 0.750346 0.14121
0.379192 0.750261 0.0647113
0.316483 0.75032 0.102982
0.37434 0.999893 0.140744
0.436946 0.999961 0.102513
0.438422 0.875285 0.179185
0.379178 0.750069 0.0262044
0.254351 0.812958 0.0264936
0.253632 0.875681 0.0262343
0.252374 0.938005 0.0262785
0.316853 0.750382 0.0263894
0.316303 0.812755 0.0264241
0.316293 0.875401 0.0265086
0.314728 0.938295 0.0260008
0.379348 0.812924 0.026499
0.378548 0.875604 0.0262342
0.377293 0.937971 0.0263507
0.441812 0.750387 0.0263717
0.441257 0.812814 0.0264244
0.44127 0.875455 0.0265004
0.439528 0.938306 0.0259722
0.442189 0.812886 0.21767
0.250588 0.875084 0.140986
0.253616 0.812767 0.0648177
0.252474 0.875188 0.0646971
0.499405 0.937855 0.1406
0.316396 0.750365 0.179389
0.441262 0.750432 0.179421
0.317009 0.81275 0.064891
0.314915 0.875453 0.0644563
0.312639 0.93751 0.0643155
0.437377 0.937292 0.217168
0.377189 0.875364 0.179072
0.378615 0.812753 0.064811
0.377506 0.875213 0.0647343
0.375124 0.93793 0.0641232
0.375911 0.875206 0.217385
0.441535 0.750079 0.141005
0.441968 0.812861 0.0648609
0.439926 0.875509 0.0644679
0.437678 0.937572 0.0643382
0.499875 0.937445 0.179
0.37462 0.999793 0.217145
0.25462 0.812848 0.103152
0.251448 0.875225 0.102525
0.439689 0.87537 0.217262
0.31729 0.812886 0.217665
0.315972 0.812743 0.103023
0.313288 0.875058 0.102836
0.311747 0.937666 0.102389
0.436969 0.999873 0.178976
0.437031 0.93786 0.178894
0.379684 0.812828 0.10311
0.376568 0.87521 0.102582
0.374418 0.93741 0.102559
0.253549 0.812784 0.217696
0.441009 0.81287 0.103013
0.438373 0.875209 0.102779
0.436851 0.937783 0.102327
0.37862 0.812784 0.21763
0.378997 0.750363 0.141189
0.253485 0.8128 0.141308
0.441581 0.750376 0.102973
0.374813 0.937293 0.178957
0.250032 0.937945 0.0640655
0.317175 0.81281 0.141326
0.314346 0.875236 0.140861
0.312058 0.937186 0.140789
0.374616 0.937794 0.217033
0.441116 0.812834 0.179415
0.378663 0.812852 0.141261
0.3758 0.875177 0.140963
0.374218 0.937774 0.140635
0.31462 0.87539 0.21722
0.499625 0.937846 0.217086
0.442264 0.812943 0.141241
0.439473 0.875372 0.140784
0.43721 0.937335 0.140715
0.312289 0.937256 0.217187
0.378752 0.750382 0.217584
0.254598 0.812905 0.179502
0.251884 0.875256 0.179028
0.37978 0.812917 0.179437
0.311733 0.999888 0.10254
0.316071 0.812845 0.179426
0.3133 0.875229 0.179204
0.311879 0.937783 0.178903
0.253799 0.750329 0.217581
0.254052 0.750316 0.0647359
0.499571 0.999902 0.217179
0.311873 0.999849 0.178991
0.250735 0.875149 0.217379
0.254044 0.750079 0.0262022
0.316475 0.749997 0.141036
0.374215 0.99993 0.0643692
0.499273 0.99995 0.0642629
0.252614 0.939076 0.484924
0.253974 0.813506 0.484982
0.315583 0.876097 0.446701
0.441876 0.813352 0.44685
0.253261 0.750199 0.40862
0.49903 0.999907 0.408421
0.374142 0.999789 0.370093
0.49926 0.99979 0.293601
0.499432 0.937308 0.331878
0.499754 0.937385 0.255397
0.315879 0.750499 0.446833
0.315916 0.750034 0.370296
0.440815 0.750508 0.446879
0.440545 0.750411 0.408683
0.378313 0.750124 0.408598
0.49937 0.937627 0.293513
0.436164 0.9997 0.408367
0.378495 0.75026 0.293985
0.441331 0.813359 0.485126
0.377089 0.938379 0.446712
0.377924 0.875761 0.446649
0.378207 0.938921 0.484906
0.253605 0.750257 0.294004
0.316112 0.813535 0.485187
0.312022 0.999989 0.293535
0.253849 0.876341 0.484968
0.378178 0.8132 0.44689
0.254677 0.81281 0.255894
0.25194 0.875256 0.255396
0.315624 0.876355 0.484969
0.316013 0.81284 0.255879
0.313305 0.87511 0.255619
0.312071 0.937752 0.255247
0.31125 0.999594 0.40835
0.379574 0.812834 0.255901
0.377051 0.875295 0.25539
0.37487 0.937308 0.25538
0.25326 0.750738 0.446959
0.440978 0.812813 0.255881
0.438246 0.875163 0.25554
0.437048 0.93767 0.255249
0.315991 0.750292 0.332265
0.253416 0.812764 0.294097
0.437045 0.999885 0.255321
0.31566 0.750479 0.408788
0.311859 0.99971 0.331875
0.31707 0.812737 0.294066
0.314465 0.875331 0.29368
0.312198 0.93721 0.293578
0.316727 0.939014 0.484905
0.378305 0.812751 0.294138
0.375545 0.875101 0.293857
0.37462 0.937672 0.293457
0.441166 0.750413 0.255768
0.442048 0.812765 0.294145
0.439303 0.875287 0.293628
0.437207 0.937276 0.293623
0.379175 0.87606 0.484948
0.254542 0.812854 0.332266
0.252022 0.875339 0.331927
0.378665 0.749998 0.25561
0.440762 0.876182 0.484981
0.315692 0.81272 0.332261
0.313064 0.875103 0.331959
0.31204 0.937696 0.331701
0.439352 0.938089 0.446592
0.379431 0.81276 0.332371
0.376828 0.875155 0.331919
0.374573 0.937254 0.33189
0.440575 0.812584 0.332334
0.437929 0.875079 0.331999
0.436984 0.937624 0.33174
0.254054 0.750601 0.484984
0.253348 0.812989 0.370419
0.499565 0.93721 0.408408
0.499217 0.93743 0.370098
0.378841 0.813418 0.485096
0.316854 0.812722 0.370555
0.314238 0.875302 0.370088
0.311757 0.937172 0.370016
0.316114 0.750385 0.255773
0.378156 0.812877 0.370439
0.375377 0.874918 0.370279
0.374234 0.937441 0.370057
0.441483 0.938875 0.484914
0.441826 0.812663 0.370534
0.438926 0.875249 0.370146
0.436556 0.937102 0.370074
0.314413 0.93815 0.44646
0.254496 0.813101 0.408624
0.252216 0.875661 0.408292
0.315541 0.812805 0.408643
0.313855 0.875201 0.408454
0.312538 0.937618 0.408255
0.440693 0.875912 0.446719
0.379489 0.812982 0.40861
0.377143 0.875509 0.408328
0.3746 0.9372 0.408327
0.44058 0.812906 0.408615
0.439056 0.875168 0.408381
0.437495 0.937601 0.408364
0.252972 0.813178 0.446848
0.252886 0.875917 0.446617
0.251919 0.938387 0.44651
0.316958 0.813486 0.446855
0.440772 0.750663 0.484998
0.378338 0.750641 0.446945
0.25352 0.750344 0.370503
0.379011 0.750527 0.485049
0.44081 0.750235 0.332313
0.315658 0.750654 0.485095
0.378151 0.750376 0.370506
0.436702 0.999689 0.331842
0.499044 0.999692 0.370061
0.311993 0.999743 0.255402
0.37453 0.999792 0.293576
0.311688 0.999881 0.370014
0.436557 0.999812 0.370067
0.253629 0.75009 0.332111
0.250551 0.875053 0.293799
0.250404 0.875026 0.370294
0.374107 0.999861 0.408392
0.374326 0.999997 0.331767
0.377899 0.750917 0.561834
0.252589 0.751071 0.561801
0.440714 0.751087 0.561724
0.37793 0.750968 0.523461
0.252792 0.751071 0.523298
0.252844 0.813537 0.523449
0.252863 0.875861 0.523404
0.253295 0.938515 0.523199
0.316032 0.813317 0.523507
0.31553 0.876021 0.523245
0.315641 0.938359 0.523385
0.377929 0.813366 0.523367
0.377914 0.875717 0.523371
0.378312 0.938477 0.52323
0.441252 0.813339 0.523408
0.440666 0.875921 0.523226
0.440543 0.93842 0.523345
0.253348 0.813615 0.561955
0.25286 0.876085 0.561757
0.253408 0.938361 0.561678
0.315109 0.813355 0.56187
0.315549 0.875967 0.561777
0.315205 0.938403 0.561688
0.378421 0.813398 0.561821
0.377607 0.875958 0.56176
0.37805 0.938271 0.561784
0.440257 0.813477 0.561712
0.440745 0.875757 0.561728
0.439969 0.938336 0.561654
0.315641 0.751031 0.561805
0.315433 0.750696 0.523302
0.440731 0.750856 0.523207
0.254422 0.750606 0.987992
0.254488 0.813141 0.988029
0.254146 0.875799 0.987917
0.254266 0.938613 0.987868
0.317238 0.75038 0.987923
0.31689 0.813076 0.987978
0.316909 0.875789 0.987965
0.316364 0.938466 0.987903
0.37948 0.750463 0.98796
0.379563 0.812995 0.988038
0.379021 0.875654 0.987931
0.37909 0.938602 0.98791
0.442177 0.750392 0.987946
0.44189 0.813182 0.98801
0.441774 0.875869 0.987938
0.441138 0.938581 0.987922
0.686927 0.125255 0.217117
0.74915 0.0628594 0.026077
0.562096 0.125298 0.217091
0.62435 2.82883e-04 0.102354
0.749332 0.0628348 0.14057
0.56206 0.0624734 0.217211
0.561816 0.0630549 0.0258442
0.561819 0.125193 0.0261579
0.562132 0.187903 0.0258486
0.687402 3.56035e-04 0.0260412
0.686939 5.30643e-05 0.17891
0.624087 0.0628234 0.0260278
0.624414 0.125511 0.0258512
0.624282 0.1877 0.0260968
0.749447 0.187887 0.217068
0.749704 8.25656e-04 0.0258185
0.686651 0.06305 0.0258475
0.686636 0.125211 0.0261279
0.687045 0.187928 0.02584
0.686928 2.74538e-04 0.217059
0.749361 0.125535 0.025919
0.74943 0.18792 0.0641816
0.749289 0.187769 0.0261218
0.624487 0.125029 0.217211
0.56173 0.0625839 0.0643408
0.561816 0.125386 0.0641568
0.561931 0.187612 0.0642986
0.749327 0.062601 0.102537
0.624146 0.0629921 0.0641488
0.624278 0.125089 0.0643564
0.624337 0.187837 0.064168
0.749422 0.124999 0.217222
0.686637 0.0625382 0.0643705
0.686642 0.12548 0.0641639
0.686831 0.187612 0.0643863
0.687179 0.187846 0.17888
0.749254 0.125124 0.0643543
0.562002 2.64157e-04 0.21702
0.749134 0.0629993 0.0642142
0.562204 0.187528 0.217263
0.561822 0.0628555 0.102387
0.561933 0.12514 0.102586
0.561972 0.187864 0.102379
0.624347 0.0626378 0.10257
0.624464 0.125442 0.102443
0.624627 0.187654 0.102604
0.687042 0.0624822 0.217222
0.686756 0.0629404 0.102335
0.686887 0.125234 0.102539
0.687041 0.187882 0.102391
0.624561 0.0627783 0.217081
0.686619 4.01131e-04 0.0640638
0.749463 0.0624502 0.179007
0.749524 0.125466 0.102401
0.562176 0.062457 0.140792
0.561966 0.125333 0.140698
0.562131 0.187482 0.140773
0.687096 0.187516 0.217269
0.624505 0.0628646 0.140617
0.624579 0.125034 0.140775
0.624622 0.187875 0.140652
0.686967 0.06254 0.140794
0.687078 0.125373 0.140687
0.687244 0.187486 0.140781
0.624508 0.18781 0.217105
0.749549 0.0627346 0.217109
0.561802 2.73266e-04 0.0640606
0.749306 5.64455e-05 0.140738
0.562079 0.0628484 0.178828
0.562144 0.124905 0.17906
0.562086 0.187803 0.178843
0.624664 0.0624903 0.179001
0.624557 0.125372 0.178886
0.624632 0.187535 0.179028
0.686996 0.0627784 0.178859
0.687066 0.124946 0.179043
0.749345 3.96947e-04 0.102312
0.624636 2.66751e-04 0.178824
0.749243 7.12807e-05 0.0642444
0.749705 0.187884 0.140719
0.749464 3.24313e-04 0.178879
0.686965 2.9239e-04 0.14059
0.749548 0.125359 0.178865
0.562564 3.49375e-04 0.0260493
0.562029 2.05284e-04 0.140626
0.749609 0.125023 0.140805
0.62469 7.1372e-04 0.0257898
0.749884 0.249964 0.140722
0.749757 0.187614 0.102575
0.74964 0.187519 0.179028
0.563905 0.0626952 0.446658
0.503891 0.126597 0.48484
0.749096 0.187388 0.370041
0.62929 0.00148502 0.484899
0.565237 0.00152845 0.484854
0.623949 0.187095 0.408296
0.562621 0.125718 0.446662
0.749482 0.187388 0.255475
0.686468 0.249874 0.408272
0.62414 7.215e-05 0.331719
0.749154 0.249675 0.370128
0.686328 0.124509 0.408202
0.566753 0.189016 0.484851
0.565588 0.126578 0.484764
0.504222 0.00142348 0.484931
0.623671 0.0620679 0.40829
0.691891 0.0639274 0.484806
0.748758 0.0621044 0.408272
0.561555 0.0623901 0.408559
0.749342 1.11396e-04 0.255244
0.625453 0.188027 0.446693
0.503108 0.0638716 0.484853
0.689046 0.187791 0.446548
0.689039 0.0629778 0.446513
0.749347 0.0623793 0.255505
0.625288 0.0633006 0.446743
0.749439 0.249943 0.293652
0.686686 0.187389 0.40828
0.626232 0.125108 0.446484
0.623947 0.124779 0.408467
0.56413 0.187747 0.446535
0.566719 0.0641149 0.484929
0.749295 0.125168 0.255292
0.686941 0.249884 0.33182
0.561887 0.249825 0.331815
0.501536 0.125247 0.446423
0.561981 0.0627258 0.255255
0.562038 0.124803 0.255451
0.562107 0.187594 0.255343
0.624486 0.0623768 0.255418
0.624417 0.125197 0.255276
0.624535 0.187325 0.255467
0.690859 0.126333 0.484622
0.686874 0.0627928 0.255225
0.686898 0.124925 0.255466
0.687024 0.187766 0.25536
0.687562 8.6293e-04 0.446858
0.749181 0.187173 0.331898
0.500303 0.0632019 0.446768
0.691815 0.188998 0.484903
0.561885 0.0622367 0.293648
0.56187 0.124967 0.293534
0.562075 0.187255 0.293688
0.562859 7.06158e-04 0.446673
0.624364 0.0624688 0.293522
0.624485 0.124771 0.293625
0.624419 0.187634 0.293541
0.686724 0.0621956 0.293694
0.686657 0.125165 0.293572
0.686867 0.187349 0.293673
0.561837 0.187484 0.408396
0.749092 0.0624531 0.293557
0.626113 3.45787e-04 0.446508
0.749265 0.124705 0.293624
0.749034 0.124887 0.331811
0.561794 0.0624503 0.331728
0.5617 0.124684 0.331868
0.561915 0.18746 0.331794
0.628154 0.188996 0.48471
0.624069 0.0621476 0.331919
0.624174 0.1249 0.331873
0.62424 0.187339 0.331882
0.749266 0.187635 0.293551
0.686452 0.0624344 0.331809
0.686505 0.124692 0.331905
0.686758 0.187478 0.331792
0.686654 0.0622787 0.408409
0.748986 0.0623758 0.370043
0.749445 0.124919 0.408365
0.561822 4.84369e-05 0.293521
0.629431 0.126408 0.484814
0.561389 0.0621166 0.370111
0.561535 0.124923 0.370118
0.561609 0.187108 0.370048
0.503236 0.188806 0.484819
0.623911 0.0624771 0.370096
0.624009 0.124633 0.37017
0.62399 0.187475 0.370164
0.627936 0.0639689 0.484901
0.686315 0.0621222 0.370053
0.686639 0.124939 0.370138
0.686624 0.187163 0.370125
0.69074 0.00149968 0.484787
0.561216 0.124567 0.408346
0.749151 0.12457 0.370029
0.748875 0.187215 0.408208
0.687984 0.125808 0.446652
0.624095 0.249762 0.370098
0.50099 2.92155e-04 0.446614
0.624356 1.86606e-04 0.255242
0.748922 0.0620744 0.331925
0.749043 1.33391e-05 0.408399
0.561764 0.249927 0.370025
0.562183 0.249887 0.255414
0.686756 1.31804e-05 0.293517
0.561535 0.249948 0.408383
0.686623 0.249952 0.370025
0.50068 0.18832 0.446668
0.624356 0.250005 0.331852
0.624522 0.249882 0.293613
0.502699 9.65937e-04 0.523256
0.50305 0.0637741 0.523238
0.502934 0.126189 0.523156
0.503438 0.188648 0.523115
0.56563 0.00127693 0.523185
0.565343 0.063581 0.523286
0.565658 0.12612 0.523144
0.565523 0.188552 0.523216
0.628056 0.00106404 0.52337
0.628164 0.0636056 0.523204
0.628059 0.126037 0.52327
0.628506 0.188523 0.523134
0.690958 0.0011124 0.523168
0.690878 0.0633094 0.523187
0.690927 0.125868 0.523034
0.690634 0.188456 0.523183
0.502438 9.27929e-04 0.561639
0.503163 0.0634595 0.561523
0.502622 0.12603 0.561702
0.503338 0.188432 0.561606
0.565729 8.12756e-04 0.561546
0.564981 0.0633301 0.561703
0.565977 0.125935 0.561495
0.565353 0.188473 0.561576
0.627696 0.00103915 0.561657
0.628476 0.0634883 0.561532
0.62793 0.125921 0.561546
0.628536 0.188228 0.561521
0.690943 7.82924e-04 0.561538
0.690469 0.0634815 0.561456
0.691152 0.125714 0.561542
0.690658 0.188397 0.561435
0.502673 0.00109839 0.987823
0.501195 0.0638489 0.987722
0.50216 0.125796 0.987766
0.501228 0.188827 0.987639
0.565098 0.00139394 0.987571
0.564393 0.0633008 0.987605
0.563665 0.126263 0.987628
0.564767 0.188197 0.987613
0.627406 0.00110027 0.987648
0.626298 0.0638845 0.987485
0.626998 0.125648 0.987615
0.626301 0.188542 0.98753
0.690414 0.00138919 0.987566
0.689311 0.063359 0.987692
0.6888 0.126175 0.987624
0.689753 0.188182 0.987632
0.686967 0.250371 0.0642042
0.561986 0.250348 0.064124
0.749727 0.250333 0.178821
0.691629 0.499868 0.140958
0.629299 0.499911 0.102724
0.562183 0.250353 0.21701
0.749796 0.250366 0.102366
0.562095 0.250366 0.140521
0.687118 0.250331 0.216993
0.562198 0.250121 0.102462
0.503024 0.375018 0.0260446
0.50448 0.437884 0.0264403
0.562614 0.312692 0.0255536
0.565768 0.3753 0.0263146
0.566525 0.437484 0.0262934
0.625938 0.312768 0.0258607
0.628109 0.375003 0.026055
0.629426 0.437784 0.0264019
0.687725 0.312764 0.0256067
0.690782 0.375392 0.0262604
0.691536 0.437403 0.0262469
0.500088 0.312908 0.102209
0.501553 0.375438 0.0644936
0.50403 0.437338 0.0645258
0.562239 0.312872 0.0640352
0.565115 0.37517 0.0642853
0.567057 0.437849 0.0646833
0.62428 0.312901 0.063937
0.626475 0.375396 0.064543
0.628999 0.437287 0.0645436
0.687286 0.312906 0.0640793
0.690014 0.375166 0.0642749
0.691962 0.437804 0.0646972
0.629078 0.499908 0.1792
0.503056 0.375108 0.102553
0.504356 0.437774 0.102843
0.6916 0.437888 0.217577
0.561511 0.312841 0.102201
0.564195 0.375333 0.102696
0.566548 0.43742 0.102772
0.625028 0.312908 0.102298
0.627968 0.375148 0.102595
0.629318 0.437811 0.102907
0.686612 0.312831 0.102188
0.689182 0.37534 0.102653
0.691456 0.437374 0.102751
0.501773 0.375321 0.140954
0.504006 0.43735 0.140943
0.5626 0.312846 0.140446
0.565411 0.375165 0.140831
0.566665 0.437848 0.141209
0.629142 0.499895 0.0260968
0.624069 0.312897 0.140466
0.626698 0.375347 0.140957
0.62884 0.437351 0.140961
0.687686 0.312848 0.140475
0.690466 0.375232 0.140801
0.69166 0.43783 0.14118
0.690236 0.375148 0.217277
0.500807 0.312841 0.025804
0.5028 0.375257 0.179002
0.50408 0.437904 0.179428
0.624009 0.312833 0.216937
0.56167 0.312932 0.178666
0.564036 0.375362 0.179235
0.566215 0.437396 0.17924
0.687454 0.312766 0.216931
0.624966 0.312799 0.178703
0.62776 0.375292 0.17898
0.628999 0.437904 0.179381
0.626541 0.375318 0.217454
0.686599 0.312867 0.178678
0.689051 0.375378 0.179235
0.691272 0.437351 0.179196
0.749155 0.312893 0.140477
0.624587 0.250326 0.0256871
0.501624 0.375213 0.217397
0.503647 0.437408 0.21744
0.62863 0.437405 0.217461
0.5626 0.312781 0.216924
0.565246 0.375237 0.217223
0.566428 0.437962 0.217576
0.749268 0.3129 0.0639825
0.687309 0.250321 0.140543
0.624606 0.250321 0.178732
0.749482 0.250477 0.0257056
0.562065 0.250292 0.0259119
0.687102 0.250259 0.0259756
0.624594 0.250447 0.102326
0.748886 0.312811 0.216963
0.566641 0.499874 0.140989
0.566735 0.499932 0.0644566
0.504362 0.499936 0.102729
0.749649 0.250207 0.0642058
0.624515 0.250128 0.0642177
0.624706 0.250038 0.14066
0.691639 0.499879 0.0644378
0.691402 0.49987 0.21738
0.500182 0.312833 0.178711
0.504152 0.499913 0.179183
0.624691 0.250076 0.217173
0.562176 0.250061 0.178919
0.749536 0.250034 0.217151
0.687302 0.250054 0.102484
0.687196 0.250056 0.178897
0.629232 0.375217 0.484721
0.690581 0.374882 0.446327
0.565902 0.251111 0.484853
0.690958 0.375356 0.484624
0.500789 0.37529 0.369991
0.749197 0.250101 0.40835
0.624558 0.250221 0.255315
0.749706 0.312621 0.331747
0.749388 0.250219 0.255307
0.749292 0.250114 0.331797
0.502123 0.312607 0.446606
0.62703 0.25038 0.446552
0.501187 0.375235 0.29378
0.628519 0.499884 0.331986
0.566093 0.437654 0.446385
0.687907 0.250628 0.446501
0.62826 0.437567 0.446482
0.565759 0.499962 0.446644
0.503423 0.313112 0.484789
0.504821 0.250964 0.484859
0.503307 0.437958 0.484729
0.690738 0.437896 0.446289
0.690821 0.25099 0.484671
0.502764 0.375042 0.255441
0.50378 0.43794 0.255754
0.628144 0.375415 0.446204
0.561495 0.312827 0.255134
0.563941 0.375222 0.255635
0.566081 0.437371 0.255674
0.63012 0.25105 0.484803
0.624856 0.312653 0.255183
0.627676 0.375129 0.255461
0.628736 0.437909 0.255789
0.501712 0.250543 0.446563
0.686364 0.312784 0.255182
0.688902 0.375231 0.255597
0.691099 0.437345 0.255604
0.567131 0.313058 0.484842
0.503362 0.437609 0.446504
0.749847 0.31255 0.255187
0.503467 0.437498 0.293791
0.562283 0.312632 0.293493
0.564991 0.37516 0.293617
0.566141 0.437878 0.293977
0.566082 0.375298 0.484724
0.62384 0.312793 0.293481
0.626187 0.375235 0.293811
0.628429 0.43741 0.293841
0.627049 0.312617 0.446602
0.687208 0.312663 0.293496
0.690027 0.375074 0.293648
0.691207 0.43792 0.29396
0.691482 0.437832 0.484614
0.564945 0.31285 0.44641
0.502433 0.37507 0.331882
0.503528 0.437722 0.332174
0.628204 0.313005 0.484635
0.56117 0.312636 0.331693
0.563613 0.375111 0.331896
0.565822 0.437281 0.33197
0.500183 0.312493 0.408311
0.624753 0.312574 0.331776
0.627472 0.375095 0.331871
0.62863 0.437683 0.332048
0.748783 0.312775 0.370021
0.68622 0.3128 0.331721
0.688576 0.375061 0.33199
0.690774 0.437333 0.331938
0.561973 0.250089 0.293525
0.692293 0.313116 0.484721
0.503172 0.437288 0.37013
0.503425 0.375387 0.446262
0.56198 0.312668 0.37012
0.564671 0.375125 0.370092
0.565942 0.438028 0.370162
0.623733 0.312809 0.370123
0.625862 0.375356 0.370078
0.628123 0.437313 0.370136
0.504051 0.37501 0.48469
0.566408 0.437852 0.484723
0.686704 0.312635 0.370111
0.689649 0.375174 0.370096
0.691101 0.437852 0.37015
0.562537 0.250696 0.446744
0.50257 0.374778 0.408101
0.503414 0.43788 0.408308
0.690087 0.31276 0.446276
0.562486 0.312792 0.408446
0.564903 0.37533 0.408217
0.565607 0.437489 0.408211
0.628541 0.437865 0.484767
0.748903 0.312865 0.293439
0.624988 0.31244 0.408405
0.627283 0.37475 0.408192
0.628482 0.437898 0.408163
0.687007 0.250189 0.293602
0.565759 0.374939 0.446452
0.687233 0.312644 0.408377
0.689788 0.375392 0.408112
0.690636 0.437396 0.408211
0.628823 0.499888 0.255643
0.503582 0.499899 0.332001
0.566027 0.499992 0.293851
0.691131 0.499999 0.293829
0.565884 0.499916 0.370137
0.687043 0.250012 0.25544
0.624066 0.25002 0.408455
0.503054 0.251099 0.523034
0.503702 0.31339 0.523122
0.503346 0.375832 0.523082
0.503585 0.438397 0.523105
0.566202 0.251146 0.523145
0.565947 0.313312 0.522968
0.566215 0.375783 0.523055
0.565842 0.438406 0.523092
0.628426 0.250922 0.523066
0.628807 0.313357 0.523043
0.628372 0.37584 0.52307
0.628666 0.438293 0.523136
0.691254 0.251008 0.523084
0.691029 0.31344 0.523059
0.69111 0.375661 0.523032
0.690629 0.438518 0.523106
0.502968 0.250959 0.561576
0.50366 0.313388 0.561558
0.502887 0.37575 0.561495
0.503688 0.438465 0.56148
0.565998 0.250847 0.561504
0.565594 0.313348 0.561418
0.565811 0.37601 0.561555
0.565389 0.438398 0.561444
0.628143 0.250912 0.5614
0.628656 0.313508 0.561416
0.628057 0.375792 0.561421
0.628613 0.438544 0.561425
0.69104 0.250922 0.561481
0.690625 0.313404 0.561511
0.691182 0.376144 0.561416
0.690489 0.438558 0.561431
0.503418 0.312932 0.98754
0.504297 0.375491 0.987855
0.504861 0.437881 0.987896
0.565672 0.313066 0.987668
0.567098 0.375168 0.987803
0.566975 0.437899 0.987869
0.628465 0.312848 0.98753
0.629263 0.375457 0.987881
0.629756 0.437872 0.987832
0.690648 0.31306 0.987648
0.692177 0.375204 0.987749
0.691947 0.437936 0.98784
0.50227 0.250714 0.987602
0.563922 0.250948 0.987457
0.627289 0.250597 0.987577
0.689024 0.251026 0.987502
0.62925 0.500178 0.141123
0.691534 0.562396 0.179163
0.691405 0.625179 0.179321
0.566298 0.500041 0.217435
0.691648 0.500289 0.179366
0.504438 0.500242 0.0645973
0.566897 0.500349 0.0263781
0.566786 0.500189 0.102839
0.628717 0.687458 0.217323
0.629323 0.500242 0.0645805
0.566607 0.50032 0.17937
0.504544 0.562797 0.0262999
0.504312 0.625035 0.0261143
0.504464 0.687815 0.026325
0.566743 0.562562 0.0261233
0.566975 0.625328 0.0263018
0.56674 0.687598 0.0261316
0.566302 0.562844 0.217503
0.629361 0.56272 0.0262365
0.629091 0.624967 0.0260588
0.629286 0.687757 0.0262847
0.691528 0.562375 0.0260708
0.691778 0.6252 0.0262667
0.691473 0.687577 0.026087
0.628806 0.562418 0.217423
0.504298 0.562442 0.0644585
0.504449 0.625204 0.0645871
0.504163 0.687321 0.0644269
0.566851 0.562687 0.0645479
0.566754 0.624849 0.0644224
0.566766 0.687636 0.0646077
0.566344 0.687752 0.217531
0.629194 0.562391 0.0644047
0.629291 0.625255 0.0645876
0.629064 0.687353 0.0644571
0.691141 0.687524 0.179228
0.691779 0.562642 0.0645255
0.691552 0.62483 0.0643966
0.691588 0.687703 0.0645901
0.503889 0.625424 0.217535
0.504352 0.562668 0.102814
0.504214 0.624983 0.102717
0.504221 0.687699 0.102829
0.503838 0.687521 0.21737
0.566664 0.562356 0.1027
0.566733 0.62518 0.102851
0.566474 0.687553 0.10272
0.503898 0.50039 0.217591
0.629212 0.562724 0.102814
0.629024 0.624902 0.102676
0.629146 0.687714 0.102839
0.504284 0.500195 0.141164
0.691565 0.562392 0.102667
0.691633 0.625255 0.102816
0.691386 0.687504 0.102703
0.566372 0.624934 0.217362
0.504226 0.56236 0.140934
0.504251 0.625408 0.141085
0.503999 0.687588 0.140957
0.628865 0.687783 0.179302
0.566728 0.562714 0.141068
0.566496 0.624972 0.140921
0.566609 0.687869 0.141109
0.691252 0.624931 0.217421
0.629095 0.562378 0.140932
0.629103 0.625253 0.141064
0.628789 0.687551 0.140929
0.50378 0.562436 0.217426
0.691567 0.562713 0.141048
0.691401 0.624874 0.140906
0.691404 0.687772 0.141133
0.691331 0.687739 0.217535
0.50405 0.562848 0.179311
0.504024 0.624987 0.179161
0.503952 0.687866 0.179282
0.691351 0.562769 0.217492
0.566573 0.562453 0.179162
0.566573 0.625303 0.179328
0.566359 0.687549 0.179155
0.628868 0.625266 0.217564
0.628984 0.562729 0.179319
0.628918 0.624929 0.179182
0.691818 0.500256 0.0263257
0.566248 0.749955 0.217387
0.628872 0.500256 0.21763
0.691693 0.500166 0.102826
0.691105 0.749948 0.217425
0.504291 0.500064 0.026139
0.628721 0.749996 0.179179
0.566428 0.749994 0.0645331
0.565983 0.500508 0.408254
0.56622 0.500353 0.255817
0.503381 0.749952 0.332095
0.504125 0.687862 0.484866
0.503159 0.625367 0.446763
0.566204 0.625355 0.484804
0.628486 0.500432 0.37021
0.565994 0.749944 0.293825
0.691085 0.563103 0.446641
0.691037 0.688226 0.446787
0.628825 0.500486 0.484752
0.628107 0.687839 0.446822
0.503537 0.562844 0.446664
0.628139 0.625559 0.446833
0.691061 0.625587 0.484809
0.690798 0.625508 0.40856
0.690886 0.500588 0.408312
0.690688 0.687755 0.408559
0.503198 0.687978 0.446749
0.628404 0.562744 0.44659
0.565813 0.625211 0.44669
0.565789 0.688031 0.446835
0.628539 0.749949 0.255612
0.628319 0.500531 0.446411
0.503603 0.500374 0.370267
0.504039 0.625263 0.484843
0.566229 0.563026 0.44655
0.628597 0.500217 0.294023
0.691262 0.500244 0.255774
0.503804 0.562793 0.255724
0.503739 0.625024 0.255642
0.50376 0.687837 0.255799
0.566157 0.687894 0.485095
0.566178 0.562469 0.255614
0.566193 0.625285 0.255786
0.566153 0.687472 0.255582
0.628621 0.563081 0.484906
0.56609 0.500495 0.484913
0.628871 0.562698 0.255751
0.628737 0.624995 0.255637
0.628628 0.687866 0.255817
0.628928 0.625429 0.484918
0.691169 0.562478 0.255654
0.691218 0.6253 0.255765
0.691128 0.687476 0.25556
0.690691 0.625306 0.446633
0.503577 0.562577 0.2938
0.503718 0.625345 0.293994
0.503548 0.687431 0.293838
0.504006 0.563079 0.484841
0.566246 0.562837 0.29396
0.565966 0.625006 0.293821
0.566116 0.687861 0.294075
0.628499 0.562458 0.293803
0.628663 0.625276 0.293973
0.628475 0.687491 0.293865
0.691221 0.562809 0.294036
0.691013 0.624992 0.293832
0.690946 0.687911 0.294026
0.503687 0.562765 0.332098
0.503626 0.625029 0.332039
0.503426 0.687744 0.33222
0.691417 0.562966 0.484741
0.566099 0.562545 0.332026
0.566126 0.625317 0.332169
0.565904 0.687405 0.332102
0.6911 0.500299 0.332112
0.628524 0.562676 0.33215
0.628579 0.62488 0.332004
0.628461 0.687832 0.33224
0.691463 0.687952 0.484981
0.691062 0.562542 0.331975
0.691022 0.625259 0.332198
0.690779 0.687465 0.332052
0.503486 0.56252 0.37019
0.503434 0.625348 0.370438
0.503311 0.687591 0.37031
0.566219 0.500215 0.332117
0.566027 0.562775 0.370312
0.565815 0.624957 0.370186
0.565845 0.687858 0.370411
0.628329 0.562489 0.370149
0.628361 0.625363 0.370455
0.628263 0.687561 0.370271
0.566256 0.56301 0.485011
0.69105 0.562847 0.370252
0.690823 0.625089 0.370243
0.690863 0.687841 0.370368
0.503431 0.562963 0.408442
0.503235 0.625063 0.408423
0.503357 0.687936 0.408576
0.565721 0.562683 0.408432
0.565911 0.625496 0.408501
0.565686 0.687777 0.408505
0.628507 0.688144 0.485043
0.628498 0.562983 0.40839
0.628317 0.625162 0.40849
0.628249 0.68799 0.408719
0.690727 0.562734 0.408355
0.69089 0.500102 0.370183
0.503441 0.500189 0.408382
0.503798 0.500504 0.44658
0.503612 0.500387 0.294003
0.690736 0.50016 0.446523
0.503841 0.500205 0.484722
0.691189 0.500343 0.484673
0.628179 0.500183 0.408309
0.503787 0.500076 0.255656
0.503192 0.500883 0.523206
0.503384 0.563379 0.52314
0.50277 0.625718 0.523203
0.503014 0.688195 0.523221
0.566134 0.50083 0.523154
0.565403 0.563412 0.523353
0.566089 0.625743 0.523101
0.565332 0.68857 0.523529
0.628457 0.500879 0.523209
0.628241 0.563203 0.523117
0.627985 0.626004 0.523272
0.628219 0.68814 0.523345
0.691285 0.500785 0.523005
0.690899 0.563628 0.523249
0.691088 0.625816 0.523111
0.690601 0.688415 0.523347
0.502634 0.500923 0.56156
0.503037 0.563678 0.561647
0.502399 0.625778 0.561787
0.502999 0.688633 0.561731
0.566038 0.501113 0.561604
0.565145 0.563577 0.561676
0.565719 0.626127 0.56164
0.565226 0.688467 0.561773
0.627976 0.501114 0.561543
0.628609 0.563696 0.561638
0.627956 0.625917 0.561666
0.628421 0.688555 0.56182
0.691177 0.501192 0.561479
0.690414 0.563472 0.561501
0.690851 0.626287 0.561614
0.690349 0.688638 0.561692
0.692417 0.500272 0.987783
0.567308 0.500351 0.98789
0.629459 0.500421 0.987784
0.504647 0.500496 0.987802
0.50496 0.56297 0.987814
0.504647 0.62549 0.987794
0.504861 0.687955 0.987876
0.567015 0.562933 0.987811
0.567297 0.625424 0.987803
0.566972 0.68805 0.98783
0.629799 0.562855 0.987746
0.629446 0.625538 0.987746
0.629727 0.68795 0.987797
0.691949 0.562886 0.98776
0.692301 0.625344 0.987756
0.691816 0.687982 0.987789
0.688273 0.875328 0.179093
0.690895 0.812777 0.179354
0.503676 0.750327 0.217542
0.624541 0.937885 0.217028
0.566465 0.750382 0.10295
0.629535 0.812959 0.179397
0.50389 0.750017 0.102804
0.504182 0.750288 0.0646694
0.628874 0.750163 0.0261982
0.561984 0.9999 0.102485
0.626925 0.875425 0.178998
0.503893 0.750019 0.179206
0.504222 0.813028 0.0264871
0.503369 0.875693 0.0262433
0.502181 0.938056 0.0262306
0.566748 0.750482 0.0263624
0.56614 0.812898 0.0263739
0.566181 0.875617 0.0264181
0.564496 0.938362 0.0258617
0.749376 0.937852 0.217013
0.629202 0.813059 0.0263928
0.628439 0.875736 0.0261635
0.627142 0.938115 0.0261859
0.691613 0.750441 0.0263042
0.69118 0.812853 0.0263701
0.691092 0.875669 0.026385
0.689392 0.93841 0.0258974
0.69201 0.812895 0.217599
0.749966 0.93802 0.0640728
0.503649 0.812785 0.0647528
0.502494 0.875329 0.0646186
0.749239 0.937867 0.140595
0.564551 0.875355 0.21725
0.566996 0.812858 0.0647381
0.56484 0.875577 0.0643912
0.56265 0.937553 0.0642352
0.624846 0.93746 0.178965
0.62864 0.81288 0.0647397
0.627396 0.875412 0.0645883
0.625058 0.937998 0.0640803
0.628662 0.750265 0.217576
0.629152 0.750336 0.0646843
0.691756 0.812955 0.0647357
0.689733 0.875584 0.064393
0.687554 0.937622 0.0641984
0.624536 0.999963 0.217185
0.749693 0.937469 0.178963
0.504758 0.812888 0.103095
0.501548 0.87525 0.102496
0.69139 0.750334 0.102917
0.628395 0.812802 0.2176
0.563338 0.875359 0.179175
0.565982 0.812947 0.102964
0.563256 0.875204 0.102689
0.561886 0.937771 0.102304
0.503951 0.750473 0.141171
0.628813 0.75036 0.141191
0.629701 0.812959 0.103109
0.626443 0.875291 0.102471
0.62442 0.937404 0.102471
0.686959 0.937938 0.178801
0.690946 0.812886 0.102983
0.68827 0.875222 0.102702
0.686809 0.937791 0.102258
0.625708 0.875298 0.217351
0.566262 0.750342 0.17935
0.503576 0.812965 0.141256
0.562086 0.937985 0.178895
0.749394 0.937487 0.102468
0.562277 0.937396 0.217182
0.567134 0.812969 0.141228
0.564373 0.875354 0.140703
0.562213 0.937398 0.140737
0.689348 0.875308 0.217151
0.628446 0.812929 0.141208
0.625662 0.875282 0.140891
0.62431 0.937814 0.140589
0.503498 0.812816 0.217621
0.691109 0.750277 0.179363
0.692027 0.812982 0.141256
0.689321 0.87533 0.140706
0.687075 0.937394 0.140673
0.567115 0.812854 0.217589
0.565966 0.812898 0.17939
0.504648 0.812927 0.179457
0.502033 0.875393 0.179054
0.628881 0.750018 0.102781
0.687154 0.937332 0.217147
0.504039 0.750176 0.0262499
0.562037 0.999961 0.178983
0.50011 0.937966 0.0640446
0.500864 0.875321 0.217325
0.686869 0.999975 0.10249
0.691296 0.750003 0.0644566
0.7494 0.99997 0.217133
0.500743 0.875262 0.140914
0.624494 0.999969 0.140717
0.566399 0.750109 0.141016
0.691242 0.750022 0.140986
0.624198 0.999993 0.0641898
0.504242 0.813403 0.484997
0.565858 0.750249 0.332231
0.503394 0.750668 0.446889
0.565978 0.750495 0.446927
0.565678 0.87626 0.485031
0.691003 0.75038 0.2558
0.629001 0.876204 0.484966
0.62401 0.999707 0.370123
0.749538 0.937423 0.255342
0.500291 0.87489 0.370213
0.749143 0.937619 0.293463
0.503363 0.750127 0.408581
0.74918 0.999637 0.29363
0.629056 0.750369 0.48507
0.686146 0.999631 0.40839
0.749289 0.937238 0.331839
0.561221 0.999726 0.40842
0.690739 0.750326 0.332256
0.689491 0.93833 0.446638
0.503146 0.750267 0.370474
0.629006 0.813481 0.48498
0.561771 0.999753 0.331867
0.503078 0.938877 0.484958
0.565989 0.750333 0.255738
0.561906 0.999877 0.255351
0.504082 0.876118 0.484897
0.504554 0.812771 0.25589
0.501997 0.875291 0.255429
0.628149 0.750066 0.408586
0.565822 0.812755 0.255824
0.563204 0.875107 0.255595
0.561985 0.937694 0.255291
0.626911 0.938501 0.446695
0.690717 0.876302 0.484974
0.629478 0.812827 0.255899
0.626747 0.875282 0.25543
0.624668 0.937369 0.25538
0.690798 0.812872 0.255827
0.688027 0.87517 0.255513
0.686909 0.937721 0.255225
0.628155 0.938962 0.484972
0.503268 0.81274 0.294123
0.628245 0.75037 0.370494
0.69056 0.876139 0.44667
0.566881 0.812788 0.294101
0.564341 0.875262 0.293657
0.562009 0.937155 0.293646
0.628123 0.812839 0.294078
0.625461 0.875003 0.293765
0.624356 0.937648 0.293517
0.628406 0.750276 0.294015
0.690789 0.750469 0.446871
0.691808 0.812792 0.294075
0.689138 0.87525 0.293657
0.686987 0.937198 0.293589
0.691269 0.813432 0.485201
0.504331 0.812721 0.332354
0.501655 0.875156 0.331991
0.565713 0.750397 0.408724
0.691734 0.813198 0.446907
0.565592 0.812584 0.332296
0.562761 0.874923 0.331966
0.561683 0.937606 0.331699
0.56574 0.750604 0.48503
0.629299 0.812668 0.332303
0.626668 0.875123 0.331984
0.624319 0.937188 0.331814
0.691739 0.938884 0.484904
0.690498 0.812728 0.332252
0.687738 0.87499 0.332043
0.686686 0.93757 0.331756
0.748919 0.999702 0.370084
0.503101 0.812791 0.370426
0.749564 0.937272 0.408318
0.624255 0.99976 0.29358
0.690951 0.750679 0.48505
0.56692 0.812847 0.370545
0.564032 0.87531 0.370136
0.561604 0.937108 0.370092
0.503515 0.750255 0.293978
0.628154 0.812749 0.370412
0.625159 0.874901 0.37033
0.623965 0.937482 0.370077
0.749049 0.93748 0.370096
0.691779 0.812879 0.370508
0.688975 0.875271 0.370151
0.686423 0.937264 0.370135
0.504459 0.812952 0.408565
0.502164 0.875532 0.408384
0.690592 0.750396 0.408707
0.565584 0.812885 0.408655
0.564024 0.875378 0.408418
0.562467 0.937613 0.408386
0.566333 0.813341 0.485183
0.62941 0.812999 0.408628
0.627129 0.875668 0.408464
0.624485 0.937476 0.408437
0.690475 0.812806 0.408602
0.68892 0.875302 0.408443
0.687323 0.93766 0.408436
0.503284 0.813296 0.446782
0.502941 0.875749 0.446672
0.501899 0.938531 0.446609
0.566701 0.938891 0.484969
0.567012 0.813292 0.446794
0.565467 0.875937 0.446795
0.564101 0.938055 0.446655
0.628256 0.81316 0.446833
0.62793 0.875705 0.446581
0.68664 0.999649 0.331898
0.500434 0.874972 0.293834
0.628319 0.750502 0.446984
0.504126 0.750355 0.484974
0.686935 0.999866 0.255303
0.561618 0.999856 0.370116
0.686455 0.999988 0.370017
0.690825 0.750107 0.370348
0.749096 0.999958 0.331795
0.628264 0.750033 0.332127
0.690911 0.750027 0.293855
0.503686 0.75002 0.255592
0.565725 0.750029 0.370354
0.623843 0.999988 0.408455
0.565713 0.750645 0.523411
0.565875 0.75103 0.561819
0.690969 0.751027 0.561753
0.503239 0.813454 0.52347
0.503082 0.875807 0.52334
0.503052 0.938611 0.523252
0.566019 0.813382 0.523527
0.565781 0.876082 0.523304
0.565384 0.938355 0.523351
0.628212 0.813315 0.523426
0.628124 0.875928 0.523302
0.628225 0.938738 0.523155
0.691271 0.813367 0.523466
0.69075 0.876142 0.523223
0.690819 0.938402 0.523268
0.503713 0.813417 0.561905
0.502678 0.875877 0.561803
0.503321 0.938198 0.561617
0.565245 0.813332 0.561933
0.565891 0.875676 0.561762
0.564991 0.93844 0.561804
0.62859 0.813475 0.561863
0.627751 0.875891 0.561686
0.628392 0.938346 0.56159
0.690408 0.813418 0.561845
0.691031 0.875943 0.561645
0.690317 0.938435 0.561648
0.628229 0.750989 0.523384
0.503067 0.750974 0.523345
0.502801 0.750957 0.561814
0.627881 0.751017 0.561743
0.690663 0.750628 0.523282
0.504335 0.750678 0.987955
0.504369 0.813226 0.987992
0.503879 0.875905 0.987884
0.504032 0.93881 0.987817
0.567058 0.750609 0.987966
0.56668 0.813356 0.987994
0.566688 0.87603 0.987846
0.566077 0.938646 0.987714
0.629249 0.750728 0.98789
0.629452 0.813314 0.987925
0.628874 0.875873 0.987786
0.629115 0.938816 0.987697
0.692107 0.750514 0.987888
0.691728 0.81325 0.987878
0.691806 0.875971 0.987839
0.691106 0.93866 0.987734
0.999429 0.0625273 0.102649
0.937269 0.187698 0.179003
0.999413 0.0627731 0.0262041
0.811879 3.73463e-04 0.140614
0.999784 0.18779 0.0261791
0.999304 3.03244e-04 0.102466
0.811833 0.063136 0.0258732
0.811597 0.125356 0.0261615
0.812172 0.187971 0.0258519
0.999587 0.0627516 0.217152
0.874978 7.72922e-04 0.0258635
0.874316 0.0629031 0.0261862
0.874605 0.125643 0.0259802
0.87451 0.187821 0.0261542
0.937745 3.41781e-04 0.0261719
0.937158 0.124896 0.179134
0.93703 0.0630309 0.025887
0.936991 0.125357 0.0262229
0.937437 0.188039 0.0258881
0.999587 0.124945 0.217281
0.936964 0.0627688 0.178972
0.999715 0.187879 0.0642774
0.99936 0.0629382 0.0643337
0.874355 3.12566e-04 0.178886
0.811685 0.0626122 0.0643885
0.811847 0.125562 0.0641941
0.811987 0.187654 0.0643414
0.812454 3.99501e-04 0.0261575
0.874302 0.0629714 0.0642932
0.874505 0.125098 0.0643896
0.874559 0.187908 0.0642389
0.811851 0.125227 0.217138
0.93688 0.062502 0.0644615
0.937077 0.125537 0.0642309
0.937226 0.187667 0.0643733
0.999781 0.12551 0.0259612
0.936834 3.02502e-04 0.217079
0.999626 0.125385 0.102505
0.81189 0.0624726 0.217231
0.999702 0.124879 0.140867
0.811751 0.0629121 0.10242
0.811997 0.125134 0.102584
0.812177 0.187871 0.102424
0.87444 0.0628225 0.217147
0.874356 0.0626202 0.10257
0.874626 0.125413 0.102461
0.874855 0.187633 0.10259
0.874499 0.187734 0.21714
0.936804 0.0629043 0.102511
0.937032 0.125153 0.102636
0.937254 0.187868 0.102444
0.936887 0.125171 0.217219
0.999465 0.0627759 0.140679
0.81165 3.60909e-04 0.0640665
0.999632 0.0623711 0.179052
0.811913 0.0626069 0.140821
0.812135 0.125348 0.140688
0.812268 0.187451 0.140835
0.812038 0.187543 0.217278
0.874417 0.0628575 0.140633
0.874689 0.125032 0.14083
0.874812 0.187814 0.140745
0.937039 0.0624643 0.140874
0.93712 0.125294 0.140751
0.937444 0.18748 0.14088
0.93716 0.187476 0.217335
0.999554 0.125092 0.0644655
0.936939 0.0624309 0.217278
0.999483 1.90882e-04 0.178916
0.81197 0.0628297 0.17889
0.812041 0.124965 0.179089
0.812159 0.187822 0.178897
0.874483 0.0624973 0.179032
0.874629 0.125362 0.178925
0.8747 0.187476 0.179112
0.874393 0.124939 0.217251
0.936813 3.12019e-04 0.140671
0.811833 4.37683e-05 0.178938
0.999631 0.187726 0.217171
0.999619 0.125279 0.178993
0.999922 0.187642 0.102605
0.875044 0.249983 0.14074
0.874343 3.8046e-04 0.102378
0.999787 0.187491 0.179102
0.936793 3.75975e-04 0.0641616
0.811888 2.62787e-04 0.21708
0.999706 0.187785 0.140764
0.936824 4.56056e-06 0.102564
0.874654 0.249959 0.21722
0.811827 4.19026e-05 0.102517
0.812193 0.249985 0.178937
0.87429 2.04964e-05 0.140762
0.874279 5.82329e-05 0.0642821
0.938961 0.0629201 0.446557
0.876087 4.07147e-04 0.446506
0.879147 0.00156104 0.484797
0.999121 0.124894 0.331835
0.753685 0.1891 0.484712
0.814096 0.0628245 0.446468
0.87417 0.124809 0.408299
0.811307 0.124682 0.408236
0.750295 0.188372 0.446532
0.999015 0.0624827 0.370075
0.999365 0.124761 0.29366
0.999125 0.249762 0.370044
0.878284 0.0640247 0.484762
0.879514 0.126506 0.484814
0.878068 0.188997 0.484695
0.754211 0.00142579 0.484839
0.81174 0.0623389 0.408334
0.873824 0.18721 0.40825
0.936613 0.187452 0.408305
0.937897 0.125686 0.446625
0.754067 0.126416 0.484726
0.813021 0.125899 0.446676
0.751417 3.96563e-04 0.446533
0.873646 0.0621398 0.408223
0.875377 0.188315 0.44656
0.876654 0.125295 0.44645
0.875262 0.063304 0.446695
0.814267 0.187766 0.446505
0.750178 0.0631569 0.446642
0.75162 0.125214 0.446302
0.999549 0.1875 0.293529
0.999149 0.124625 0.370063
0.999441 0.0623414 0.255461
0.874315 1.81955e-04 0.255198
0.812923 7.86048e-04 0.446624
0.811722 0.0626523 0.25527
0.811772 0.124867 0.255447
0.811878 0.187642 0.255343
0.874323 0.0623923 0.255458
0.87421 0.125173 0.255284
0.874487 0.187289 0.255462
0.874079 6.89237e-05 0.331723
0.936821 0.0627643 0.25523
0.936845 0.124815 0.25547
0.937092 0.187645 0.25535
0.936257 0.12464 0.408235
0.999426 0.187202 0.331807
0.999512 0.125168 0.255334
0.936599 0.0622335 0.408385
0.811626 0.0622234 0.293708
0.811524 0.125025 0.293564
0.811765 0.187232 0.29365
0.942152 0.189023 0.484758
0.811669 0.249974 0.408233
0.874061 0.0625492 0.293465
0.874236 0.124787 0.293614
0.874255 0.187582 0.293515
0.811821 0.187411 0.408307
0.936597 0.0622646 0.293674
0.936762 0.124949 0.293536
0.936999 0.187239 0.293613
0.940628 0.126631 0.484671
0.941867 0.0640077 0.48481
0.99966 0.187314 0.255454
0.936648 0.249946 0.369947
0.999019 3.1156e-05 0.331754
0.93889 0.187688 0.446379
0.811466 0.0624459 0.331756
0.81141 0.124677 0.331879
0.811732 0.187588 0.331803
0.815717 0.126515 0.484669
0.874091 0.0621384 0.331848
0.874047 0.124916 0.331781
0.874139 0.187183 0.331806
0.753097 0.0640616 0.484694
0.936543 0.0623445 0.331769
0.936532 0.124701 0.331809
0.936835 0.187556 0.331775
0.94064 0.00151609 0.484757
0.998976 0.0620797 0.331847
0.999188 0.0625846 0.293488
0.817114 0.18882 0.48483
0.811534 0.0619925 0.370103
0.811649 0.124976 0.370073
0.8116 0.187143 0.370028
0.937921 8.09467e-04 0.446594
0.873976 0.0624209 0.369957
0.874262 0.124535 0.370027
0.874218 0.187395 0.369996
0.816932 0.0640107 0.484757
0.936394 0.0620202 0.370057
0.93658 0.124964 0.369991
0.936602 0.187191 0.369942
0.815638 0.00149727 0.484747
0.937082 0.249815 0.255387
0.999156 0.187375 0.369945
0.99872 0.0620354 0.408215
0.999551 0.249765 0.293599
0.99884 0.187123 0.408185
0.99905 0.124788 0.408288
0.874101 0.249841 0.370053
0.99934 2.33538e-04 0.255258
0.936845 0.24982 0.331801
0.936569 0.249867 0.408224
0.874403 0.249699 0.293575
0.936705 8.11365e-05 0.293451
0.81176 0.249833 0.331852
0.812064 0.24984 0.255418
0.811716 5.95676e-06 0.293488
0.753198 8.90467e-04 0.523129
0.753249 0.0636781 0.523154
0.753244 0.126013 0.523152
0.753639 0.188935 0.523045
0.815913 0.0012962 0.523126
0.815578 0.0635011 0.523231
0.815829 0.126197 0.523146
0.815749 0.188604 0.523158
0.878101 0.00100944 0.523275
0.878482 0.0638052 0.52321
0.878079 0.12605 0.523198
0.87838 0.188906 0.523015
0.940746 0.00114889 0.523139
0.940626 0.0636234 0.523195
0.940821 0.126314 0.523167
0.940736 0.18847 0.523219
0.752844 8.32293e-04 0.561484
0.753403 0.0632765 0.561561
0.753005 0.12618 0.561576
0.753598 0.188489 0.561407
0.815875 9.30355e-04 0.561567
0.815477 0.0636799 0.561581
0.816199 0.125802 0.561551
0.815728 0.188639 0.561481
0.877775 0.0012407 0.561559
0.878413 0.0634214 0.561607
0.877859 0.125958 0.561601
0.878461 0.188517 0.561523
0.940769 0.00101064 0.5616
0.940314 0.0635729 0.561578
0.940916 0.125948 0.561594
0.940513 0.188473 0.561531
0.752628 0.00123113 0.987844
0.751314 0.0639013 0.987655
0.752171 0.125801 0.987721
0.751224 0.188691 0.987598
0.815542 0.00155647 0.987756
0.814465 0.0635026 0.987825
0.813733 0.126199 0.987678
0.814885 0.188315 0.987703
0.877815 0.00116038 0.987883
0.876405 0.0640146 0.987773
0.877329 0.126019 0.987762
0.876458 0.188753 0.987657
0.940561 0.00143267 0.987818
0.939602 0.0634208 0.987847
0.939081 0.126333 0.987775
0.940173 0.188402 0.987747
0.812113 0.250373 0.0259957
0.754167 0.499841 0.179123
0.8749 0.250436 0.102397
0.81211 0.250358 0.0642059
0.750189 0.312863 0.102307
0.937116 0.250325 0.217064
0.999865 0.25048 0.10241
0.93739 0.250341 0.0260031
0.750907 0.312911 0.0259131
0.753125 0.375015 0.0260688
0.754492 0.437783 0.0264625
0.812802 0.312831 0.0255763
0.815956 0.375395 0.0262951
0.81663 0.437455 0.026287
0.876139 0.312905 0.0259505
0.878378 0.375025 0.0261381
0.879626 0.437881 0.0264268
0.938062 0.31288 0.0256233
0.941066 0.375473 0.0263021
0.941722 0.437565 0.0262267
0.999522 0.313092 0.063987
0.75155 0.375355 0.0645347
0.754035 0.437269 0.0645354
0.812424 0.312896 0.0640744
0.815242 0.375136 0.0642901
0.817146 0.43787 0.0646991
0.874514 0.312954 0.0639804
0.876815 0.375405 0.0645186
0.879188 0.437397 0.0645349
0.937658 0.312998 0.0640587
0.940391 0.37522 0.0642704
0.942184 0.43799 0.0646537
0.874781 0.250547 0.0257289
0.75299 0.375116 0.102584
0.754319 0.437798 0.102904
0.811766 0.312831 0.102177
0.814279 0.375278 0.102656
0.816592 0.437399 0.102783
0.875362 0.312854 0.102268
0.878303 0.375108 0.102611
0.879554 0.437814 0.102879
0.936772 0.312878 0.102234
0.939444 0.375354 0.102699
0.941661 0.437478 0.102738
0.878716 0.437431 0.217429
0.937431 0.25031 0.140643
0.751764 0.375308 0.14096
0.753905 0.437335 0.140935
0.812747 0.312827 0.140505
0.815494 0.375179 0.140797
0.816763 0.437839 0.141145
0.873827 0.312908 0.216884
0.874223 0.312895 0.140421
0.876861 0.37528 0.140969
0.879029 0.437413 0.140959
0.937819 0.312811 0.140587
0.940574 0.375115 0.140851
0.941841 0.437912 0.141127
0.937476 0.312859 0.216901
0.816679 0.499862 0.140935
0.752882 0.375184 0.178991
0.754135 0.43783 0.179389
0.811597 0.312962 0.178632
0.814105 0.375283 0.179232
0.816349 0.43736 0.179185
0.941553 0.437911 0.217532
0.875086 0.312839 0.178719
0.877894 0.375225 0.17897
0.879154 0.437856 0.179301
0.936596 0.312927 0.178698
0.939077 0.375348 0.179225
0.941285 0.437488 0.179231
0.876497 0.375284 0.217433
0.998924 0.312902 0.216947
0.751495 0.375302 0.217455
0.753666 0.437308 0.217419
0.940271 0.375244 0.217216
0.812481 0.312783 0.216918
0.815327 0.375202 0.217268
0.816525 0.437875 0.217582
0.999205 0.3129 0.140526
0.812412 0.250319 0.140565
0.812105 0.250339 0.217033
0.874809 0.250327 0.178821
0.999849 0.250316 0.178884
0.754195 0.499924 0.10273
0.937387 0.250385 0.064213
0.941341 0.499939 0.217364
0.81241 0.250053 0.102486
0.816743 0.499888 0.0645254
0.937555 0.250118 0.102501
0.999856 0.250218 0.0642952
1.0 0.250058 0.140765
0.816395 0.499889 0.217341
0.874784 0.250237 0.0642933
0.937335 0.250055 0.178983
0.754135 0.499876 0.0261247
0.750028 0.312854 0.178741
0.94175 0.499941 0.140922
0.87926 0.499964 0.0261453
0.879155 0.499823 0.179151
0.999744 0.250027 0.217202
0.998973 0.312687 0.370019
0.941253 0.437999 0.446181
0.816422 0.375599 0.484679
0.940774 0.251273 0.484604
0.756151 0.250906 0.484682
0.999788 0.312667 0.331721
0.750128 0.312568 0.408298
0.874488 0.250187 0.255308
0.999419 0.250048 0.331663
0.811843 0.250186 0.293538
0.874121 0.250081 0.408272
0.876682 0.250567 0.44645
0.874289 0.250105 0.331743
0.937358 0.31272 0.408308
0.751661 0.250528 0.446401
0.816376 0.437835 0.484679
0.751298 0.375297 0.293736
0.99957 0.250177 0.255279
0.87878 0.43788 0.484595
0.937902 0.250592 0.44651
0.87847 0.437711 0.446371
0.940239 0.312868 0.446224
0.999926 0.312561 0.25513
0.753467 0.313036 0.484683
0.753549 0.43788 0.484586
0.753269 0.375225 0.446156
0.940897 0.437534 0.408094
0.753599 0.499986 0.33197
0.752733 0.375094 0.255519
0.753746 0.437849 0.255773
0.811411 0.312803 0.255159
0.813916 0.375262 0.25559
0.816017 0.437335 0.255605
0.941715 0.437769 0.48462
0.874852 0.312627 0.255125
0.87773 0.37511 0.255436
0.878719 0.438015 0.255768
0.877026 0.312787 0.446439
0.936377 0.312824 0.255178
0.938824 0.37522 0.255528
0.940985 0.437368 0.255612
0.751953 0.312739 0.446591
0.998867 0.312773 0.293423
0.878799 0.499999 0.255661
0.753402 0.437324 0.293817
0.81216 0.312582 0.293476
0.815064 0.37517 0.29363
0.816254 0.437908 0.293892
0.815172 0.312773 0.446165
0.87379 0.312818 0.293417
0.87628 0.375346 0.293737
0.878453 0.437421 0.293811
0.937243 0.312662 0.29342
0.940054 0.375133 0.293564
0.941222 0.438023 0.293886
0.940985 0.375257 0.484531
0.812841 0.250639 0.446571
0.752392 0.375125 0.331794
0.753608 0.437777 0.332079
0.878388 0.313116 0.484549
0.81118 0.312736 0.331741
0.813758 0.375033 0.331912
0.815903 0.437408 0.331944
0.937053 0.250097 0.29345
0.874727 0.312524 0.331726
0.877517 0.375183 0.331797
0.878628 0.437749 0.332048
0.9362 0.312724 0.331693
0.93867 0.375023 0.331863
0.940957 0.437448 0.331914
0.817361 0.313153 0.484712
0.815986 0.251196 0.484696
0.878623 0.499979 0.331955
0.750884 0.375422 0.370075
0.75312 0.437374 0.370089
0.754421 0.3755 0.484719
0.811827 0.312623 0.370014
0.814801 0.375065 0.370006
0.816033 0.43804 0.370171
0.753146 0.43759 0.446437
0.873911 0.312846 0.370067
0.875938 0.375348 0.370034
0.878321 0.437349 0.370145
0.880191 0.251098 0.484723
0.878476 0.375365 0.446129
0.937058 0.312686 0.369901
0.939957 0.375038 0.36999
0.941281 0.437951 0.370074
0.94256 0.313343 0.484648
0.940235 0.375355 0.408044
0.752684 0.374842 0.408087
0.753591 0.437916 0.408189
0.815719 0.375001 0.446373
0.812342 0.312809 0.408335
0.814912 0.375464 0.408073
0.815852 0.437467 0.408214
0.940955 0.37494 0.446349
0.879517 0.375335 0.484641
0.875125 0.312732 0.408325
0.877844 0.37491 0.408064
0.878595 0.437943 0.408184
0.999164 0.250037 0.408282
0.81609 0.437857 0.446278
0.753748 0.49999 0.255587
0.811623 0.250008 0.370006
0.753645 0.251027 0.523001
0.753664 0.313392 0.522917
0.753087 0.375938 0.523001
0.753587 0.438296 0.523032
0.8164 0.251227 0.523025
0.816056 0.313463 0.522992
0.816171 0.375778 0.522931
0.815939 0.438358 0.523028
0.878712 0.25104 0.523008
0.878717 0.313462 0.522977
0.878485 0.375914 0.522868
0.87881 0.438476 0.522884
0.941082 0.251099 0.523111
0.940865 0.313446 0.523022
0.941279 0.375685 0.522881
0.940979 0.438471 0.523012
0.753044 0.251171 0.561473
0.753663 0.313462 0.561357
0.752998 0.376083 0.561434
0.753678 0.438576 0.561361
0.816125 0.251068 0.561421
0.815602 0.313556 0.561409
0.816202 0.376113 0.561268
0.815672 0.438498 0.561435
0.878266 0.250931 0.561504
0.878697 0.313456 0.561328
0.878163 0.37606 0.561436
0.878773 0.438514 0.5613
0.941073 0.250964 0.561485
0.940885 0.313548 0.56149
0.941215 0.375984 0.56133
0.940679 0.438341 0.561431
0.877527 0.250805 0.987699
0.814051 0.251061 0.987557
0.753484 0.312925 0.987607
0.754356 0.375519 0.987876
0.754912 0.437894 0.987843
0.815765 0.313039 0.987694
0.817277 0.375246 0.987843
0.817062 0.438025 0.987887
0.878605 0.313002 0.987611
0.879467 0.375523 0.987922
0.879939 0.437949 0.987875
0.941014 0.313173 0.987728
0.942364 0.375356 0.987767
0.942127 0.438074 0.987808
0.939323 0.251128 0.987598
0.75232 0.250683 0.987619
0.754276 0.500126 0.0646038
0.941537 0.625282 0.179275
0.753709 0.562438 0.217391
0.941566 0.56247 0.17916
0.816893 0.500275 0.0264337
0.81678 0.500174 0.10283
0.941346 0.749924 0.0645959
0.941812 0.500024 0.0644799
0.941263 0.687495 0.179176
0.879314 0.500233 0.141088
0.878895 0.625313 0.217507
0.754362 0.562656 0.0263239
0.754005 0.624929 0.0260747
0.754163 0.687774 0.0263032
0.8166 0.562419 0.0261483
0.816791 0.625146 0.0263016
0.816504 0.687522 0.0261301
0.753697 0.687426 0.217369
0.879418 0.562685 0.0262985
0.878974 0.624965 0.0260831
0.879148 0.687786 0.0262631
0.941734 0.562552 0.0261032
0.941827 0.625227 0.0262651
0.94151 0.687554 0.0261559
0.878682 0.687437 0.217341
0.754053 0.562342 0.0644523
0.754171 0.625178 0.0645548
0.753933 0.687412 0.064422
0.879416 0.500243 0.0646235
0.816813 0.562642 0.064566
0.816505 0.624799 0.0643573
0.816556 0.687665 0.0645612
0.816269 0.687769 0.217553
0.879182 0.56242 0.0644533
0.879226 0.625254 0.0645202
0.879025 0.687409 0.0644176
0.878696 0.56239 0.217374
0.941865 0.562802 0.0645254
0.941646 0.624906 0.0643979
0.941608 0.687683 0.0646024
0.753868 0.500268 0.217521
0.754211 0.562755 0.10281
0.753972 0.624972 0.102676
0.754037 0.687743 0.102843
0.816166 0.624937 0.217384
0.816569 0.562421 0.102653
0.816577 0.625272 0.102814
0.816368 0.687519 0.102718
0.879284 0.562812 0.102805
0.879114 0.624969 0.102671
0.879116 0.68777 0.102852
0.81637 0.562765 0.217394
0.941724 0.562505 0.102646
0.941735 0.625313 0.102797
0.94149 0.687535 0.102761
0.941217 0.624979 0.21739
0.754065 0.562383 0.140903
0.754076 0.625341 0.141066
0.753795 0.687546 0.140971
0.941313 0.687842 0.217497
0.816655 0.562764 0.141018
0.816452 0.62497 0.140909
0.816479 0.687806 0.141105
0.879181 0.562468 0.140877
0.879151 0.625357 0.141
0.878871 0.68753 0.140926
0.878852 0.500362 0.21754
0.941794 0.562807 0.14105
0.9415 0.624996 0.14095
0.941416 0.687867 0.141135
0.753966 0.562673 0.179228
0.753814 0.624934 0.179165
0.753871 0.687771 0.179307
0.941374 0.562823 0.217494
0.816554 0.562369 0.179105
0.816461 0.62522 0.179284
0.816171 0.687484 0.179185
0.753776 0.625271 0.217517
0.879043 0.562744 0.179213
0.87886 0.624933 0.179154
0.878831 0.687811 0.179316
0.754189 0.500199 0.14109
0.816657 0.500235 0.179309
0.941655 0.500307 0.179334
0.816099 0.749921 0.217413
0.81625 0.749885 0.0644813
0.941974 0.500288 0.102785
0.94112 0.749947 0.217436
0.94197 0.500363 0.0263587
0.87882 0.749998 0.102809
0.878628 0.749965 0.179237
0.879403 0.500013 0.102732
0.753464 0.50052 0.446522
0.878315 0.562703 0.446571
0.878596 0.500447 0.370122
0.940728 0.687794 0.408457
0.941207 0.500382 0.255708
0.815871 0.749836 0.293838
0.75356 0.562947 0.446613
0.940833 0.562626 0.408273
0.815864 0.500124 0.446475
0.816043 0.563011 0.446571
0.816154 0.500451 0.408348
0.941145 0.68797 0.446772
0.753224 0.749936 0.332069
0.940912 0.749933 0.293868
0.941031 0.625507 0.408527
0.941454 0.562994 0.484723
0.815851 0.500093 0.370116
0.940898 0.625189 0.446627
0.87871 0.687893 0.484959
0.815927 0.625306 0.446661
0.878139 0.687842 0.446746
0.941057 0.563199 0.446586
0.878389 0.625397 0.446796
0.878415 0.500339 0.408253
0.753431 0.500232 0.408307
0.753192 0.687865 0.446761
0.878267 0.749891 0.332065
0.879197 0.500293 0.484702
0.75343 0.625528 0.44674
0.754038 0.625346 0.484809
0.816214 0.500218 0.332114
0.753468 0.500506 0.370207
0.753536 0.687885 0.484822
0.753715 0.563013 0.484833
0.753851 0.562754 0.255646
0.753684 0.625026 0.255627
0.753609 0.687861 0.255774
0.941234 0.500451 0.40824
0.816156 0.562515 0.255555
0.81616 0.625336 0.255702
0.816093 0.687496 0.255554
0.816074 0.500062 0.293818
0.754225 0.500308 0.484656
0.878756 0.562822 0.255662
0.878714 0.625033 0.255545
0.878671 0.687808 0.255744
0.816245 0.562726 0.484792
0.941173 0.562481 0.255581
0.941265 0.625344 0.255725
0.941139 0.687571 0.255622
0.816066 0.62551 0.484869
0.878644 0.563046 0.484814
0.753512 0.562531 0.293765
0.753523 0.625261 0.293973
0.75341 0.68744 0.293819
0.941629 0.687786 0.484797
0.816089 0.687976 0.446737
0.816158 0.562886 0.29394
0.815992 0.624862 0.293802
0.815923 0.687792 0.294008
0.941251 0.625559 0.484749
0.878522 0.562575 0.293734
0.878634 0.625275 0.293917
0.878466 0.687304 0.293787
0.816129 0.500367 0.255709
0.94119 0.562901 0.293903
0.941049 0.625002 0.293831
0.941036 0.687762 0.294022
0.878721 0.500339 0.293976
0.753587 0.562735 0.33209
0.753478 0.624949 0.332029
0.753231 0.687789 0.332182
0.878687 0.500354 0.446499
0.816051 0.5625 0.331953
0.815959 0.625239 0.332192
0.815761 0.687335 0.332018
0.816469 0.687989 0.48494
0.878557 0.562696 0.332115
0.878469 0.624841 0.331987
0.878371 0.687705 0.3322
0.941149 0.562598 0.332002
0.941112 0.62518 0.33218
0.940809 0.687425 0.332016
0.753287 0.562507 0.370196
0.75329 0.625445 0.370382
0.753128 0.687648 0.37024
0.941257 0.500386 0.33207
0.816006 0.562827 0.370293
0.815833 0.625025 0.370218
0.815813 0.687766 0.370347
0.878308 0.562473 0.370214
0.878445 0.625368 0.370381
0.878282 0.687456 0.370214
0.941123 0.562879 0.370272
0.940888 0.625008 0.370231
0.94087 0.687848 0.370335
0.879024 0.625337 0.484793
0.753215 0.563089 0.408375
0.753164 0.625265 0.408442
0.753371 0.687973 0.40859
0.815871 0.56266 0.408355
0.815928 0.625489 0.408514
0.815818 0.687813 0.408454
0.753658 0.500312 0.293943
0.878409 0.562938 0.408425
0.87827 0.625169 0.408445
0.878321 0.687864 0.408559
0.94146 0.500486 0.484589
0.815976 0.500196 0.484691
0.941109 0.500069 0.293811
0.940958 0.500356 0.446446
0.753549 0.749995 0.255599
0.941107 0.500208 0.370115
0.878455 0.74992 0.255588
0.753278 0.500847 0.523061
0.753491 0.563316 0.523113
0.753176 0.625905 0.523224
0.753459 0.688246 0.52324
0.81613 0.500635 0.523022
0.815974 0.56326 0.523266
0.815989 0.625703 0.523212
0.81554 0.688362 0.523287
0.878579 0.500977 0.523038
0.878597 0.563283 0.523167
0.878201 0.62581 0.523232
0.878446 0.687988 0.523333
0.941341 0.50078 0.522937
0.940887 0.563402 0.523143
0.941154 0.62566 0.523008
0.940925 0.688369 0.523256
0.752872 0.50097 0.561512
0.753381 0.563628 0.561568
0.752952 0.626157 0.561538
0.753234 0.688624 0.561679
0.816222 0.501203 0.561393
0.815355 0.563387 0.561535
0.815798 0.62594 0.561586
0.815229 0.688442 0.561811
0.878161 0.50095 0.561483
0.878761 0.563548 0.561484
0.878029 0.625966 0.561668
0.878727 0.68864 0.561693
0.941117 0.501077 0.561467
0.940464 0.563544 0.561603
0.941072 0.626071 0.561631
0.940568 0.688543 0.561668
0.754399 0.500389 0.987812
0.817504 0.500409 0.987871
0.942469 0.500426 0.987792
0.754768 0.562825 0.987764
0.754301 0.62539 0.987806
0.754637 0.687887 0.987862
0.816901 0.562792 0.987804
0.817268 0.625362 0.987821
0.816733 0.687911 0.987853
0.879567 0.500462 0.987878
0.879859 0.562861 0.98782
0.879298 0.625403 0.987825
0.879718 0.687878 0.987914
0.941996 0.562954 0.987776
0.942269 0.625312 0.987794
0.941832 0.687961 0.987826
0.816323 0.750373 0.102913
0.938101 0.875228 0.179156
0.999325 0.937406 0.102569
0.81307 0.875258 0.17914
0.874638 0.937413 0.178986
0.94084 0.812861 0.179419
0.816872 0.812881 0.217678
0.816153 0.750318 0.179407
0.811823 0.937887 0.17886
0.878844 0.750395 0.14118
0.878951 0.7503 0.0646951
0.999166 0.937829 0.140667
0.754158 0.81308 0.0263984
0.753306 0.875761 0.0261877
0.752156 0.938101 0.0262226
0.816564 0.750394 0.0263659
0.816066 0.812842 0.0264363
0.816096 0.875579 0.026459
0.814534 0.938496 0.0259602
0.941187 0.750408 0.179413
0.879315 0.813 0.0264698
0.878404 0.875695 0.0262925
0.877366 0.938078 0.0263121
0.941532 0.750315 0.0263893
0.9411 0.812846 0.0264957
0.941156 0.875557 0.0264573
0.939611 0.938382 0.0259954
0.942059 0.812875 0.217673
0.753537 0.812771 0.0647408
0.752417 0.875429 0.0646049
0.878857 0.750143 0.0262405
0.812054 0.937357 0.217172
0.751766 0.875333 0.178967
0.816855 0.812836 0.0647852
0.81476 0.875517 0.0644335
0.812566 0.937696 0.0642407
0.939443 0.875403 0.217201
0.999331 0.937857 0.217081
0.87854 0.812722 0.0647747
0.877398 0.875304 0.0646245
0.875012 0.938062 0.0641158
0.94147 0.750357 0.102971
0.941936 0.812814 0.0648758
0.939803 0.875496 0.0645435
0.937627 0.937651 0.064285
0.878549 0.7503 0.217613
0.876808 0.875344 0.179027
0.754582 0.812931 0.103085
0.751379 0.875286 0.102469
0.753751 0.750338 0.141165
0.753327 0.8128 0.217626
0.753594 0.750239 0.217573
0.815882 0.81277 0.103011
0.813271 0.875192 0.10279
0.811812 0.937828 0.102311
0.814344 0.875333 0.217213
0.879496 0.812838 0.103093
0.876424 0.875225 0.102515
0.874354 0.93744 0.102482
0.940937 0.812869 0.102996
0.938277 0.875193 0.102827
0.936792 0.937762 0.102317
0.874265 0.937896 0.217036
0.937172 0.937384 0.217194
0.753416 0.81285 0.141203
0.753603 0.750002 0.179206
0.999648 0.93735 0.179007
0.815836 0.812786 0.179411
0.750631 0.875217 0.140868
0.816957 0.812931 0.14127
0.814179 0.875308 0.14078
0.812012 0.937406 0.140717
0.878304 0.812808 0.217619
0.878388 0.812854 0.141248
0.875537 0.875192 0.140915
0.874157 0.937887 0.140602
0.93678 0.937872 0.178856
0.75394 0.750335 0.0646786
0.941958 0.812937 0.141264
0.939189 0.875337 0.14079
0.936922 0.9374 0.140751
0.875481 0.875175 0.217361
0.879403 0.812883 0.179442
0.754447 0.812973 0.179403
0.999311 0.999941 0.0643837
0.936797 0.999969 0.179002
0.750593 0.875256 0.217265
0.874428 0.999933 0.217169
0.816264 0.750023 0.14102
0.99998 0.937891 0.0641597
0.999547 0.999822 0.217213
0.941337 0.750068 0.141041
0.753842 0.750129 0.0261714
0.999265 0.999907 0.140811
0.753675 0.750005 0.102777
0.878268 0.750578 0.446823
0.878941 0.813375 0.484959
0.75423 0.813309 0.485084
0.999149 0.937729 0.293501
0.753441 0.938973 0.484789
0.878133 0.750274 0.370433
0.811364 0.999917 0.370026
0.750271 0.875069 0.293737
0.940636 0.750484 0.408689
0.936427 0.999797 0.331802
0.815931 0.750547 0.446913
0.936847 0.999861 0.255392
0.811366 0.999625 0.408339
0.873901 0.999904 0.408354
0.753288 0.750239 0.294031
0.750109 0.874865 0.370214
0.815853 0.750579 0.485071
0.999647 0.937395 0.25544
0.815578 0.750384 0.408683
0.99917 0.937266 0.331802
0.873824 0.999692 0.369963
0.941314 0.813313 0.48506
0.81627 0.813548 0.485276
0.878259 0.938972 0.484827
0.815776 0.750207 0.332226
0.940761 0.750251 0.332195
0.878266 0.750226 0.294008
0.754306 0.812839 0.255918
0.751713 0.875334 0.255323
0.999989 0.874921 0.37013
0.815645 0.812763 0.255827
0.812917 0.875148 0.255507
0.811815 0.93778 0.255235
0.940897 0.750424 0.255802
0.879405 0.812746 0.255903
0.876642 0.875247 0.255312
0.874564 0.937332 0.255339
0.940706 0.812825 0.255863
0.937938 0.875137 0.255582
0.936765 0.93782 0.255258
0.753057 0.812774 0.294074
0.998994 0.999673 0.370022
0.874081 0.99977 0.293547
0.940969 0.750478 0.446761
0.816763 0.812731 0.294073
0.814094 0.87528 0.293547
0.811909 0.93721 0.293556
0.878067 0.812689 0.294065
0.875234 0.874995 0.293754
0.874208 0.937673 0.293401
0.94078 0.750478 0.484954
0.94173 0.812716 0.294103
0.939011 0.875282 0.293619
0.936828 0.937291 0.29358
0.816781 0.938883 0.484912
0.754198 0.812826 0.332269
0.751639 0.875194 0.331956
0.879192 0.750535 0.484976
0.815933 0.750326 0.255762
0.815426 0.812675 0.332221
0.812721 0.874982 0.331905
0.811582 0.937629 0.331657
0.93652 0.999893 0.369991
0.879102 0.812771 0.332278
0.876523 0.875148 0.331825
0.874298 0.937251 0.331777
0.753473 0.75062 0.446917
0.940346 0.812692 0.332253
0.937528 0.875014 0.331886
0.936604 0.937683 0.331681
0.939117 0.938048 0.446393
0.753012 0.812905 0.370377
0.999539 0.937221 0.408244
0.811772 0.999841 0.255344
0.816741 0.812687 0.370467
0.813888 0.875138 0.3701
0.811581 0.937146 0.37002
0.877915 0.812712 0.370437
0.875031 0.874819 0.370131
0.873927 0.937344 0.370028
0.815742 0.876238 0.485002
0.941642 0.812733 0.370438
0.938823 0.875175 0.370053
0.93636 0.937149 0.36998
0.754148 0.876167 0.484984
0.754484 0.812902 0.408572
0.752107 0.875534 0.408379
0.811509 0.999664 0.331861
0.815338 0.812813 0.408597
0.81389 0.875263 0.408367
0.81246 0.937633 0.408279
0.879179 0.876147 0.484942
0.879314 0.81291 0.408577
0.877211 0.875485 0.408335
0.874424 0.937176 0.408262
0.940312 0.812922 0.408553
0.938943 0.875242 0.408375
0.937242 0.937604 0.408258
0.753003 0.813225 0.446896
0.752768 0.875924 0.446649
0.752238 0.938374 0.446596
0.941426 0.938931 0.484792
0.816905 0.813278 0.446821
0.815506 0.875927 0.446645
0.814357 0.938094 0.446428
0.878014 0.813196 0.446766
0.878019 0.875861 0.446663
0.877078 0.938356 0.446642
0.940711 0.876196 0.484868
0.941894 0.813283 0.446751
0.940626 0.875936 0.446611
0.999082 0.937486 0.370034
0.935921 0.999619 0.408291
0.754051 0.750537 0.48499
0.753081 0.750271 0.370495
0.999108 0.999775 0.293562
0.878112 0.750085 0.408593
0.753239 0.750276 0.408574
0.940746 0.750044 0.370362
0.815611 0.75006 0.370278
0.998946 0.999972 0.408344
0.752834 0.751058 0.561858
0.878039 0.750891 0.561738
0.815995 0.751035 0.561759
0.753192 0.751083 0.523346
0.75311 0.813387 0.523415
0.753278 0.875995 0.523362
0.75321 0.93843 0.523171
0.816438 0.813311 0.523497
0.815731 0.875923 0.523277
0.815897 0.938432 0.52328
0.878148 0.813483 0.523444
0.878099 0.875768 0.523363
0.878232 0.938567 0.523127
0.94112 0.813344 0.523529
0.94055 0.875992 0.523223
0.940565 0.938404 0.523329
0.75383 0.813428 0.561877
0.753033 0.875952 0.56171
0.753764 0.93842 0.561604
0.815537 0.813317 0.561799
0.816168 0.875905 0.561611
0.815554 0.938573 0.561683
0.878774 0.813455 0.561786
0.877992 0.876093 0.56173
0.878479 0.938385 0.561607
0.940329 0.813469 0.561839
0.940874 0.875863 0.561671
0.940383 0.938491 0.56162
0.940946 0.751161 0.561686
0.878333 0.750857 0.523302
0.940696 0.750664 0.523203
0.816031 0.750783 0.523292
0.754293 0.750658 0.987904
0.754502 0.813239 0.987978
0.753939 0.875933 0.987837
0.754215 0.938872 0.987843
0.817023 0.750473 0.987996
0.81669 0.813242 0.987974
0.816748 0.876041 0.987987
0.81615 0.938773 0.987885
0.879227 0.750559 0.987995
0.879369 0.813166 0.988093
0.878861 0.875899 0.987947
0.879207 0.938896 0.98793
0.942089 0.7504 0.988
0.941733 0.813163 0.987971
0.941868 0.875978 0.987955
0.94125 0.938587 0.987941
0.131278 0.126038 0.716648
0.131422 0.0636309 0.716638
0.00565776 0.00110999 0.716563
0.193949 0.0634999 0.716538
0.193905 0.188543 0.716503
0.0685486 0.00106759 0.639048
0.19382 0.00104767 0.716595
0.0685198 0.00119968 0.716634
0.194018 0.126007 0.716609
0.131298 0.188564 0.716598
0.0687299 6.93019e-04 0.600235
0.131199 9.30518e-04 0.60021
0.00619341 0.00105771 0.600207
0.193747 7.49349e-04 0.600266
0.00625229 0.0632009 0.600181
0.00638937 0.125878 0.600119
0.00635131 0.188098 0.600107
0.0687041 0.0634515 0.600213
0.0687652 0.125743 0.600203
0.0687435 0.188459 0.60014
0.131173 0.0631884 0.600238
0.131181 0.12587 0.600151
0.131242 0.18813 0.600144
0.19378 0.0634265 0.60014
0.193627 0.125741 0.600171
0.193635 0.188363 0.600161
0.00598186 0.0633934 0.638964
0.00614764 0.125741 0.638969
0.00617784 0.188218 0.638859
0.068535 0.0634183 0.639055
0.0685694 0.125849 0.639004
0.0686072 0.188148 0.638986
0.00606042 9.61654e-04 0.638992
0.131106 0.0633866 0.639026
0.131215 0.125798 0.638987
0.131084 0.188236 0.638881
0.193707 0.0633185 0.639096
0.193637 0.125811 0.639018
0.193537 0.188169 0.638975
0.00593871 9.72659e-04 0.677763
0.00620111 0.0633588 0.677828
0.0059972 0.125846 0.677802
0.00615808 0.188279 0.67773
0.068676 0.00101662 0.677897
0.0685367 0.0635083 0.677763
0.068666 0.125918 0.677774
0.0686774 0.188334 0.677757
0.13113 0.0011182 0.677754
0.131289 0.0635348 0.677812
0.131168 0.125915 0.677827
0.131127 0.188234 0.677759
0.193739 0.00112823 0.677839
0.193851 0.0635278 0.677888
0.193966 0.125808 0.677867
0.193773 0.188263 0.677779
0.00606199 0.0634895 0.716573
0.00608307 0.125896 0.716455
0.00620241 0.188449 0.716507
0.0687055 0.06365 0.716579
0.0687514 0.126067 0.716674
0.0686911 0.188561 0.716428
0.131192 0.0011606 0.716603
0.193606 0.00104863 0.639113
0.131157 9.27517e-04 0.638977
0.194115 0.126081 0.755367
0.194303 0.126219 0.949266
0.194508 0.063404 0.949257
0.194541 0.18825 0.949285
0.0690177 0.00145962 0.949028
0.0693083 0.0635359 0.949172
0.194336 0.126028 0.910411
0.069139 0.126257 0.949113
0.00630092 0.18848 0.91046
0.0688651 0.188432 0.910383
0.06859 0.126123 0.755353
0.00609716 0.188449 0.755206
0.00590091 0.0636095 0.755237
0.0687131 0.126047 0.910346
0.0688535 0.0637225 0.910273
0.131563 0.00122752 0.910354
0.131746 0.126005 0.910438
0.194293 8.09906e-04 0.910391
0.131275 0.188549 0.755369
0.00587265 0.00128077 0.755375
0.131767 0.0636358 0.910361
0.00626457 0.126092 0.910533
0.068546 0.00132807 0.755378
0.194041 0.0635727 0.755423
0.0690087 0.0011716 0.910316
0.131279 0.0012581 0.755425
0.00585745 0.125957 0.755276
0.194076 0.1886 0.755262
0.0686786 0.188458 0.755304
0.131636 0.188383 0.91032
0.131384 0.0637948 0.755395
0.0695087 0.188184 0.949202
0.131436 0.126171 0.755473
0.131833 0.188608 0.94896
0.131787 0.00111324 0.949136
0.00680738 0.188667 0.949205
0.194242 0.00119705 0.949257
0.193919 0.00115881 0.755375
0.194261 0.0635476 0.910405
0.132001 0.12581 0.949125
0.00682562 0.125883 0.949305
0.194475 0.188489 0.910503
0.00576166 0.00127588 0.794193
0.0056051 0.0636385 0.794125
0.00563058 0.126029 0.794019
0.00578026 0.188472 0.79408
0.0685025 0.00145878 0.794224
0.068489 0.0638417 0.794184
0.0685085 0.126049 0.794191
0.0684632 0.188343 0.794066
0.131336 0.00124602 0.794183
0.131513 0.0637528 0.794248
0.131537 0.126199 0.794139
0.13144 0.188478 0.794166
0.193998 0.0012315 0.794208
0.194126 0.0635763 0.794205
0.194184 0.126012 0.794235
0.194165 0.188438 0.794049
0.00583548 0.0012703 0.833004
0.005617 0.0636545 0.832925
0.00568194 0.126001 0.832894
0.00583304 0.188425 0.832762
0.0685084 0.00142032 0.832859
0.0684985 0.0637949 0.832894
0.0684857 0.126042 0.832867
0.0685879 0.188406 0.83284
0.131494 0.00128655 0.832942
0.131457 0.0636315 0.832931
0.131603 0.126114 0.832922
0.131468 0.188479 0.832852
0.194222 0.00107539 0.833013
0.1944 0.0634906 0.833014
0.194329 0.12597 0.83291
0.194364 0.188493 0.832913
0.00593689 0.00116928 0.871679
0.0059662 0.063769 0.871781
0.00586546 0.126088 0.871739
0.00611397 0.188462 0.871562
0.068723 0.0637814 0.755415
0.0689289 0.00132345 0.871605
0.0687653 0.0637134 0.871641
0.0687669 0.12615 0.871608
0.0687978 0.188407 0.871624
0.00672347 0.0638674 0.949267
0.131525 0.00121833 0.871595
0.131698 0.0636734 0.871584
0.131596 0.126048 0.871687
0.131674 0.188515 0.871571
0.131863 0.063791 0.949018
0.194487 9.70462e-04 0.871643
0.194468 0.0635099 0.871618
0.19456 0.126029 0.871586
0.194529 0.188434 0.871734
0.00673746 0.0011403 0.949295
0.00619607 0.00117499 0.910382
0.00616142 0.0636195 0.910539
0.131093 0.438293 0.716445
0.0683186 0.313383 0.677667
0.131267 0.313371 0.716483
0.0684453 0.250826 0.677674
0.0688669 0.376009 0.716446
0.0687147 0.438553 0.716495
0.068761 0.313535 0.716507
0.0687689 0.250968 0.716446
0.193616 0.438252 0.716294
0.00640942 0.438408 0.677497
0.131186 0.37572 0.677605
0.131119 0.250771 0.677703
0.00654802 0.376084 0.716411
0.00641982 0.313631 0.716455
0.193603 0.438206 0.677563
0.193858 0.250906 0.716505
0.00626675 0.438461 0.716411
0.00635285 0.250995 0.716474
0.1937 0.313377 0.716441
0.131265 0.375815 0.716489
0.0687154 0.438419 0.677681
0.193618 0.375744 0.677535
0.193803 0.375774 0.716373
0.193603 0.250724 0.677655
0.131157 0.251008 0.716434
0.193497 0.313206 0.677622
0.131126 0.313263 0.677625
0.0689438 0.375959 0.677669
0.131199 0.438247 0.677517
0.00630441 0.250773 0.600165
0.00650825 0.313406 0.599961
0.00639165 0.37592 0.600074
0.00638153 0.438624 0.599903
0.0687262 0.250894 0.600055
0.0686686 0.313326 0.600001
0.0688173 0.375839 0.599963
0.0688677 0.43837 0.600055
0.131069 0.250713 0.600096
0.131271 0.313332 0.599987
0.131156 0.375922 0.599929
0.131321 0.438515 0.59997
0.193872 0.250734 0.600041
0.19377 0.313149 0.599981
0.193777 0.375733 0.599965
0.193625 0.438169 0.600071
0.00631508 0.250817 0.638974
0.00646973 0.313449 0.638806
0.0064798 0.375881 0.638805
0.00647087 0.438327 0.63873
0.0686019 0.250699 0.638855
0.0687388 0.313276 0.638858
0.0689922 0.375824 0.638766
0.0687704 0.438414 0.638834
0.131158 0.25065 0.638889
0.13112 0.313223 0.638775
0.131214 0.375746 0.638722
0.131124 0.43816 0.638811
0.193546 0.250706 0.638861
0.193524 0.313185 0.638769
0.193455 0.375634 0.638663
0.193415 0.438176 0.638787
0.00618272 0.250845 0.67764
0.00627289 0.313478 0.677577
0.00652151 0.375959 0.677545
0.132064 0.313374 0.948932
0.131356 0.313478 0.755327
0.132262 0.376091 0.949209
0.0684719 0.313559 0.755319
0.194073 0.250887 0.755211
0.194922 0.375971 0.949254
0.0062588 0.376113 0.755224
0.00611643 0.438484 0.755222
0.132506 0.438438 0.949291
0.0686905 0.250982 0.755284
0.0687221 0.375979 0.755358
0.0686503 0.438399 0.755311
0.194841 0.438476 0.949235
0.131256 0.375962 0.755329
0.131208 0.438229 0.75532
0.194766 0.313552 0.949305
0.193987 0.313465 0.755138
0.193933 0.375847 0.755085
0.193743 0.438246 0.755124
0.00582182 0.250934 0.793941
0.0059856 0.313444 0.794016
0.00595221 0.375972 0.794098
0.00607068 0.438449 0.794102
0.068601 0.250799 0.794138
0.0686681 0.313314 0.794034
0.0688956 0.375793 0.794093
0.0687643 0.438426 0.794176
0.131441 0.250921 0.794052
0.131597 0.313331 0.794113
0.131499 0.375821 0.794149
0.131455 0.438231 0.794091
0.194211 0.250814 0.794049
0.193945 0.313388 0.793938
0.194085 0.375889 0.794016
0.193957 0.438422 0.794066
0.00590135 0.250909 0.83273
0.00623743 0.313414 0.832815
0.00649183 0.375989 0.832767
0.0064421 0.438386 0.832864
0.0688224 0.250832 0.832781
0.0688993 0.313272 0.832767
0.0689824 0.375744 0.832801
0.0691311 0.438328 0.832811
0.131513 0.25095 0.832828
0.131691 0.313315 0.832835
0.131598 0.375758 0.832823
0.131682 0.43823 0.832869
0.194171 0.250937 0.8328
0.194188 0.313407 0.832867
0.194105 0.37589 0.832932
0.194084 0.438425 0.832889
0.00666297 0.313449 0.871597
0.00689656 0.375934 0.871628
0.00690842 0.438288 0.87156
0.0691605 0.313297 0.871574
0.0691929 0.375751 0.871591
0.069327 0.438252 0.871657
0.131737 0.313373 0.871567
0.131779 0.375876 0.871629
0.13202 0.438355 0.871611
0.194399 0.313441 0.871733
0.194348 0.375934 0.871809
0.194317 0.438376 0.871783
0.00684497 0.31338 0.910257
0.00693202 0.375814 0.910322
0.00714208 0.438283 0.910325
0.0693581 0.313266 0.910316
0.0694687 0.375852 0.91032
0.0696149 0.438337 0.910387
0.131695 0.313332 0.910294
0.131894 0.375918 0.91045
0.132109 0.438405 0.910446
0.194472 0.313494 0.910522
0.194502 0.376025 0.910492
0.194594 0.438399 0.91056
0.00721982 0.313322 0.948862
0.00737475 0.376001 0.949064
0.00745266 0.438329 0.949162
0.194404 0.250837 0.871674
0.0698334 0.313442 0.949098
0.0699372 0.375881 0.949119
0.0700041 0.438403 0.949116
0.131308 0.251039 0.755299
0.00626224 0.3135 0.755221
0.194507 0.251034 0.948962
0.00611219 0.251059 0.755201
0.131672 0.250898 0.871532
0.0694272 0.250937 0.948886
0.0690156 0.25075 0.871557
0.00621585 0.250858 0.87163
0.00717654 0.250812 0.949212
0.00663919 0.250982 0.910431
0.194383 0.250777 0.910391
0.13176 0.250868 0.910378
0.0690598 0.250685 0.910261
0.132126 0.250718 0.949172
0.0681802 0.500958 0.716486
0.00555404 0.501029 0.716414
0.1311 0.563403 0.677723
0.193445 0.626019 0.716491
0.0684002 0.688253 0.716732
0.193397 0.563366 0.677698
0.00571767 0.625817 0.716488
0.0682204 0.625759 0.716587
0.193498 0.563301 0.716375
0.193483 0.500707 0.716315
0.13095 0.625767 0.716536
0.131092 0.688425 0.716683
0.131094 0.500766 0.716435
0.00606205 0.56342 0.71652
0.00625533 0.688406 0.71669
0.068382 0.563195 0.716457
0.193432 0.688592 0.677881
0.193563 0.500799 0.677635
0.130978 0.563249 0.716519
0.00618352 0.625928 0.677663
0.00599668 0.50085 0.677569
0.00625967 0.563422 0.677657
0.193384 0.688582 0.71659
0.131049 0.500676 0.6777
0.0684812 0.563325 0.677679
0.00623853 0.688493 0.677861
0.193541 0.626011 0.677777
0.0686915 0.688353 0.67796
0.0686603 0.500847 0.677644
0.130912 0.625954 0.677788
0.130964 0.68852 0.677894
0.0686639 0.625873 0.67781
0.00633914 0.500849 0.600067
0.00620073 0.563585 0.600117
0.00619446 0.625997 0.600232
0.00622064 0.688583 0.600245
0.0689089 0.501189 0.60007
0.0688259 0.563497 0.600221
0.0688116 0.626088 0.600236
0.0687939 0.68844 0.600298
0.13125 0.500769 0.600051
0.131326 0.563607 0.600151
0.131222 0.626002 0.600301
0.131315 0.688692 0.600356
0.1936 0.500986 0.60011
0.193664 0.5634 0.600192
0.193756 0.626234 0.600225
0.193567 0.688492 0.600344
0.00619383 0.500811 0.638883
0.00608171 0.563338 0.638859
0.00606072 0.62582 0.638998
0.00601559 0.688405 0.638992
0.0687212 0.500915 0.63881
0.0685851 0.563358 0.638976
0.0686108 0.62591 0.638982
0.0685958 0.688404 0.639106
0.131152 0.500778 0.638955
0.131073 0.563367 0.638995
0.131039 0.625883 0.639101
0.131102 0.688459 0.639098
0.193387 0.500709 0.638817
0.193336 0.563325 0.638919
0.19354 0.625995 0.638952
0.193341 0.688518 0.639043
0.132332 0.688257 0.949436
0.195045 0.625916 0.949457
0.00744229 0.688268 0.94928
0.193896 0.501011 0.832857
0.00659206 0.500877 0.832913
0.0689287 0.500834 0.832829
0.194856 0.563536 0.949292
0.194892 0.688457 0.949296
0.0700157 0.500706 0.949279
0.132077 0.500858 0.910443
0.132348 0.500944 0.949238
0.195007 0.500916 0.949341
0.0073094 0.500878 0.949061
0.0696734 0.500749 0.910373
0.00739836 0.625977 0.949072
0.00590288 0.500825 0.755199
0.00596576 0.563298 0.755316
0.00601956 0.625746 0.755329
0.00608764 0.688345 0.755431
0.0686384 0.50081 0.755384
0.0686296 0.563147 0.755312
0.0687122 0.625672 0.755435
0.0686813 0.688253 0.755426
0.131124 0.500594 0.75531
0.131196 0.563123 0.755318
0.131058 0.625665 0.755297
0.131021 0.688374 0.755403
0.193688 0.500617 0.755177
0.193577 0.563214 0.755174
0.19348 0.625923 0.755281
0.193703 0.688514 0.75531
0.00594698 0.500909 0.794173
0.00608196 0.563409 0.794136
0.00614447 0.625848 0.794274
0.00615625 0.688365 0.79424
0.0687312 0.500855 0.794176
0.0686537 0.563316 0.794225
0.0686896 0.625842 0.794143
0.0686266 0.688394 0.794106
0.13136 0.50071 0.794124
0.131369 0.56329 0.794064
0.131246 0.625856 0.794073
0.131191 0.688506 0.794115
0.193923 0.500874 0.794041
0.193728 0.56338 0.794016
0.193599 0.626022 0.794026
0.193717 0.688645 0.79405
0.0699482 0.625748 0.949273
0.00657353 0.563441 0.832859
0.00663702 0.625974 0.832858
0.00649022 0.688445 0.832873
0.0698049 0.688418 0.949244
0.0689625 0.563382 0.832802
0.0688914 0.625942 0.832753
0.0688285 0.68849 0.832797
0.132339 0.625859 0.949272
0.131589 0.563415 0.832841
0.131511 0.626013 0.832834
0.131421 0.688591 0.832862
0.132429 0.563201 0.949349
0.193902 0.563588 0.832902
0.193851 0.626129 0.832852
0.193855 0.68867 0.832911
0.00700666 0.500853 0.871691
0.00698853 0.563467 0.871648
0.006939 0.626008 0.871707
0.00665008 0.688401 0.871705
0.0694624 0.500742 0.871619
0.0695197 0.563372 0.87162
0.0694278 0.625964 0.871658
0.0693183 0.688487 0.871707
0.131851 0.500847 0.871681
0.131829 0.56342 0.871674
0.13181 0.625943 0.871684
0.131674 0.688424 0.871695
0.1943 0.500993 0.87174
0.194228 0.563641 0.871721
0.194186 0.626072 0.871677
0.194082 0.688553 0.871776
0.0698659 0.563385 0.949142
0.00711136 0.563395 0.910349
0.00715672 0.625888 0.910365
0.00707434 0.688403 0.910474
0.131569 0.500794 0.832892
0.0696698 0.563263 0.910378
0.0697883 0.625901 0.910465
0.0695607 0.688435 0.910511
0.00702968 0.500798 0.910328
0.132028 0.563352 0.910481
0.131892 0.625815 0.910523
0.131909 0.688319 0.910535
0.194479 0.500854 0.91056
0.194383 0.563282 0.910564
0.1944 0.625922 0.910614
0.194193 0.688478 0.910692
0.00743323 0.563218 0.949125
0.0682066 0.938648 0.716583
0.131089 0.813634 0.677955
0.00564195 0.938543 0.71673
0.131074 0.876267 0.677935
0.0683682 0.813541 0.716732
0.131098 0.813684 0.71669
0.13102 0.93866 0.716636
0.131132 0.876221 0.716574
0.193482 0.751033 0.677907
0.193606 0.75104 0.716628
0.131297 0.751042 0.600355
0.131177 0.938664 0.677814
0.19359 0.813607 0.716619
0.193762 0.876287 0.716714
0.193757 0.876159 0.677929
0.193471 0.751049 0.639162
0.0686346 0.750833 0.716808
0.00628677 0.750956 0.677876
0.00606917 0.876089 0.716679
0.193724 0.93876 0.677937
0.0684887 0.938576 0.67789
0.130971 0.751005 0.716684
0.0061338 0.813533 0.71673
0.193547 0.813554 0.677921
0.0685178 0.876178 0.716679
0.193865 0.938681 0.716657
0.0062821 0.81344 0.60048
0.0062366 0.876144 0.600392
0.00635594 0.938394 0.600317
0.00626834 0.750851 0.716667
0.0688013 0.813565 0.600319
0.0686909 0.875705 0.600392
0.068645 0.93849 0.600265
0.131265 0.813463 0.600453
0.131225 0.876149 0.600398
0.131263 0.938321 0.60035
0.193657 0.813667 0.600379
0.19368 0.875912 0.600422
0.193659 0.938596 0.600243
0.00606415 0.813481 0.639161
0.00606697 0.876052 0.63914
0.00608299 0.938725 0.639037
0.0685806 0.813539 0.639122
0.0685721 0.876077 0.639158
0.0685954 0.938471 0.639125
0.131086 0.813573 0.639231
0.131141 0.876165 0.63911
0.131101 0.938753 0.639055
0.193463 0.813609 0.639131
0.193466 0.876163 0.639172
0.193618 0.93859 0.639068
0.00626685 0.813409 0.67789
0.00602079 0.876006 0.677936
0.00610399 0.938557 0.677794
0.0688048 0.813497 0.678008
0.0687023 0.876049 0.677903
0.193501 0.751076 0.600523
0.0688375 0.751126 0.600417
0.00629054 0.750868 0.60039
0.0685965 0.750944 0.639164
0.130949 0.75103 0.639189
0.00620801 0.751001 0.639099
0.068626 0.750961 0.678017
0.131014 0.751057 0.677995
0.194359 0.938271 0.949141
0.194572 0.87596 0.949408
0.194604 0.81335 0.949283
0.194968 0.750701 0.949488
0.131044 0.938724 0.755419
0.193905 0.938742 0.755448
0.00597227 0.938759 0.755419
0.0684734 0.93889 0.755375
0.00593879 0.750981 0.755437
0.00597054 0.813594 0.755541
0.00597157 0.876301 0.755518
0.0685451 0.750995 0.755501
0.0685163 0.813707 0.755454
0.0684756 0.876284 0.755393
0.131057 0.75104 0.755384
0.131009 0.813697 0.755436
0.131002 0.876386 0.755388
0.193591 0.75122 0.755385
0.193613 0.813776 0.755431
0.193675 0.876272 0.755443
0.00581291 0.7511 0.794234
0.00590558 0.813681 0.794302
0.00584997 0.876261 0.794303
0.00590146 0.93882 0.794196
0.0685277 0.751165 0.794184
0.0685122 0.813746 0.794182
0.0686598 0.87633 0.79416
0.0686158 0.938977 0.794224
0.131123 0.751198 0.794132
0.131121 0.813818 0.794171
0.131214 0.876349 0.794246
0.131402 0.938758 0.794201
0.193633 0.751181 0.794171
0.193761 0.81375 0.794233
0.193865 0.876258 0.79424
0.193903 0.938701 0.794243
0.00601768 0.750997 0.832985
0.00601957 0.813509 0.832976
0.00604797 0.876158 0.83301
0.0060007 0.9388 0.832974
0.0686472 0.751155 0.83284
0.0686757 0.81368 0.833031
0.0686596 0.876295 0.83303
0.068671 0.938874 0.832948
0.131337 0.7512 0.832966
0.131259 0.81373 0.832965
0.131364 0.876182 0.832973
0.131519 0.938873 0.832933
0.193791 0.751113 0.832946
0.194011 0.813553 0.833016
0.194057 0.876056 0.833031
0.194177 0.938631 0.833044
0.00652267 0.750889 0.871915
0.00642787 0.813466 0.871863
0.0063765 0.876037 0.871822
0.00642257 0.938633 0.871763
0.0690843 0.751009 0.871753
0.0689786 0.813577 0.871814
0.0689089 0.876104 0.871715
0.0688962 0.938714 0.871629
0.131653 0.750865 0.871784
0.131608 0.813504 0.87167
0.131603 0.87603 0.871695
0.131628 0.938693 0.871645
0.194168 0.751018 0.871772
0.194262 0.813404 0.871815
0.194167 0.875945 0.871753
0.194302 0.938495 0.87169
0.00689172 0.750892 0.910612
0.00688532 0.813491 0.910652
0.00669743 0.876073 0.910576
0.00652768 0.938569 0.910517
0.0694893 0.751059 0.910543
0.0693851 0.813475 0.910486
0.0691886 0.876044 0.910472
0.0691615 0.938724 0.910338
0.131799 0.750857 0.910562
0.131776 0.813478 0.910589
0.131749 0.875925 0.910488
0.131587 0.938512 0.910425
0.194334 0.750968 0.910645
0.194456 0.813433 0.91065
0.194332 0.875916 0.910539
0.194301 0.938415 0.910465
0.00724357 0.750921 0.949267
0.00727843 0.813322 0.949561
0.00711724 0.875886 0.949305
0.00701225 0.938655 0.94926
0.0697823 0.750717 0.949377
0.0697064 0.813365 0.949169
0.0696566 0.876105 0.949323
0.0694419 0.93867 0.94915
0.132137 0.751039 0.949312
0.132205 0.813396 0.949494
0.131938 0.87581 0.949201
0.131811 0.938556 0.949206
0.443634 0.0636262 0.716388
0.443414 0.00104331 0.716512
0.381246 9.23121e-04 0.716477
0.381265 0.126161 0.716347
0.381389 0.188616 0.716324
0.381279 0.0635674 0.716424
0.319106 0.188726 0.716382
0.443678 0.188603 0.716346
0.319084 0.126069 0.716573
0.318611 6.5714e-04 0.600338
0.443785 5.82042e-04 0.600264
0.256509 0.00103093 0.716623
0.256068 0.0632383 0.600224
0.256168 0.125902 0.600098
0.256191 0.18808 0.600119
0.31848 0.0635151 0.600171
0.318556 0.125853 0.600211
0.318631 0.188504 0.600151
0.381221 0.0631318 0.600172
0.381044 0.125826 0.600143
0.381106 0.188282 0.600195
0.443635 0.06347 0.600168
0.443635 0.125945 0.600203
0.443642 0.188658 0.600108
0.256078 0.0633554 0.63902
0.256054 0.125707 0.638939
0.255892 0.188193 0.638963
0.318581 0.0632557 0.638912
0.318552 0.125883 0.638885
0.318394 0.188182 0.638819
0.381198 0.0633743 0.638989
0.380974 0.125766 0.638871
0.380977 0.188255 0.638877
0.443559 0.0633265 0.638889
0.443478 0.125794 0.638876
0.443572 0.188312 0.638879
0.256207 8.7888e-04 0.677806
0.25642 0.0633777 0.677781
0.256291 0.125887 0.677796
0.256175 0.188355 0.677664
0.318773 8.46784e-04 0.677626
0.318733 0.0633505 0.677655
0.31887 0.125843 0.677574
0.318639 0.188464 0.677621
0.381101 9.58569e-04 0.677643
0.38121 0.0634321 0.677633
0.381157 0.125889 0.67763
0.381132 0.188304 0.677566
0.443659 0.00100897 0.677695
0.443637 0.0635092 0.677766
0.443776 0.125916 0.677653
0.443586 0.188487 0.677633
0.443666 0.126135 0.71646
0.256662 0.063543 0.716588
0.25664 0.126068 0.716481
0.25662 0.188521 0.716478
0.31906 9.32797e-04 0.716519
0.319171 0.0635611 0.716502
0.443744 9.30473e-04 0.638955
0.318571 8.07007e-04 0.639021
0.256091 0.00104889 0.600251
0.256128 8.93382e-04 0.639061
0.381183 0.00103112 0.600106
0.381111 8.96952e-04 0.638865
0.256408 0.12603 0.755431
0.444229 0.0636035 0.949441
0.381738 0.0638624 0.949349
0.256882 0.0637462 0.949168
0.3195 0.0635466 0.949341
0.31904 0.188597 0.755237
0.319049 0.126139 0.755335
0.256557 0.00106442 0.755473
0.256691 0.188654 0.755309
0.381473 0.126199 0.755248
0.256857 0.0635676 0.755414
0.381313 0.188698 0.755197
0.31914 0.063609 0.75536
0.443714 0.188657 0.755139
0.443355 0.0635104 0.755271
0.444219 0.188267 0.949459
0.381716 9.99855e-04 0.94929
0.319229 0.00141646 0.949325
0.44395 0.12637 0.949442
0.381857 0.126032 0.94933
0.256969 0.188799 0.949167
0.381541 0.188862 0.949245
0.256878 0.125894 0.949416
0.319393 0.188336 0.949344
0.44359 0.126223 0.755285
0.31908 0.126347 0.949213
0.443437 9.489e-04 0.755304
0.256603 0.0010417 0.794264
0.256966 0.0635334 0.794253
0.257039 0.12603 0.794199
0.256905 0.188532 0.794148
0.318991 9.11035e-04 0.794258
0.319078 0.0635495 0.794137
0.319099 0.126128 0.794109
0.319075 0.188629 0.793946
0.381169 9.56382e-04 0.794165
0.381458 0.0635819 0.794192
0.381335 0.126189 0.794083
0.381569 0.188707 0.794053
0.443289 0.00100386 0.794171
0.443445 0.0636371 0.794119
0.443636 0.126255 0.79406
0.443612 0.188743 0.793926
0.257033 9.68847e-04 0.833016
0.257133 0.0636193 0.832927
0.257088 0.126099 0.832997
0.256793 0.188616 0.832758
0.319171 9.44562e-04 0.832937
0.319366 0.0635748 0.83294
0.319354 0.126161 0.832872
0.319258 0.188801 0.832839
0.381512 0.00104 0.833047
0.381387 0.0635679 0.832978
0.381605 0.126152 0.832972
0.381495 0.188602 0.832782
0.443416 9.75307e-04 0.83293
0.443634 0.0636468 0.832953
0.443579 0.126082 0.832827
0.443786 0.18872 0.832872
0.256802 9.39878e-04 0.87165
0.25698 0.0635644 0.871674
0.25686 0.126028 0.871703
0.256697 0.188537 0.871583
0.444088 0.00141647 0.949354
0.319194 0.00100024 0.871735
0.319238 0.0635875 0.871745
0.319438 0.12616 0.871731
0.319318 0.188541 0.871672
0.381229 0.0635087 0.755356
0.381395 0.00106733 0.871748
0.38153 0.0635259 0.871761
0.38154 0.126064 0.871807
0.381545 0.188525 0.871655
0.256757 9.59516e-04 0.949254
0.443926 9.46494e-04 0.871766
0.443832 0.0635654 0.871808
0.443901 0.126035 0.871737
0.443948 0.188614 0.871687
0.381291 8.87505e-04 0.755311
0.256311 9.63009e-04 0.910479
0.256556 0.0634608 0.910441
0.25657 0.126138 0.910544
0.256523 0.188446 0.910372
0.319116 9.54794e-04 0.910504
0.319178 0.0635937 0.910562
0.319275 0.126009 0.910515
0.319392 0.188643 0.910511
0.381505 0.00106522 0.910514
0.381678 0.0636273 0.910555
0.381714 0.126214 0.910614
0.381531 0.188603 0.910476
0.319025 9.79598e-04 0.755434
0.443873 0.00100201 0.910528
0.443956 0.0636987 0.910623
0.444029 0.126077 0.910591
0.44416 0.188662 0.910618
0.443819 0.313685 0.716252
0.255644 0.375853 0.6775
0.38144 0.251255 0.716273
0.255894 0.313401 0.677585
0.318362 0.313755 0.716392
0.318649 0.43856 0.716406
0.319136 0.251177 0.716326
0.318887 0.376229 0.716392
0.318931 0.376089 0.677526
0.318954 0.251008 0.677527
0.25606 0.438348 0.677542
0.25621 0.438374 0.716358
0.256669 0.251013 0.716444
0.318788 0.313539 0.677554
0.443664 0.251207 0.716315
0.443716 0.375967 0.677464
0.25636 0.376007 0.71633
0.256526 0.313573 0.716415
0.443694 0.251105 0.677531
0.381206 0.438622 0.716393
0.443512 0.438365 0.677523
0.381308 0.376222 0.716376
0.381087 0.375974 0.677573
0.381381 0.313584 0.677562
0.443671 0.438411 0.716298
0.318563 0.438446 0.677602
0.381243 0.313771 0.716366
0.38106 0.438482 0.677604
0.381223 0.250972 0.677587
0.443817 0.376026 0.716289
0.443637 0.313574 0.677506
0.256159 0.250765 0.600118
0.256308 0.31353 0.59993
0.256239 0.37582 0.600003
0.256257 0.438461 0.599926
0.318739 0.250858 0.600137
0.318659 0.313279 0.600064
0.318786 0.376101 0.600048
0.318604 0.438308 0.600149
0.381157 0.25097 0.600225
0.381348 0.313576 0.600069
0.381076 0.375774 0.600102
0.381146 0.438582 0.600057
0.443791 0.250964 0.599987
0.443608 0.313414 0.599998
0.443665 0.375979 0.60005
0.443386 0.438256 0.600042
0.256014 0.25072 0.638858
0.256136 0.313213 0.638773
0.256149 0.375796 0.638812
0.256122 0.438292 0.638777
0.318554 0.250811 0.638825
0.318602 0.313247 0.638778
0.318518 0.375732 0.638735
0.318419 0.438306 0.638883
0.381093 0.250809 0.638882
0.381 0.313418 0.638858
0.380923 0.375857 0.638787
0.380873 0.438283 0.638838
0.443572 0.251005 0.638798
0.443675 0.313571 0.638839
0.443743 0.375886 0.638753
0.44357 0.438199 0.638794
0.256127 0.250813 0.67765
0.445041 0.43842 0.949103
0.444895 0.375894 0.949035
0.444017 0.251107 0.949
0.319969 0.376228 0.94903
0.319995 0.438707 0.949065
0.443799 0.31382 0.755005
0.443988 0.251254 0.832759
0.256868 0.251045 0.910485
0.381584 0.251177 0.832785
0.257232 0.250951 0.949264
0.256468 0.251123 0.755164
0.25633 0.3761 0.755216
0.256338 0.438369 0.755237
0.444104 0.251102 0.871593
0.382546 0.438469 0.949131
0.319103 0.376246 0.75531
0.318604 0.438688 0.755321
0.382171 0.376203 0.949066
0.38128 0.376354 0.755219
0.381329 0.438664 0.75528
0.381865 0.313595 0.948893
0.444634 0.313494 0.949177
0.443952 0.376146 0.755097
0.443835 0.438405 0.75513
0.256292 0.250934 0.793895
0.256349 0.313563 0.794061
0.256188 0.376115 0.794065
0.256368 0.438563 0.794074
0.319065 0.251196 0.794107
0.318817 0.313741 0.794005
0.31891 0.376158 0.794124
0.318764 0.438754 0.794129
0.38133 0.251194 0.793925
0.381562 0.313849 0.793956
0.381515 0.37622 0.793946
0.381614 0.438707 0.794053
0.443735 0.251243 0.793958
0.44389 0.313641 0.793861
0.444166 0.376148 0.793994
0.444035 0.438546 0.794038
0.25668 0.251109 0.832835
0.25642 0.313542 0.832786
0.256321 0.376157 0.832826
0.256294 0.438613 0.832884
0.319086 0.251388 0.832679
0.319083 0.31371 0.832728
0.318926 0.376153 0.832734
0.318998 0.438752 0.832747
0.381503 0.251246 0.755139
0.381713 0.313837 0.832714
0.381704 0.37617 0.832714
0.381657 0.438649 0.83279
0.381515 0.313838 0.75515
0.444154 0.31364 0.83281
0.444222 0.376097 0.832787
0.444331 0.438423 0.832789
0.256635 0.313535 0.871643
0.256715 0.376062 0.871658
0.256813 0.438614 0.871639
0.319169 0.313667 0.871426
0.319113 0.376137 0.871441
0.319175 0.438694 0.871503
0.381684 0.313797 0.871555
0.381659 0.376225 0.871565
0.381935 0.438612 0.871558
0.444119 0.313514 0.871607
0.444234 0.376078 0.871567
0.444414 0.438416 0.871599
0.256886 0.313571 0.910351
0.257135 0.376109 0.910403
0.257178 0.438633 0.910396
0.319347 0.313644 0.910286
0.319498 0.376311 0.910202
0.319533 0.438778 0.910346
0.381646 0.313641 0.910274
0.381787 0.376158 0.910397
0.382124 0.438553 0.910386
0.444286 0.313403 0.910394
0.444448 0.376004 0.910261
0.444621 0.438522 0.910441
0.257217 0.313554 0.949005
0.257394 0.376231 0.949207
0.257525 0.438598 0.949201
0.319038 0.31383 0.755338
0.319712 0.313703 0.949152
0.256747 0.251097 0.871676
0.319426 0.251246 0.948977
0.44357 0.251287 0.755054
0.319371 0.251153 0.755252
0.381951 0.251011 0.949182
0.319164 0.251191 0.871449
0.256677 0.31352 0.755216
0.381625 0.251024 0.871515
0.381528 0.251084 0.91042
0.444085 0.250894 0.910401
0.319148 0.251109 0.910195
0.318059 0.563384 0.716456
0.255603 0.625962 0.716549
0.255523 0.563488 0.71649
0.318149 0.500966 0.716446
0.318066 0.688448 0.716741
0.25548 0.500958 0.716395
0.380991 0.625862 0.716541
0.380894 0.563335 0.71648
0.380999 0.688403 0.716607
0.44363 0.625902 0.716516
0.443563 0.688449 0.716546
0.443452 0.563406 0.677644
0.255975 0.688498 0.716661
0.443661 0.500939 0.716316
0.443534 0.625915 0.677759
0.44348 0.688333 0.677825
0.318338 0.62586 0.716577
0.255887 0.688543 0.677882
0.38085 0.688459 0.67794
0.318295 0.688566 0.677963
0.318347 0.625969 0.677881
0.255785 0.626052 0.677774
0.255877 0.56364 0.677678
0.318263 0.563382 0.677778
0.318376 0.50093 0.677755
0.380844 0.625963 0.677797
0.443611 0.500938 0.677602
0.255856 0.500958 0.67757
0.380923 0.500918 0.716436
0.380939 0.563476 0.677779
0.380931 0.500858 0.677696
0.44355 0.56339 0.716355
0.255853 0.500779 0.600175
0.255838 0.56357 0.60014
0.255914 0.625933 0.60029
0.25602 0.688538 0.600354
0.318529 0.501112 0.600194
0.318428 0.563415 0.600282
0.318496 0.625976 0.600345
0.318506 0.68828 0.600421
0.380913 0.500813 0.60026
0.38095 0.563585 0.600241
0.380971 0.62585 0.60041
0.38091 0.688583 0.600364
0.443395 0.500986 0.600142
0.443247 0.563327 0.600166
0.443271 0.626063 0.600223
0.443575 0.688399 0.600326
0.255864 0.500918 0.638929
0.2558 0.563381 0.638952
0.255864 0.625853 0.63905
0.255935 0.68846 0.639085
0.318401 0.500828 0.638907
0.318259 0.563412 0.639073
0.318385 0.626022 0.639124
0.318385 0.688488 0.639127
0.380846 0.50083 0.638986
0.380849 0.563339 0.639084
0.38093 0.625901 0.639121
0.38088 0.688431 0.639141
0.443203 0.500626 0.638863
0.443165 0.563401 0.638936
0.443233 0.625997 0.638981
0.443346 0.688398 0.639029
0.381674 0.501094 0.832882
0.445099 0.688174 0.949159
0.256087 0.501115 0.83298
0.256972 0.501089 0.910448
0.25749 0.50108 0.949121
0.445275 0.500816 0.949192
0.382561 0.501005 0.949031
0.320196 0.500958 0.9491
0.444899 0.501057 0.91035
0.320049 0.68815 0.949092
0.320274 0.625687 0.949179
0.319599 0.501152 0.910298
0.25591 0.500821 0.755309
0.255885 0.563269 0.755307
0.255892 0.625833 0.755333
0.255985 0.688479 0.755405
0.318639 0.501037 0.75535
0.318616 0.563439 0.755316
0.31858 0.625768 0.755363
0.318597 0.688288 0.755375
0.38117 0.501041 0.755232
0.381179 0.563384 0.755297
0.381117 0.625746 0.755334
0.381033 0.688238 0.755389
0.443804 0.500739 0.75522
0.443857 0.563371 0.755119
0.443825 0.625796 0.755207
0.443713 0.688353 0.755202
0.255973 0.501051 0.79408
0.2558 0.563468 0.794015
0.255756 0.625927 0.794013
0.255846 0.688454 0.794102
0.318802 0.501123 0.794163
0.318664 0.563487 0.794139
0.318584 0.625823 0.794152
0.318594 0.688277 0.794122
0.381507 0.501179 0.794047
0.381498 0.563542 0.794023
0.381409 0.625838 0.794055
0.38135 0.688205 0.794103
0.443942 0.500942 0.794042
0.443998 0.563501 0.793983
0.443967 0.625922 0.793944
0.443727 0.68844 0.794014
0.318883 0.50109 0.832781
0.255847 0.563557 0.832847
0.256061 0.625988 0.8329
0.256171 0.688409 0.832847
0.382526 0.688011 0.949248
0.318902 0.563487 0.832892
0.318785 0.625859 0.832865
0.318794 0.688186 0.832875
0.445205 0.563279 0.949022
0.381622 0.563496 0.832856
0.381674 0.625998 0.832844
0.381592 0.688287 0.832891
0.445289 0.625555 0.949156
0.444157 0.563576 0.832836
0.444086 0.626056 0.832851
0.44398 0.688498 0.832906
0.256543 0.501057 0.871642
0.256433 0.563543 0.8716
0.256468 0.625998 0.871591
0.256549 0.688338 0.871704
0.319208 0.501122 0.871575
0.319214 0.563619 0.871609
0.319146 0.625992 0.871607
0.319021 0.688256 0.871702
0.381939 0.501029 0.871588
0.381961 0.563524 0.871585
0.381912 0.626021 0.871598
0.381691 0.688349 0.871736
0.44458 0.500971 0.87162
0.44464 0.563617 0.871629
0.444532 0.626089 0.871623
0.444441 0.68849 0.871757
0.382714 0.56331 0.949071
0.256869 0.563473 0.910456
0.256741 0.625884 0.910493
0.256866 0.688282 0.910563
0.382084 0.501062 0.910311
0.319451 0.563534 0.910234
0.31949 0.625897 0.91031
0.319362 0.688231 0.910414
0.382632 0.625719 0.948994
0.382127 0.563573 0.910269
0.382089 0.625889 0.910352
0.382002 0.688212 0.910434
0.444151 0.500977 0.832862
0.44489 0.563437 0.910301
0.444941 0.625974 0.910373
0.444704 0.688324 0.910507
0.257636 0.563309 0.949232
0.257557 0.625865 0.949155
0.257601 0.68813 0.949343
0.320102 0.563376 0.948951
0.318353 0.875894 0.716682
0.381216 0.938366 0.71654
0.255814 0.813504 0.716728
0.381148 0.813291 0.71668
0.318378 0.813369 0.716685
0.318957 0.938281 0.716545
0.381223 0.938472 0.677703
0.443715 0.875961 0.677779
0.443522 0.938382 0.716454
0.381158 0.875887 0.716552
0.443595 0.813349 0.716622
0.443577 0.875857 0.716591
0.44354 0.750898 0.716601
0.443585 0.750728 0.677854
0.381044 0.750878 0.716637
0.318616 0.751008 0.677988
0.256073 0.750987 0.716658
0.318608 0.750891 0.716767
0.256593 0.938421 0.716682
0.443624 0.938555 0.677661
0.25648 0.876019 0.716645
0.381169 0.875954 0.677751
0.443601 0.813303 0.677856
0.38123 0.813345 0.677877
0.25619 0.813335 0.600497
0.256125 0.876121 0.600416
0.256204 0.938418 0.600359
0.3187 0.813556 0.600424
0.318732 0.875821 0.600408
0.318581 0.938451 0.600234
0.381072 0.813314 0.600317
0.381063 0.876063 0.600343
0.38122 0.938387 0.600244
0.443469 0.813575 0.600256
0.443579 0.875881 0.600265
0.4437 0.938419 0.600212
0.256034 0.813512 0.639207
0.256136 0.876027 0.639112
0.256148 0.938619 0.639105
0.318548 0.813655 0.639213
0.318541 0.876023 0.63912
0.318636 0.938366 0.638977
0.380975 0.813469 0.639144
0.381073 0.876032 0.63903
0.38109 0.938495 0.638978
0.443512 0.813535 0.63907
0.443542 0.876102 0.639037
0.443643 0.938495 0.638921
0.256153 0.81347 0.677881
0.256224 0.875945 0.677881
0.256285 0.938414 0.677848
0.318667 0.813428 0.677962
0.318839 0.875835 0.677866
0.31878 0.938391 0.677788
0.256075 0.75093 0.600473
0.318412 0.750925 0.600444
0.443293 0.751006 0.600353
0.380992 0.750945 0.600349
0.443326 0.750887 0.639071
0.255983 0.751067 0.639146
0.380973 0.750928 0.677918
0.256082 0.750988 0.677911
0.380817 0.751022 0.639153
0.318389 0.751009 0.639171
0.382315 0.750719 0.949248
0.381946 0.875737 0.94926
0.382248 0.813128 0.949566
0.381767 0.938638 0.949333
0.444932 0.750517 0.949474
0.444132 0.938535 0.949251
0.444477 0.876015 0.949419
0.444589 0.813367 0.949292
0.319 0.938358 0.755462
0.256401 0.938548 0.75543
0.443273 0.938414 0.755361
0.38108 0.938393 0.755385
0.256085 0.751049 0.755445
0.255992 0.813604 0.755487
0.25633 0.876155 0.755491
0.318581 0.750969 0.755445
0.318594 0.813507 0.755448
0.318778 0.875871 0.755458
0.381022 0.750841 0.755382
0.380973 0.813271 0.75545
0.381065 0.875885 0.755415
0.443489 0.75096 0.755333
0.44346 0.81355 0.755387
0.443286 0.875771 0.755431
0.25593 0.751047 0.794097
0.256079 0.813577 0.794193
0.256092 0.876014 0.794294
0.256459 0.938463 0.794267
0.318615 0.7509 0.794229
0.318729 0.813428 0.794254
0.318905 0.875902 0.794317
0.318908 0.938383 0.79428
0.381096 0.750774 0.794197
0.381142 0.813246 0.794212
0.381146 0.875778 0.794311
0.381363 0.938417 0.794245
0.44354 0.750964 0.794112
0.443636 0.813457 0.79418
0.443576 0.875718 0.794161
0.443361 0.938281 0.794244
0.256241 0.750861 0.832975
0.256342 0.813365 0.832989
0.25634 0.875818 0.833075
0.256734 0.938447 0.832996
0.318798 0.750717 0.83291
0.319034 0.813231 0.833033
0.319048 0.87577 0.833065
0.319222 0.938311 0.833053
0.381423 0.750645 0.832971
0.381352 0.813145 0.83307
0.381529 0.875712 0.833103
0.381451 0.938395 0.833067
0.443749 0.750922 0.832975
0.443845 0.813289 0.832934
0.443721 0.875657 0.832981
0.443741 0.938191 0.833057
0.256622 0.750825 0.871866
0.256687 0.81325 0.871742
0.256713 0.875779 0.871787
0.256971 0.938481 0.871732
0.319098 0.750644 0.871793
0.319277 0.813155 0.871851
0.31917 0.875671 0.871814
0.319291 0.938307 0.87178
0.381708 0.75067 0.871831
0.381723 0.813194 0.871817
0.381551 0.875771 0.871819
0.381576 0.938455 0.871848
0.444249 0.75084 0.87188
0.444043 0.813348 0.871937
0.443955 0.875839 0.871851
0.443883 0.938348 0.871758
0.25698 0.750741 0.910648
0.256945 0.813331 0.910597
0.256836 0.875818 0.910579
0.25681 0.938349 0.910547
0.319476 0.750762 0.910596
0.319433 0.813105 0.910599
0.31937 0.875673 0.910582
0.31929 0.938394 0.910519
0.38195 0.750666 0.910619
0.381918 0.813228 0.910676
0.381748 0.875838 0.910627
0.381686 0.938428 0.910567
0.444522 0.750873 0.910689
0.444272 0.8134 0.910664
0.44412 0.875877 0.910633
0.443933 0.938519 0.910516
0.257374 0.750791 0.949162
0.257338 0.813261 0.949596
0.257109 0.8757 0.94926
0.256982 0.938387 0.949329
0.320081 0.750482 0.94944
0.319685 0.81304 0.949176
0.319758 0.875794 0.949423
0.319446 0.938367 0.949217
0.568194 0.188449 0.716341
0.631024 0.12583 0.71634
0.631019 0.0634665 0.716518
0.693563 9.89816e-04 0.716489
0.693596 0.188399 0.716297
0.69357 0.125992 0.716447
0.631103 9.67419e-04 0.716519
0.63122 0.1883 0.71638
0.6936 0.0634767 0.71646
0.568593 0.125942 0.716524
0.693861 5.95501e-04 0.60017
0.568726 5.00684e-04 0.600247
0.506143 0.063167 0.600194
0.506297 0.125964 0.600141
0.50626 0.18841 0.600098
0.568681 0.063539 0.600136
0.568709 0.125916 0.600146
0.5688 0.188553 0.600081
0.631189 0.0631632 0.600136
0.631187 0.125805 0.600131
0.631283 0.188222 0.600032
0.693766 0.0635307 0.600103
0.693798 0.125877 0.600075
0.693879 0.188332 0.600042
0.506028 0.0635224 0.638941
0.506085 0.125923 0.638852
0.506057 0.188353 0.638859
0.568645 9.76459e-04 0.638993
0.568519 0.0633585 0.638943
0.568544 0.125847 0.638843
0.568569 0.18828 0.638855
0.630866 0.0634285 0.63889
0.631116 0.125843 0.638843
0.631064 0.188246 0.638725
0.693672 0.0634328 0.638824
0.693493 0.125705 0.638763
0.693807 0.188126 0.638747
0.505986 9.58345e-04 0.677711
0.506205 0.0634528 0.677745
0.506148 0.125897 0.677678
0.506015 0.188397 0.677572
0.568481 9.69727e-04 0.677835
0.568416 0.0634955 0.677741
0.568518 0.125777 0.677654
0.568372 0.188294 0.677601
0.630932 9.96526e-04 0.677707
0.631004 0.0633592 0.677666
0.631009 0.125723 0.677587
0.631128 0.188198 0.677457
0.693586 0.00103954 0.677619
0.69346 0.0635325 0.677604
0.693647 0.125828 0.677583
0.693671 0.18818 0.677547
0.505884 9.76242e-04 0.716517
0.505895 0.0635348 0.716574
0.506334 0.126066 0.716441
0.50612 0.188613 0.716435
0.568316 0.00102681 0.716665
0.568517 0.0634515 0.716482
0.693509 0.00108838 0.638767
0.630984 9.47756e-04 0.638983
0.506023 8.85641e-04 0.63898
0.631208 0.00116618 0.600114
0.506255 0.00102325 0.600208
0.694256 0.0636167 0.949093
0.694384 0.00138284 0.949051
0.505618 9.83604e-04 0.755308
0.631596 0.18864 0.949044
0.567888 0.12596 0.755222
0.568021 0.126067 0.949137
0.505043 0.0635735 0.755313
0.631337 0.188368 0.910312
0.50603 0.18865 0.755222
0.630972 0.125825 0.75524
0.631012 0.188333 0.755218
0.569052 0.188358 0.910348
0.568246 0.0634302 0.755319
0.568808 0.125851 0.910397
0.631385 0.0634748 0.910275
0.631465 0.00106001 0.910373
0.693728 0.00116877 0.755382
0.568394 8.81517e-04 0.755391
0.693494 0.18846 0.755119
0.505835 0.126214 0.755275
0.568621 0.188413 0.755139
0.568783 0.0635 0.910246
0.63178 0.12582 0.949167
0.694113 0.188427 0.910452
0.631005 0.00109001 0.755336
0.506376 0.063904 0.949172
0.694213 0.188205 0.949225
0.569344 0.187964 0.949121
0.5691 0.0634651 0.948987
0.506393 0.00117618 0.949221
0.693646 0.0635376 0.755345
0.694012 0.126078 0.910416
0.569059 0.00136978 0.948993
0.506491 0.188547 0.949156
0.694071 0.126323 0.949087
0.631606 0.00103364 0.949119
0.631479 0.125944 0.910402
0.506451 0.12582 0.9493
0.505379 9.19007e-04 0.794159
0.505536 0.063461 0.794169
0.506095 0.126154 0.794114
0.505955 0.188571 0.793989
0.568161 8.87603e-04 0.794144
0.568283 0.0633054 0.794127
0.568486 0.125927 0.79412
0.568558 0.188444 0.79394
0.631057 0.00104156 0.794242
0.631009 0.0633794 0.79417
0.631035 0.125846 0.794039
0.63108 0.188294 0.794029
0.693881 0.00115532 0.794211
0.693757 0.0635476 0.794105
0.693712 0.125901 0.794167
0.693631 0.188355 0.794038
0.505725 8.61382e-04 0.833047
0.505687 0.0634015 0.832797
0.505966 0.125987 0.832853
0.506001 0.188549 0.832744
0.568175 7.21752e-04 0.832803
0.568365 0.0634244 0.832867
0.56836 0.125821 0.832819
0.568568 0.188395 0.832747
0.631261 0.00109503 0.832956
0.630967 0.0634444 0.832888
0.631139 0.125814 0.832891
0.631163 0.188313 0.832736
0.69397 0.00117303 0.832857
0.694044 0.063643 0.832966
0.69381 0.125973 0.832751
0.69388 0.188372 0.832921
0.505857 9.03757e-04 0.871577
0.505947 0.063436 0.871634
0.505863 0.125989 0.871684
0.506372 0.188481 0.871535
0.631623 0.0636822 0.949091
0.568632 7.76726e-04 0.87159
0.568507 0.0633669 0.871571
0.568693 0.125909 0.871571
0.568739 0.188253 0.871636
0.694219 0.063683 0.910363
0.631365 0.00111627 0.871621
0.631256 0.0635115 0.871589
0.631325 0.125842 0.871572
0.631355 0.188331 0.871484
0.630953 0.0634907 0.755354
0.694058 0.0011389 0.871628
0.694256 0.0636665 0.871587
0.693963 0.126015 0.871614
0.694025 0.188348 0.871563
0.694073 0.00102929 0.910389
0.505828 0.00119407 0.910412
0.505954 0.0635363 0.910439
0.506182 0.126012 0.910499
0.506324 0.188327 0.910392
0.693704 0.125967 0.755276
0.568657 8.47101e-04 0.910253
0.693746 0.313358 0.677413
0.63145 0.313417 0.716169
0.631269 0.25089 0.716177
0.568995 0.376024 0.716282
0.568854 0.438648 0.716206
0.506323 0.313438 0.677506
0.568814 0.375991 0.67731
0.568695 0.25075 0.677484
0.693657 0.438371 0.716125
0.568695 0.251004 0.716334
0.506415 0.376004 0.716192
0.693933 0.375937 0.677321
0.69357 0.3759 0.716146
0.506245 0.251178 0.716237
0.569024 0.313477 0.716229
0.506354 0.438474 0.716235
0.63132 0.438442 0.677319
0.693661 0.313334 0.716168
0.506504 0.313679 0.716292
0.693713 0.250876 0.716203
0.506168 0.438484 0.677445
0.631398 0.313438 0.677348
0.568895 0.313343 0.677449
0.693733 0.438383 0.677386
0.631138 0.250756 0.677394
0.631172 0.438491 0.716146
0.693807 0.250733 0.67741
0.631221 0.375927 0.677334
0.631258 0.375981 0.716145
0.506129 0.375866 0.677444
0.568696 0.438416 0.67735
0.506224 0.250879 0.6001
0.506404 0.313561 0.599922
0.506151 0.375985 0.600004
0.506198 0.438579 0.60002
0.568893 0.250933 0.60001
0.568862 0.313276 0.599969
0.568973 0.376004 0.599975
0.568624 0.438494 0.600047
0.631422 0.250726 0.600072
0.63154 0.31346 0.599884
0.631331 0.375888 0.599981
0.631358 0.438544 0.599932
0.694075 0.250829 0.599948
0.694182 0.313494 0.599967
0.694112 0.376123 0.599941
0.693796 0.438479 0.599993
0.50628 0.250806 0.638912
0.506297 0.313453 0.638722
0.506281 0.375898 0.638684
0.506046 0.438361 0.638772
0.568666 0.250868 0.638711
0.568768 0.313288 0.638613
0.568825 0.375764 0.638585
0.568615 0.438372 0.638663
0.63132 0.25071 0.638772
0.631426 0.313221 0.638607
0.631282 0.375872 0.638629
0.631322 0.438365 0.638607
0.693754 0.25089 0.638614
0.693951 0.313427 0.638634
0.693852 0.375753 0.638561
0.693857 0.438283 0.638741
0.506081 0.250857 0.677571
0.632112 0.375947 0.949176
0.506079 0.251223 0.755031
0.632337 0.43839 0.949232
0.506303 0.250946 0.832765
0.631415 0.313407 0.755073
0.693525 0.250968 0.755108
0.506871 0.250623 0.949228
0.569068 0.250899 0.871469
0.506518 0.250909 0.910382
0.694786 0.438251 0.949192
0.506478 0.376076 0.75515
0.506539 0.438492 0.755215
0.694697 0.375851 0.949153
0.694538 0.313385 0.949199
0.569077 0.376037 0.755185
0.568981 0.438523 0.755145
0.631616 0.250678 0.871489
0.631803 0.313366 0.948949
0.631345 0.376051 0.755096
0.631302 0.438378 0.755157
0.693513 0.313547 0.755049
0.506458 0.313706 0.755056
0.693578 0.375961 0.755002
0.693533 0.438263 0.754979
0.505981 0.251018 0.7939
0.506312 0.313527 0.793923
0.506506 0.375921 0.793917
0.506715 0.438431 0.793988
0.568542 0.250793 0.793969
0.568906 0.313335 0.793884
0.569187 0.375787 0.793942
0.569182 0.438453 0.793975
0.631013 0.250757 0.79394
0.631456 0.313334 0.794005
0.631443 0.375948 0.793993
0.631501 0.438439 0.79404
0.693661 0.251001 0.794058
0.693507 0.313514 0.794017
0.693679 0.375813 0.794105
0.693642 0.438357 0.794101
0.506491 0.250975 0.871485
0.506613 0.313401 0.832643
0.506716 0.375867 0.832702
0.506744 0.438414 0.83273
0.568895 0.250924 0.832664
0.569216 0.313331 0.832689
0.569121 0.375853 0.832683
0.569327 0.438453 0.832737
0.631377 0.250741 0.832759
0.631576 0.313256 0.832799
0.631575 0.375917 0.832761
0.631617 0.438418 0.832882
0.69379 0.25095 0.832825
0.693894 0.313429 0.832946
0.693893 0.375759 0.833042
0.693916 0.438253 0.832996
0.506673 0.313471 0.871527
0.506814 0.375856 0.871546
0.506983 0.438571 0.87147
0.569299 0.31337 0.871495
0.569346 0.375952 0.871517
0.569449 0.438476 0.871586
0.631669 0.313276 0.871527
0.631622 0.375931 0.87165
0.631782 0.438493 0.871653
0.693953 0.313353 0.871679
0.694125 0.375723 0.871709
0.694287 0.438233 0.871696
0.50675 0.313429 0.910257
0.507055 0.375858 0.910398
0.507216 0.43852 0.910346
0.569298 0.31336 0.910342
0.56949 0.375992 0.910336
0.569472 0.438456 0.910451
0.631625 0.313339 0.910275
0.631726 0.375848 0.910453
0.631971 0.438416 0.910435
0.694098 0.313244 0.910352
0.694304 0.375825 0.910376
0.694486 0.438318 0.910448
0.506913 0.313251 0.948844
0.507277 0.375908 0.949093
0.50756 0.43841 0.949218
0.569703 0.313438 0.949157
0.56973 0.375897 0.949214
0.569804 0.438406 0.949166
0.56907 0.313605 0.755058
0.568606 0.250945 0.755117
0.694111 0.251105 0.948981
0.693908 0.25087 0.871625
0.569268 0.250861 0.94893
0.63114 0.250808 0.755097
0.693898 0.25079 0.910285
0.631489 0.250846 0.910431
0.568946 0.250801 0.910208
0.631853 0.250786 0.949184
0.506004 0.688383 0.716569
0.50596 0.563362 0.716374
0.505987 0.500871 0.716295
0.631215 0.626018 0.716337
0.631209 0.563492 0.716269
0.693706 0.688539 0.677743
0.631255 0.500999 0.716176
0.693605 0.62599 0.716462
0.693572 0.500846 0.716197
0.693541 0.563396 0.716281
0.69379 0.688597 0.716484
0.631277 0.688546 0.71647
0.568762 0.50106 0.716262
0.568672 0.68852 0.716513
0.568647 0.56334 0.716325
0.506189 0.625966 0.71642
0.568723 0.625899 0.716451
0.631049 0.563471 0.677596
0.506063 0.688396 0.677776
0.505983 0.625903 0.677731
0.568728 0.500955 0.677524
0.631151 0.500878 0.677447
0.6937 0.625971 0.677647
0.631142 0.688519 0.67776
0.568569 0.625937 0.677644
0.693732 0.563447 0.67758
0.693706 0.500844 0.67747
0.56855 0.688502 0.677792
0.631058 0.62605 0.677678
0.568533 0.563415 0.677532
0.505635 0.500925 0.600102
0.50566 0.563629 0.600063
0.505785 0.625835 0.600276
0.505632 0.688516 0.600284
0.56845 0.501039 0.60003
0.568352 0.563319 0.600235
0.568404 0.626061 0.60025
0.568537 0.688469 0.600386
0.631185 0.500926 0.600109
0.631226 0.563588 0.600163
0.631171 0.625968 0.6003
0.631193 0.688699 0.600301
0.693744 0.501139 0.600114
0.693786 0.563395 0.600114
0.69371 0.626084 0.600187
0.693644 0.688398 0.600294
0.505729 0.500944 0.638836
0.505513 0.563305 0.638855
0.505653 0.625792 0.63894
0.505736 0.688401 0.639029
0.568312 0.500899 0.638764
0.56821 0.56337 0.638848
0.568405 0.625819 0.638927
0.568446 0.688381 0.639042
0.631136 0.500866 0.638754
0.631062 0.563278 0.638851
0.631081 0.625923 0.638941
0.631029 0.688423 0.638943
0.693594 0.500821 0.638793
0.693631 0.563426 0.638894
0.693643 0.625876 0.638963
0.693582 0.688357 0.638929
0.505941 0.500948 0.677584
0.505926 0.563502 0.677686
0.69494 0.688415 0.949188
0.632491 0.625952 0.949114
0.56972 0.500999 0.910379
0.694046 0.500948 0.832987
0.632007 0.500976 0.910418
0.694944 0.500646 0.949152
0.632339 0.500873 0.94919
0.507146 0.501014 0.910362
0.570062 0.500751 0.949282
0.506566 0.500989 0.832718
0.50756 0.500895 0.949122
0.570109 0.62577 0.949228
0.506478 0.500848 0.755135
0.506309 0.563314 0.755188
0.506305 0.625829 0.755168
0.506245 0.688386 0.755233
0.568801 0.501 0.755197
0.568847 0.563386 0.755131
0.568875 0.62586 0.755249
0.568844 0.688462 0.755261
0.631285 0.500831 0.755072
0.631323 0.563449 0.755132
0.631429 0.625927 0.75518
0.631524 0.688542 0.755299
0.69355 0.500664 0.755093
0.693774 0.563339 0.755175
0.693752 0.625943 0.755243
0.693901 0.688464 0.755281
0.506479 0.500963 0.793904
0.506368 0.563573 0.793872
0.506278 0.62604 0.793953
0.506147 0.688415 0.793887
0.568916 0.50117 0.793969
0.568917 0.563542 0.794016
0.568976 0.626096 0.793933
0.568892 0.688699 0.794026
0.631526 0.50096 0.794056
0.631659 0.563574 0.793925
0.631749 0.626076 0.793969
0.631637 0.688665 0.794034
0.693743 0.500949 0.794058
0.694061 0.563402 0.794091
0.694021 0.626062 0.794076
0.694043 0.688607 0.794167
0.632579 0.688247 0.94928
0.506323 0.563656 0.832723
0.506383 0.626173 0.832686
0.506216 0.688561 0.832829
0.632492 0.563235 0.949212
0.569172 0.563603 0.832715
0.569237 0.626199 0.832691
0.569026 0.688739 0.832673
0.695086 0.62571 0.94925
0.631807 0.563612 0.832811
0.631833 0.626191 0.832786
0.631715 0.688769 0.832901
0.694883 0.563418 0.949099
0.694251 0.563558 0.832925
0.694219 0.626132 0.83292
0.694263 0.688651 0.832941
0.506905 0.501076 0.871534
0.506959 0.563684 0.871462
0.506961 0.626179 0.87148
0.506676 0.688504 0.871685
0.569543 0.501075 0.871463
0.56956 0.563724 0.87137
0.569609 0.626243 0.871464
0.569405 0.688666 0.871544
0.631902 0.500982 0.87168
0.632024 0.563582 0.871631
0.63199 0.626171 0.87162
0.631882 0.688668 0.871698
0.694428 0.500928 0.871733
0.69454 0.563611 0.87167
0.694559 0.626085 0.87168
0.69453 0.688536 0.871771
0.694581 0.500858 0.910394
0.507387 0.563525 0.910316
0.507407 0.625967 0.910407
0.507234 0.68838 0.910511
0.570008 0.688615 0.949214
0.569754 0.563453 0.910345
0.569801 0.626114 0.910346
0.569587 0.688635 0.910506
0.631701 0.500937 0.832872
0.632099 0.56352 0.910424
0.632173 0.62597 0.910477
0.632089 0.688501 0.910478
0.569096 0.501095 0.832779
0.694727 0.563317 0.910398
0.694733 0.625889 0.910423
0.694647 0.688318 0.910505
0.507718 0.563138 0.949148
0.507669 0.625843 0.949137
0.507726 0.688227 0.949336
0.570012 0.563466 0.94911
0.568013 0.938505 0.71666
0.631182 0.938457 0.716622
0.505228 0.938503 0.716735
0.568143 0.875975 0.716727
0.631275 0.813464 0.677812
0.631098 0.876088 0.716606
0.505513 0.875874 0.716603
0.631104 0.938515 0.677795
0.505852 0.750888 0.639101
0.506095 0.750977 0.716639
0.631102 0.876014 0.677796
0.631304 0.813564 0.716656
0.693772 0.813498 0.716465
0.693789 0.876103 0.716488
0.506042 0.750967 0.600415
0.693738 0.750998 0.677712
0.693597 0.938578 0.677633
0.568655 0.813416 0.716597
0.69376 0.813432 0.677713
0.506242 0.813299 0.716623
0.69367 0.876028 0.677664
0.568701 0.750959 0.677902
0.693655 0.938618 0.716478
0.505919 0.813455 0.600378
0.506218 0.876023 0.600392
0.506198 0.938272 0.600325
0.568622 0.813583 0.600435
0.568767 0.875802 0.600417
0.568692 0.938419 0.600295
0.631198 0.813503 0.600434
0.631194 0.876192 0.600367
0.631251 0.93841 0.600264
0.693741 0.813544 0.600241
0.693939 0.875868 0.600304
0.693871 0.938502 0.600149
0.505945 0.813387 0.639105
0.505987 0.875956 0.639146
0.506139 0.938491 0.639052
0.568458 0.81354 0.639203
0.56852 0.876049 0.639162
0.568628 0.938433 0.639088
0.631043 0.81349 0.639133
0.631055 0.875949 0.639083
0.630921 0.938617 0.639019
0.693756 0.813474 0.638963
0.693654 0.876063 0.639007
0.693642 0.938474 0.63883
0.506136 0.813389 0.67786
0.506054 0.876029 0.677802
0.506104 0.938406 0.677787
0.568618 0.813469 0.677914
0.568587 0.875964 0.677964
0.568535 0.938442 0.677896
0.631321 0.751034 0.716588
0.568755 0.750973 0.71664
0.693796 0.751057 0.716496
0.693689 0.751061 0.600322
0.568478 0.751156 0.600373
0.631066 0.75103 0.600356
0.568366 0.750965 0.639158
0.693624 0.750849 0.638994
0.631009 0.750898 0.639071
0.506058 0.750934 0.677915
0.631156 0.750933 0.677827
0.631754 0.938586 0.949184
0.632221 0.813401 0.949524
0.631972 0.876009 0.949222
0.694648 0.876093 0.949351
0.694663 0.813422 0.949204
0.69502 0.750747 0.949323
0.69444 0.938636 0.949054
0.568379 0.938527 0.755417
0.693775 0.938801 0.755372
0.631254 0.938476 0.755384
0.50548 0.938477 0.755391
0.506062 0.750951 0.755282
0.506019 0.813359 0.755427
0.505842 0.875897 0.755423
0.568803 0.751076 0.755389
0.56878 0.813666 0.755366
0.568517 0.876135 0.755458
0.631409 0.751185 0.755336
0.631318 0.813754 0.755455
0.693789 0.751059 0.75534
0.693819 0.813608 0.755356
0.631276 0.876196 0.755432
0.505889 0.751096 0.793985
0.506102 0.813598 0.79413
0.505904 0.876043 0.794209
0.505459 0.938444 0.794062
0.568799 0.75121 0.794132
0.568849 0.813703 0.794156
0.56879 0.876231 0.794154
0.568428 0.938555 0.794221
0.631466 0.751399 0.794167
0.631499 0.813824 0.794237
0.631463 0.876229 0.794291
0.631398 0.938567 0.794261
0.693917 0.751205 0.794225
0.693921 0.813663 0.794328
0.694018 0.876232 0.794297
0.693905 0.938829 0.794212
0.506121 0.751201 0.832813
0.506007 0.813496 0.832949
0.506074 0.875846 0.832902
0.505688 0.93836 0.832924
0.568809 0.751258 0.832875
0.568856 0.813671 0.832952
0.568629 0.876019 0.832997
0.568567 0.938313 0.832946
0.631583 0.751292 0.83294
0.631604 0.81376 0.833085
0.631672 0.87617 0.833046
0.631447 0.938587 0.832996
0.694196 0.751197 0.833095
0.694222 0.813675 0.833161
0.69436 0.876217 0.833128
0.694283 0.938679 0.833101
0.506633 0.751018 0.87182
0.506462 0.813427 0.871776
0.506306 0.875894 0.87183
0.506226 0.938437 0.871642
0.569155 0.751095 0.87169
0.569145 0.813562 0.871804
0.568971 0.875882 0.871773
0.568779 0.938386 0.871628
0.631905 0.75106 0.871842
0.631868 0.813657 0.871774
0.631767 0.876092 0.871809
0.631624 0.938535 0.871676
0.69448 0.750933 0.871905
0.694515 0.813486 0.87187
0.694536 0.876098 0.871798
0.694454 0.938713 0.871767
0.506916 0.750895 0.910571
0.506821 0.813554 0.910623
0.506618 0.876089 0.910464
0.5062 0.938527 0.910436
0.569377 0.751197 0.910553
0.569288 0.813558 0.910597
0.569125 0.876033 0.91049
0.568855 0.93851 0.91035
0.632006 0.751032 0.910594
0.631962 0.813593 0.910613
0.631934 0.876078 0.910458
0.631691 0.938448 0.91037
0.694703 0.750984 0.910619
0.694663 0.813427 0.910602
0.694629 0.876068 0.910571
0.694422 0.938797 0.910426
0.507334 0.750991 0.949284
0.507269 0.813424 0.949571
0.50685 0.875972 0.949227
0.506541 0.938661 0.949221
0.569911 0.750768 0.949396
0.569601 0.813541 0.949258
0.569479 0.876058 0.949251
0.569142 0.938431 0.949037
0.632176 0.751056 0.949242
0.693798 0.876123 0.755388
0.943527 0.12607 0.716535
0.755562 0.00102352 0.716443
0.81856 0.00112669 0.638985
0.943369 0.00100403 0.716592
0.943569 0.063439 0.716474
0.881 0.0010956 0.716589
0.818409 0.00112855 0.716505
0.881155 0.126127 0.716459
0.943737 0.188568 0.71639
0.881336 0.00109113 0.600175
0.943734 6.45787e-04 0.600155
0.818913 7.26762e-04 0.600244
0.756289 0.0633223 0.600094
0.756324 0.125916 0.600018
0.756455 0.188322 0.599924
0.818956 0.0636015 0.600146
0.818888 0.126015 0.600171
0.818852 0.188643 0.600172
0.881299 0.0632738 0.600176
0.881389 0.126052 0.600154
0.881485 0.188358 0.600113
0.943727 0.0634843 0.600131
0.943835 0.125775 0.600155
0.943913 0.18854 0.600129
0.756036 0.0634952 0.638802
0.756274 0.12589 0.638806
0.756122 0.188274 0.63872
0.818778 0.0634058 0.638936
0.818649 0.125815 0.638819
0.818754 0.188309 0.638839
0.881017 0.063495 0.638914
0.881279 0.125974 0.638904
0.881154 0.18844 0.638851
0.943534 0.0634061 0.638909
0.943576 0.125875 0.638871
0.943744 0.188286 0.638868
0.756035 0.00104631 0.67764
0.756077 0.0635386 0.677638
0.756214 0.125909 0.677592
0.756303 0.188318 0.677504
0.818556 0.00106853 0.677748
0.81845 0.0635754 0.677748
0.818655 0.125908 0.677633
0.818635 0.18833 0.677656
0.88102 0.00103283 0.677827
0.88112 0.0634907 0.67776
0.881124 0.125983 0.677662
0.881145 0.188426 0.677574
0.943572 0.00104028 0.677744
0.943528 0.0634598 0.677724
0.943647 0.125805 0.67765
0.943581 0.188383 0.677688
0.88113 0.188659 0.716451
0.756015 0.0636147 0.71648
0.75599 0.126084 0.716453
0.756014 0.188497 0.716441
0.818465 0.0636675 0.716501
0.818616 0.126106 0.716521
0.818598 0.188629 0.716361
0.880991 0.063597 0.716593
0.756128 9.57026e-04 0.638916
0.9435 9.51129e-04 0.638954
0.756428 0.00111225 0.600101
0.881177 9.36861e-04 0.63899
0.944419 0.0635234 0.949392
0.944606 0.188409 0.949459
0.944277 0.126328 0.949398
0.94405 0.188631 0.91063
0.943908 0.126103 0.910682
0.756599 0.126034 0.949218
0.819194 0.188313 0.949429
0.943515 0.126161 0.755167
0.755908 0.126117 0.755226
0.943604 0.0635323 0.755299
0.94389 0.0636217 0.910592
0.881021 0.0636598 0.755322
0.818646 0.0637046 0.755328
0.756171 0.00116326 0.755269
0.943679 0.188632 0.755089
0.818484 0.188666 0.755104
0.943367 9.96959e-04 0.755415
0.88103 0.00114381 0.755353
0.818699 0.00116392 0.755265
0.756185 0.0636799 0.75531
0.881139 0.126205 0.755246
0.755852 0.188609 0.755177
0.756619 0.0639472 0.949051
0.818674 0.126244 0.75525
0.944366 0.00139371 0.949241
0.75654 0.1887 0.949129
0.8193 0.00156861 0.949199
0.881753 0.063906 0.949316
0.881806 0.00105168 0.949296
0.881917 0.188761 0.949269
0.943932 9.72957e-04 0.910577
0.819399 0.0636845 0.949387
0.756267 0.00113912 0.794069
0.756655 0.0635881 0.794212
0.756301 0.126078 0.794037
0.756084 0.188598 0.794107
0.818892 0.00103498 0.794209
0.819011 0.0637398 0.793977
0.818864 0.126234 0.794159
0.818685 0.188617 0.7939
0.881074 0.00100877 0.794164
0.881117 0.0635989 0.794226
0.881264 0.126285 0.794029
0.881089 0.1888 0.794004
0.943394 0.00109842 0.794222
0.943408 0.0635919 0.794113
0.943345 0.126209 0.794136
0.943446 0.188677 0.793977
0.756645 0.00113931 0.833043
0.756564 0.0636507 0.832663
0.756858 0.126106 0.833041
0.756333 0.188517 0.832671
0.818995 0.00103571 0.832884
0.819208 0.0635743 0.833103
0.819065 0.126138 0.83277
0.818949 0.188697 0.832946
0.881419 0.0010066 0.832985
0.881341 0.0636492 0.832923
0.881379 0.126221 0.833024
0.881414 0.18876 0.832799
0.943517 0.00109965 0.83301
0.943541 0.0635868 0.833003
0.943551 0.126173 0.832922
0.943668 0.188701 0.832873
0.757048 0.00120107 0.871668
0.756337 0.0636704 0.871738
0.756761 0.126019 0.871499
0.756385 0.18841 0.871695
0.882028 0.126102 0.94938
0.819298 0.00115728 0.871647
0.81927 0.063561 0.871669
0.81922 0.126017 0.871762
0.819063 0.188487 0.871598
0.881504 9.52514e-04 0.871818
0.881578 0.0636141 0.871833
0.8815 0.126116 0.871823
0.881628 0.188616 0.871761
0.756654 0.00125561 0.949145
0.943836 0.00101724 0.871846
0.943651 0.0635545 0.871832
0.943749 0.126175 0.871794
0.943728 0.188609 0.87176
0.819132 0.126284 0.94923
0.75693 0.0012675 0.910344
0.756551 0.0635355 0.910433
0.756553 0.126146 0.910449
0.756426 0.188504 0.910418
0.819251 0.00104494 0.91056
0.819299 0.0637006 0.910475
0.819141 0.126012 0.910535
0.819186 0.188475 0.91058
0.88101 0.188745 0.755138
0.881554 0.00108597 0.910633
0.881576 0.0635218 0.910663
0.881673 0.126215 0.910697
0.881557 0.188575 0.910636
0.818316 0.313376 0.677502
0.943773 0.313482 0.716327
0.818207 0.375984 0.67749
0.881125 0.313566 0.71629
0.94374 0.250941 0.716335
0.818624 0.250832 0.677567
0.8811 0.251011 0.677561
0.81882 0.438374 0.677426
0.818589 0.438473 0.716264
0.81857 0.313504 0.71626
0.943602 0.438241 0.716251
0.756128 0.376014 0.71621
0.818445 0.375946 0.716278
0.818598 0.251177 0.716265
0.94368 0.438254 0.677566
0.881163 0.251138 0.716255
0.756144 0.43846 0.716161
0.943734 0.375956 0.716242
0.943638 0.250859 0.677607
0.944045 0.376008 0.677532
0.881129 0.375868 0.716305
0.756056 0.313501 0.71625
0.881177 0.43835 0.677476
0.881069 0.438347 0.716266
0.881218 0.313518 0.677495
0.943816 0.313438 0.677571
0.756003 0.250938 0.716279
0.881146 0.375822 0.6775
0.756608 0.25078 0.600034
0.756671 0.31346 0.599808
0.756592 0.375939 0.599983
0.756474 0.438699 0.599982
0.819135 0.251104 0.599937
0.819185 0.31333 0.599934
0.819149 0.375848 0.599868
0.818931 0.438331 0.599922
0.881553 0.250818 0.600131
0.881733 0.313472 0.59994
0.881536 0.375909 0.599967
0.881544 0.438501 0.599851
0.943989 0.250884 0.600062
0.944125 0.313252 0.600074
0.943999 0.375851 0.600009
0.943913 0.438244 0.600071
0.756361 0.250728 0.638735
0.756389 0.313269 0.63863
0.756673 0.375907 0.638658
0.756293 0.438263 0.638614
0.818635 0.250932 0.638694
0.818838 0.313404 0.638684
0.818793 0.375789 0.638608
0.818751 0.438251 0.638653
0.88126 0.250932 0.638853
0.881399 0.313486 0.638759
0.881304 0.375814 0.63878
0.881189 0.438198 0.638736
0.943784 0.250861 0.638773
0.943883 0.313424 0.638819
0.944005 0.375871 0.63874
0.943887 0.438195 0.638807
0.756222 0.25078 0.677489
0.756393 0.31335 0.677388
0.756343 0.375833 0.677354
0.756321 0.438366 0.677377
0.882489 0.438305 0.949273
0.819179 0.251041 0.949023
0.819111 0.250745 0.910366
0.944906 0.438458 0.949043
0.756433 0.250833 0.871599
0.75581 0.251108 0.755028
0.9445 0.251242 0.949076
0.818437 0.251126 0.755007
0.818416 0.313629 0.754997
0.881535 0.251075 0.871635
0.756222 0.251012 0.832828
0.756472 0.250837 0.910448
0.755799 0.376039 0.755128
0.75575 0.43841 0.755143
0.819076 0.250886 0.871708
0.944797 0.375888 0.949105
0.818513 0.376022 0.755073
0.818498 0.438261 0.755169
0.881048 0.375821 0.755034
0.881016 0.438258 0.755101
0.882136 0.250936 0.949288
0.944859 0.313557 0.949265
0.943815 0.376032 0.755099
0.94357 0.438339 0.755095
0.755696 0.251059 0.793911
0.755972 0.313471 0.793991
0.755907 0.375878 0.794048
0.755777 0.438373 0.794136
0.818467 0.251055 0.793907
0.818459 0.313391 0.793791
0.818564 0.375922 0.793845
0.818607 0.438258 0.79398
0.880999 0.251097 0.793838
0.881317 0.313494 0.793874
0.881196 0.375687 0.793866
0.881264 0.438235 0.793926
0.943655 0.251065 0.794011
0.943704 0.313564 0.793959
0.943947 0.375988 0.794035
0.943768 0.43844 0.794079
0.943779 0.313575 0.755069
0.756419 0.313432 0.832799
0.756428 0.375699 0.832834
0.756297 0.438321 0.832916
0.818749 0.251059 0.832781
0.818866 0.313345 0.832753
0.818806 0.37583 0.83269
0.818897 0.43827 0.832655
0.881363 0.251143 0.832734
0.881346 0.313491 0.832746
0.881397 0.375732 0.832714
0.881371 0.438225 0.832813
0.943784 0.25112 0.832775
0.943959 0.313634 0.832728
0.943908 0.375996 0.83291
0.944011 0.438365 0.832853
0.756636 0.313375 0.871633
0.756647 0.375761 0.87165
0.756753 0.438306 0.871639
0.81907 0.31327 0.871674
0.819123 0.375879 0.871657
0.819197 0.43831 0.871685
0.88152 0.313523 0.871582
0.881508 0.375902 0.871617
0.881606 0.43838 0.871591
0.944119 0.313563 0.871579
0.94402 0.375941 0.871599
0.944245 0.438388 0.871663
0.756433 0.313194 0.910427
0.756743 0.375869 0.910488
0.756916 0.438401 0.910489
0.819321 0.313296 0.910454
0.819288 0.376012 0.910479
0.819464 0.43846 0.9105
0.881631 0.313382 0.910411
0.881755 0.375886 0.910422
0.881903 0.438402 0.910441
0.944352 0.313437 0.91039
0.944344 0.375916 0.910314
0.944492 0.438476 0.910352
0.756825 0.313362 0.949015
0.757271 0.375879 0.949165
0.757461 0.438267 0.949215
0.881163 0.313557 0.754999
0.819611 0.313472 0.949255
0.819744 0.37585 0.949218
0.819885 0.438374 0.949218
0.755914 0.313584 0.755046
0.882013 0.313479 0.948992
0.882283 0.375928 0.949206
0.881074 0.251165 0.754983
0.944197 0.251024 0.910363
0.943686 0.251086 0.755071
0.881716 0.250986 0.910506
0.944006 0.251083 0.871553
0.756851 0.250807 0.94922
0.817985 0.563282 0.716374
0.755851 0.688279 0.716552
0.881265 0.688407 0.677788
0.881173 0.500831 0.716285
0.818172 0.688266 0.716513
0.81822 0.500872 0.716295
0.755574 0.563306 0.716432
0.818132 0.625706 0.716468
0.943449 0.563468 0.716364
0.755819 0.500835 0.716236
0.943657 0.688441 0.716466
0.881102 0.688317 0.716511
0.943751 0.688478 0.677802
0.880997 0.625783 0.716362
0.943471 0.500826 0.716298
0.756036 0.625832 0.716406
0.881116 0.563235 0.716419
0.756116 0.625984 0.677593
0.881166 0.625866 0.677667
0.881222 0.563391 0.677558
0.756214 0.688476 0.677658
0.818686 0.563343 0.677558
0.881027 0.500776 0.677574
0.755942 0.563431 0.677534
0.818728 0.50092 0.677512
0.943755 0.500844 0.677574
0.943567 0.625971 0.71647
0.75621 0.500886 0.677438
0.818681 0.688324 0.677763
0.943662 0.563383 0.677642
0.943825 0.625858 0.677745
0.818799 0.625846 0.677579
0.756275 0.50087 0.6
0.756059 0.563673 0.600168
0.75613 0.625893 0.600239
0.75619 0.688454 0.60025
0.818867 0.501035 0.599987
0.818928 0.563185 0.600063
0.818896 0.626015 0.60011
0.818657 0.68838 0.600235
0.881472 0.500613 0.600035
0.881486 0.563389 0.600113
0.881407 0.625781 0.60024
0.881469 0.688609 0.600224
0.944004 0.501069 0.600042
0.944045 0.563317 0.600125
0.943951 0.626006 0.600097
0.943895 0.688442 0.600311
0.756197 0.50088 0.63874
0.755903 0.563322 0.638819
0.756013 0.625927 0.638926
0.756231 0.68835 0.638879
0.818677 0.500781 0.638609
0.818755 0.563348 0.638752
0.818913 0.625839 0.638871
0.818808 0.688303 0.638976
0.881144 0.500758 0.638852
0.881098 0.563211 0.638844
0.881174 0.625824 0.638918
0.881294 0.688414 0.639018
0.943743 0.500721 0.638738
0.943742 0.563268 0.638869
0.943645 0.625813 0.638911
0.943757 0.688401 0.639026
0.882484 0.563184 0.949253
0.88236 0.625784 0.94922
0.944795 0.688234 0.949225
0.882404 0.688159 0.949358
0.943833 0.500938 0.832904
0.757512 0.625785 0.949164
0.882424 0.500866 0.949187
0.819907 0.563279 0.949143
0.944839 0.563467 0.949026
0.944913 0.625694 0.949147
0.819792 0.688241 0.949282
0.819898 0.625621 0.949329
0.757406 0.500837 0.9492
0.820053 0.500745 0.949281
0.945066 0.500752 0.949151
0.882013 0.500834 0.910379
0.944584 0.563366 0.910269
0.81961 0.688353 0.910552
0.944323 0.688291 0.910521
0.944522 0.625862 0.910377
0.881914 0.688325 0.910524
0.819632 0.563266 0.910415
0.881957 0.563375 0.910373
0.881965 0.625807 0.910464
0.7571 0.500876 0.910443
0.819479 0.500881 0.910499
0.819692 0.625806 0.91045
0.75574 0.500649 0.755132
0.75577 0.563093 0.755276
0.756005 0.625684 0.755353
0.756118 0.688366 0.75535
0.818394 0.500704 0.755219
0.818493 0.563283 0.755272
0.818414 0.625611 0.75528
0.81866 0.68826 0.755275
0.88106 0.500765 0.755116
0.881116 0.563167 0.755188
0.88108 0.625745 0.755184
0.881205 0.688419 0.755312
0.943568 0.500699 0.755255
0.943516 0.563397 0.755168
0.943583 0.625841 0.755276
0.943624 0.68846 0.755212
0.755828 0.500784 0.794086
0.755981 0.563297 0.794122
0.756213 0.625889 0.794155
0.756192 0.688477 0.794093
0.818649 0.500783 0.794038
0.818789 0.563323 0.794047
0.818755 0.625862 0.794019
0.818891 0.688522 0.79404
0.88127 0.500844 0.793984
0.881274 0.56341 0.794015
0.881355 0.625992 0.794064
0.881412 0.68849 0.794051
0.943793 0.500928 0.794112
0.943679 0.563445 0.794114
0.943671 0.625923 0.794128
0.943604 0.688376 0.794156
0.757526 0.688122 0.949354
0.756481 0.563414 0.832908
0.756728 0.626079 0.832872
0.756662 0.688602 0.832932
0.881457 0.500815 0.832791
0.819178 0.56342 0.832823
0.819182 0.625979 0.832828
0.819243 0.688672 0.832803
0.757547 0.56319 0.949275
0.881504 0.563376 0.832793
0.881596 0.625996 0.832804
0.881491 0.688508 0.832826
0.818916 0.500808 0.832759
0.944001 0.563481 0.832945
0.943917 0.625938 0.832924
0.943905 0.68836 0.832963
0.756968 0.500791 0.871651
0.756999 0.563495 0.87163
0.757136 0.626089 0.871648
0.757027 0.688485 0.871706
0.819298 0.500869 0.871623
0.819493 0.563449 0.871587
0.819484 0.625999 0.871548
0.819623 0.688528 0.87169
0.881742 0.500774 0.871618
0.881709 0.563305 0.871545
0.881834 0.625952 0.871627
0.881704 0.688439 0.871705
0.944187 0.500943 0.871612
0.944398 0.563501 0.871681
0.944224 0.625896 0.871706
0.944166 0.688382 0.871835
0.756418 0.500779 0.832962
0.757166 0.563415 0.910423
0.757231 0.625775 0.910417
0.757276 0.688301 0.910516
0.944554 0.500958 0.910303
0.943764 0.813515 0.677952
0.88119 0.813451 0.716669
0.818101 0.875956 0.716683
0.881152 0.875985 0.677937
0.75573 0.938527 0.716556
0.881097 0.938571 0.716676
0.943738 0.750976 0.716638
0.881123 0.876048 0.716621
0.943554 0.876046 0.716712
0.943821 0.751101 0.600419
0.881247 0.750966 0.639142
0.943734 0.751019 0.677904
0.756308 0.750953 0.677742
0.881187 0.938438 0.67786
0.943715 0.875955 0.677883
0.943416 0.938507 0.677812
0.818611 0.938515 0.716514
0.943764 0.813548 0.71662
0.756302 0.813437 0.716456
0.756078 0.876089 0.716424
0.818614 0.813375 0.716597
0.943531 0.938557 0.716603
0.756499 0.813324 0.600354
0.756523 0.876071 0.600263
0.75657 0.938285 0.600178
0.81902 0.813389 0.600313
0.819049 0.87564 0.600381
0.818987 0.938481 0.600251
0.881358 0.813442 0.600425
0.88137 0.876141 0.60037
0.881402 0.938314 0.600302
0.943873 0.813654 0.600373
0.943786 0.875986 0.600426
0.943736 0.93862 0.60025
0.756296 0.813456 0.639056
0.756297 0.876038 0.639021
0.756124 0.938644 0.63893
0.818876 0.813526 0.639127
0.818831 0.876133 0.639183
0.818864 0.93855 0.639055
0.881259 0.813495 0.639169
0.881293 0.876018 0.639105
0.88108 0.938574 0.639083
0.943627 0.813581 0.639183
0.943687 0.876181 0.639151
0.943725 0.93851 0.639079
0.756399 0.813462 0.67765
0.756296 0.876033 0.677653
0.756278 0.938508 0.677654
0.818782 0.81349 0.677937
0.818786 0.876085 0.677825
0.818633 0.938651 0.677867
0.881221 0.813428 0.67794
0.75619 0.750875 0.716489
0.881089 0.750891 0.716598
0.818658 0.750796 0.716601
0.818757 0.750832 0.677895
0.818872 0.750891 0.600289
0.756247 0.750768 0.600338
0.81888 0.750878 0.639055
0.881359 0.75097 0.600339
0.943752 0.750989 0.639118
0.881193 0.75091 0.677972
0.756277 0.750818 0.638973
0.881 0.938547 0.755418
0.756197 0.938657 0.755331
0.818542 0.938627 0.755283
0.943521 0.938619 0.755451
0.756092 0.750943 0.755344
0.755946 0.813501 0.755325
0.755849 0.876209 0.755319
0.818534 0.750918 0.755358
0.818536 0.813535 0.755352
0.818418 0.876024 0.755272
0.881182 0.751017 0.755335
0.88106 0.813526 0.75537
0.880945 0.876154 0.755384
0.94359 0.751125 0.755371
0.943687 0.813619 0.755427
0.943652 0.876046 0.755458
0.756087 0.751164 0.794191
0.756116 0.81361 0.794238
0.756249 0.876132 0.794216
0.756499 0.938668 0.794138
0.81878 0.75112 0.794084
0.818779 0.813639 0.79404
0.818729 0.876014 0.794084
0.81885 0.93856 0.794104
0.881281 0.751098 0.794041
0.881183 0.813593 0.794048
0.881202 0.876133 0.794163
0.881255 0.938448 0.794226
0.943802 0.750997 0.794185
0.943626 0.813585 0.794209
0.94376 0.876017 0.794242
0.943572 0.93857 0.794261
0.756645 0.751134 0.832926
0.756739 0.813561 0.833071
0.756875 0.876087 0.833012
0.756859 0.938598 0.832879
0.819084 0.751144 0.832904
0.819201 0.813587 0.832914
0.819149 0.875899 0.832948
0.819133 0.938445 0.832954
0.881484 0.751111 0.832903
0.88149 0.813477 0.83303
0.88166 0.875989 0.833032
0.881586 0.938432 0.832998
0.94382 0.750881 0.832992
0.9438 0.813409 0.833033
0.943842 0.875917 0.833117
0.943801 0.938535 0.833086
0.757027 0.750957 0.871858
0.757034 0.813505 0.871823
0.756945 0.876082 0.87181
0.757069 0.938615 0.871633
0.819473 0.750955 0.871777
0.819506 0.813507 0.871813
0.819457 0.875979 0.871734
0.81942 0.938553 0.871764
0.881745 0.751012 0.871875
0.881789 0.813498 0.871906
0.881761 0.875981 0.871909
0.881702 0.938402 0.871824
0.943993 0.750875 0.871937
0.944126 0.813386 0.871985
0.944093 0.875883 0.871939
0.943993 0.938519 0.871872
0.757187 0.750906 0.91063
0.757128 0.81348 0.910674
0.75688 0.876045 0.91057
0.756928 0.938668 0.910469
0.819613 0.750935 0.910688
0.819504 0.813501 0.910637
0.819327 0.876055 0.910624
0.819381 0.938573 0.910523
0.881812 0.750894 0.910746
0.881776 0.813412 0.910794
0.881695 0.875941 0.91072
0.881594 0.938433 0.910678
0.944318 0.750789 0.910691
0.944312 0.81328 0.910764
0.944243 0.875865 0.910753
0.944122 0.938572 0.910654
0.757341 0.750951 0.949283
0.757405 0.813428 0.949556
0.757005 0.876036 0.949272
0.756916 0.938769 0.949239
0.819931 0.750647 0.949487
0.819678 0.813451 0.949345
0.81952 0.876085 0.949449
0.819422 0.93854 0.949254
0.882199 0.750959 0.949374
0.882113 0.813372 0.949625
0.881889 0.875849 0.94943
0.88174 0.938638 0.949353
0.944831 0.750505 0.949474
0.944614 0.813324 0.949367
0.944586 0.875937 0.949519
0.944353 0.938398 0.94934
