POSCAR file written by OVITO Basic 3.10.6
1
62.6410599389 0.0 0.0
0.0 63.0204550086 0.0
0.0 0.0 107.559949534
O Ti Sr Pb
19968 6656 4096 2560 
Direct
0.0338764 0.00100601 0.0144922
0.037822 0.063391 0.0130683
0.0338168 0.125626 0.0147811
0.0378592 0.187872 0.01329
0.100356 0.00106314 0.0126322
0.0963403 0.0633603 0.0147843
0.100275 0.125564 0.01309
0.0962133 0.187924 0.0149175
0.158751 0.00111309 0.0143914
0.162793 0.0635069 0.012992
0.158792 0.125694 0.0148268
0.16275 0.187906 0.013273
0.225256 0.00108894 0.0125908
0.22129 0.0634851 0.01479
0.225224 0.125712 0.0131374
0.221186 0.188005 0.0149721
0.0386306 9.96303e-04 0.049945
0.033473 0.0634861 0.0523619
0.0385462 0.125863 0.0504304
0.0332002 0.18843 0.0524623
0.0957556 0.00100128 0.0522339
0.100984 0.0633986 0.0501479
0.0958462 0.125915 0.0525504
0.100871 0.188352 0.0502604
0.163615 0.00102566 0.0499584
0.158302 0.0634635 0.0523414
0.163409 0.125872 0.0504573
0.158094 0.188447 0.0524737
0.220631 9.96696e-04 0.0521933
0.22593 0.0634782 0.0501409
0.220797 0.125894 0.0525988
0.225803 0.188369 0.0502524
0.0331606 0.00105126 0.0896034
0.0385683 0.0634422 0.0874866
0.0330935 0.126019 0.0897996
0.0380904 0.188538 0.0874576
0.101045 0.00105416 0.08732
0.0957101 0.0635034 0.0897899
0.100834 0.125946 0.0874537
0.0954077 0.188581 0.0896851
0.158043 0.00102695 0.0895528
0.163429 0.0634558 0.0874819
0.158126 0.126028 0.0897705
0.163131 0.188568 0.087485
0.225948 0.00106473 0.0872665
0.220633 0.0634613 0.0897886
0.22573 0.125948 0.0875208
0.220584 0.188507 0.0898185
0.0381441 0.00118404 0.124748
0.0330676 0.0636432 0.127086
0.0379644 0.126161 0.124716
0.0327403 0.188638 0.127102
0.0956345 0.00115134 0.127051
0.100522 0.0636212 0.124766
0.095558 0.126122 0.127207
0.100498 0.188602 0.124672
0.163197 0.0011829 0.124725
0.158044 0.0636384 0.127041
0.163024 0.126025 0.12473
0.157814 0.188639 0.127101
0.220563 0.00118012 0.12707
0.225628 0.0636389 0.124695
0.220527 0.126102 0.127169
0.225358 0.188588 0.124687
0.0328512 0.00130347 0.164418
0.0379784 0.0637352 0.16203
0.0327201 0.126221 0.164489
0.0379004 0.188781 0.162018
0.100763 0.00127101 0.162016
0.0954213 0.0637003 0.164448
0.100415 0.12615 0.162052
0.0950712 0.188733 0.164291
0.157871 0.0012971 0.164462
0.16306 0.0636954 0.162094
0.15768 0.126155 0.164434
0.162872 0.188721 0.161988
0.225808 0.00123233 0.16203
0.220324 0.0637326 0.164415
0.22538 0.126196 0.162082
0.220141 0.188778 0.16429
0.0381394 0.0012815 0.199326
0.0328547 0.0637995 0.201687
0.0378812 0.126287 0.199285
0.0325429 0.188865 0.201561
0.0953699 0.00129027 0.201717
0.100401 0.0638008 0.199323
0.0951546 0.12627 0.2017
0.100393 0.188837 0.199318
0.16308 0.00127938 0.199324
0.157728 0.0637547 0.20181
0.162864 0.126235 0.199288
0.157505 0.18878 0.201561
0.220375 0.00122007 0.201749
0.225442 0.0637206 0.199337
0.220189 0.126283 0.201691
0.22528 0.188734 0.199249
0.0327805 0.00127611 0.239029
0.037718 0.0637924 0.236561
0.0325978 0.126302 0.238898
0.0377003 0.188806 0.236532
0.100368 0.00131957 0.236544
0.0951579 0.0638256 0.239003
0.100215 0.126315 0.236617
0.0949068 0.188851 0.238846
0.157767 0.00127141 0.239003
0.16275 0.0637441 0.236604
0.157666 0.126294 0.238918
0.162611 0.188892 0.236493
0.225389 0.00129946 0.236584
0.220191 0.0637908 0.238966
0.225261 0.126335 0.236636
0.219854 0.188877 0.238797
0.0339133 0.033802 0.0324615
0.0372966 0.0928728 0.0327021
0.0336 0.158331 0.0327405
0.0374587 0.217609 0.0326337
0.0994142 0.03029 0.0324687
0.0959799 0.0962094 0.0326686
0.0996878 0.155008 0.0327361
0.0958076 0.221028 0.0326076
0.158834 0.0338479 0.0324399
0.162251 0.0928054 0.032637
0.158396 0.158302 0.0327019
0.16231 0.217614 0.0326333
0.224461 0.030229 0.0324344
0.220977 0.0962745 0.03265
0.224709 0.155049 0.0327818
0.220793 0.221125 0.032641
0.0373419 0.0301614 0.0698695
0.0333224 0.0962333 0.0700171
0.0373411 0.155181 0.0700765
0.0331846 0.221603 0.0699504
0.0962048 0.0339056 0.0698756
0.0999608 0.0924694 0.0700221
0.0958513 0.15885 0.070058
0.0999353 0.217808 0.0699738
0.162141 0.0301412 0.069843
0.158232 0.0962384 0.0700193
0.162448 0.155261 0.0700963
0.158012 0.221532 0.0699953
0.220954 0.0339481 0.0698622
0.224806 0.0924921 0.0700194
0.220649 0.158935 0.0700737
0.224886 0.217682 0.0699808
0.0333474 0.0340485 0.107212
0.0373149 0.0926329 0.107322
0.0330915 0.159057 0.107272
0.0371846 0.217733 0.10724
0.0998836 0.0300454 0.107275
0.095733 0.0966631 0.10731
0.0996667 0.15509 0.107333
0.0954917 0.221698 0.107244
0.158346 0.0339169 0.107231
0.162318 0.0926734 0.107302
0.158118 0.159119 0.107364
0.162169 0.217746 0.107248
0.224838 0.0301321 0.107212
0.220581 0.0965229 0.107278
0.224789 0.155049 0.107317
0.220458 0.221675 0.107243
0.0372434 0.0302436 0.144577
0.0328914 0.0967772 0.144591
0.0370259 0.155148 0.144597
0.0328613 0.221854 0.144515
0.0955567 0.0341963 0.144567
0.0997841 0.0926825 0.144583
0.0954331 0.159295 0.14459
0.0995892 0.217674 0.144477
0.162331 0.0302711 0.14457
0.157922 0.0965968 0.144611
0.162036 0.155105 0.144605
0.157854 0.221892 0.144515
0.220622 0.0342586 0.144538
0.224803 0.0927408 0.144613
0.22039 0.15921 0.144598
0.224556 0.217747 0.144483
0.0329503 0.0343159 0.181905
0.037323 0.0927644 0.181888
0.0327728 0.159321 0.181821
0.0369761 0.217876 0.181786
0.0998656 0.0302281 0.181892
0.0951773 0.096804 0.181843
0.099543 0.155369 0.18186
0.0952619 0.221891 0.181767
0.157968 0.0343104 0.181877
0.162404 0.0927759 0.181928
0.157705 0.159224 0.181788
0.161958 0.217786 0.181744
0.224721 0.0302582 0.181891
0.22018 0.0967002 0.181892
0.2245 0.155279 0.181823
0.22017 0.221814 0.181765
0.0373141 0.030282 0.219172
0.0326606 0.0968902 0.219116
0.0369633 0.155428 0.219076
0.0325488 0.22193 0.219058
0.0953495 0.0343459 0.219176
0.0997922 0.092878 0.21914
0.0951045 0.159304 0.219096
0.0994712 0.218043 0.219038
0.162271 0.0303072 0.219185
0.157628 0.0968391 0.219159
0.161923 0.15546 0.219083
0.157658 0.221876 0.219005
0.220395 0.0344165 0.219167
0.224921 0.0929496 0.219169
0.22013 0.159339 0.219082
0.224285 0.217928 0.219
0.00427403 0.0340778 0.012969
0.00430353 0.0927323 0.0147579
0.00420434 0.159188 0.0131051
0.00420103 0.217598 0.0151095
0.066773 0.0301786 0.0143657
0.0667003 0.0966116 0.0129116
0.0668038 0.155145 0.0148179
0.0666447 0.221975 0.0128582
0.129255 0.0341719 0.0130186
0.12923 0.0928376 0.0147823
0.129184 0.159129 0.0129822
0.129192 0.217661 0.0151113
0.19169 0.0302864 0.0144565
0.191714 0.0967318 0.0129245
0.19174 0.155207 0.0148826
0.191654 0.221978 0.0129275
0.00437956 0.0299313 0.0522916
0.0043084 0.0975621 0.0502477
0.00426715 0.154978 0.0526575
0.00424203 0.222714 0.0501314
0.0668697 0.0350249 0.0502627
0.0668812 0.0925008 0.0526079
0.0667759 0.160067 0.0502935
0.0667318 0.217489 0.0526872
0.129323 0.0298104 0.0521733
0.12926 0.0975717 0.0501818
0.129287 0.155054 0.0526671
0.129193 0.222802 0.0500819
0.191824 0.0351349 0.0501856
0.191785 0.0924575 0.0525833
0.191676 0.16007 0.0502521
0.191657 0.217495 0.0526565
0.00439639 0.0352056 0.087443
0.00425522 0.0924809 0.0900346
0.00403924 0.160098 0.0875425
0.00403179 0.217604 0.0899422
0.0668976 0.0299337 0.0897246
0.0667025 0.0977069 0.0875436
0.0666157 0.155019 0.0900482
0.0665795 0.222827 0.0874081
0.129294 0.0352918 0.0874786
0.129186 0.092498 0.0899993
0.129073 0.160193 0.0875902
0.129048 0.217488 0.0900114
0.191737 0.0298838 0.0897554
0.191655 0.0976903 0.0875082
0.191549 0.155146 0.0901017
0.191613 0.222741 0.0874471
0.00406825 0.030212 0.127147
0.00399791 0.0975938 0.124781
0.0037959 0.155284 0.127226
0.00386504 0.222802 0.124668
0.0666065 0.0351651 0.12475
0.0664667 0.0927464 0.127334
0.0663713 0.160315 0.124817
0.0663116 0.217612 0.127268
0.129151 0.0302351 0.1272
0.128996 0.0976483 0.12474
0.128888 0.155111 0.127258
0.128832 0.222778 0.124706
0.191602 0.0352635 0.12475
0.191529 0.0926362 0.12727
0.191377 0.160138 0.124837
0.191344 0.217669 0.127191
0.00390159 0.0354528 0.162038
0.00387897 0.0927022 0.164623
0.00372325 0.160457 0.162078
0.00368563 0.217733 0.164475
0.0665266 0.0301771 0.164528
0.0663655 0.0978384 0.161977
0.0662539 0.155123 0.16454
0.0661714 0.222995 0.161948
0.128999 0.0355144 0.161983
0.128906 0.0927202 0.164705
0.128731 0.160419 0.162039
0.128653 0.217701 0.164447
0.191546 0.0302077 0.164564
0.191343 0.0979401 0.161971
0.191268 0.15517 0.164522
0.191176 0.222986 0.161915
0.00395615 0.030372 0.201924
0.00381151 0.0979651 0.199218
0.0036962 0.155253 0.201865
0.00354234 0.223068 0.199181
0.0664419 0.0354423 0.199238
0.0663302 0.0928354 0.201893
0.0661953 0.160504 0.199258
0.0661419 0.217875 0.201779
0.128945 0.030283 0.201919
0.128776 0.0978585 0.199186
0.128744 0.155234 0.201844
0.128627 0.223122 0.199188
0.191397 0.0354281 0.199294
0.191351 0.0927357 0.202067
0.191157 0.160436 0.199168
0.191096 0.217792 0.201719
0.00378725 0.0354503 0.23653
0.00376034 0.0928619 0.239198
0.00360001 0.160471 0.236454
0.00349887 0.217668 0.238966
0.0662872 0.0302703 0.239198
0.0662361 0.0978065 0.23645
0.066119 0.155303 0.239079
0.06598 0.22316 0.236388
0.128827 0.0354751 0.23651
0.128734 0.0928114 0.239216
0.12863 0.160357 0.236518
0.128527 0.217835 0.238949
0.191307 0.0303555 0.239138
0.191263 0.0978126 0.236473
0.191114 0.155296 0.239031
0.190987 0.223185 0.236442
0.0378932 0.0014191 0.273829
0.032629 0.063972 0.276241
0.0376971 0.126386 0.273862
0.0323362 0.188904 0.276068
0.0950425 0.00146083 0.276276
0.100375 0.063876 0.273958
0.0951203 0.126342 0.276217
0.100142 0.188822 0.273769
0.162835 0.00143604 0.273959
0.157592 0.0639012 0.276227
0.162641 0.126395 0.273927
0.15734 0.188936 0.276062
0.219994 0.00140206 0.27635
0.225291 0.0638634 0.273946
0.220037 0.126343 0.276212
0.225108 0.188842 0.273802
0.0324816 0.0016202 0.313596
0.0378596 0.0640306 0.311221
0.0324598 0.126469 0.313501
0.037613 0.188886 0.311046
0.100328 0.00151453 0.311227
0.095023 0.0639972 0.31358
0.100189 0.126494 0.311179
0.0945409 0.188952 0.313459
0.157497 0.00158464 0.313671
0.162745 0.0640287 0.31124
0.157358 0.126455 0.313475
0.162523 0.188948 0.311077
0.225329 0.00153887 0.311219
0.219971 0.0640272 0.313621
0.225158 0.126458 0.311175
0.219622 0.188911 0.313422
0.0376814 0.00158897 0.348459
0.0323256 0.06418 0.3509
0.037446 0.126533 0.348558
0.0318987 0.18902 0.350758
0.0948823 0.00160435 0.351033
0.100217 0.0640992 0.348517
0.0947079 0.126554 0.350829
0.0998916 0.188965 0.348412
0.162721 0.00156507 0.348511
0.157403 0.0641152 0.350893
0.16256 0.126555 0.348578
0.156915 0.189035 0.350802
0.219844 0.00162108 0.351017
0.225032 0.0640981 0.348517
0.219669 0.126622 0.350842
0.224983 0.189079 0.348417
0.0322781 0.00160929 0.388244
0.0375091 0.0641452 0.385839
0.0319962 0.126652 0.388195
0.037329 0.189139 0.385763
0.099983 0.0016564 0.385767
0.094695 0.0641123 0.388268
0.099837 0.126569 0.385833
0.0941204 0.189112 0.388165
0.157221 0.00158522 0.388221
0.162561 0.0640885 0.385855
0.157015 0.126567 0.388211
0.162224 0.189107 0.385689
0.225002 0.00165582 0.38583
0.219834 0.0641658 0.38819
0.224842 0.126582 0.385901
0.219294 0.189098 0.388107
0.0373653 0.00159955 0.423162
0.032085 0.0641916 0.425523
0.0371382 0.12667 0.423152
0.0316813 0.189218 0.425448
0.0946318 0.00169479 0.425646
0.0997575 0.064127 0.423198
0.0944749 0.126733 0.425542
0.0996718 0.189175 0.423038
0.162372 0.00165098 0.423276
0.157139 0.064219 0.425528
0.162167 0.126726 0.42312
0.156763 0.189241 0.425516
0.219665 0.00172406 0.425501
0.224825 0.0641506 0.423247
0.219582 0.126692 0.425535
0.224648 0.189274 0.423102
0.0320576 0.00181807 0.462901
0.0371243 0.0642953 0.460583
0.0321848 0.126951 0.462873
0.0371068 0.189396 0.460582
0.0999071 0.00181654 0.460647
0.0947644 0.0644359 0.462932
0.0995547 0.126833 0.46045
0.0944707 0.189411 0.462944
0.157012 0.00178467 0.462865
0.162302 0.0642768 0.460557
0.157165 0.126831 0.462921
0.162109 0.18934 0.460468
0.224907 0.00174425 0.460703
0.219684 0.0643424 0.462885
0.224491 0.126861 0.460543
0.219389 0.1894 0.462914
0.0369161 0.127065 0.498008
0.0654727 0.161052 0.498072
0.0995348 0.189397 0.497852
0.161877 0.127004 0.497943
0.224409 0.189372 0.498029
0.0327612 0.0344689 0.256434
0.0371419 0.0930078 0.256402
0.032594 0.159358 0.256354
0.0368572 0.218133 0.256292
0.0996568 0.0304246 0.256438
0.0951763 0.0968632 0.256426
0.0993482 0.155493 0.256377
0.0950969 0.22192 0.256312
0.157747 0.0343643 0.256448
0.162219 0.0930457 0.256424
0.157597 0.159389 0.256362
0.161741 0.218087 0.25626
0.224552 0.0303827 0.256483
0.220111 0.0968369 0.256411
0.224256 0.155506 0.256376
0.220074 0.221837 0.256307
0.0370071 0.0305523 0.293715
0.032619 0.097095 0.293713
0.0366595 0.155558 0.293683
0.032599 0.222029 0.29356
0.0951612 0.0345626 0.293768
0.0994856 0.0930908 0.293737
0.0951029 0.15943 0.293699
0.0990817 0.217852 0.293585
0.161938 0.0306113 0.293799
0.157561 0.0969101 0.293741
0.161615 0.155649 0.293685
0.157577 0.222021 0.293579
0.220219 0.0346327 0.293775
0.224437 0.0930491 0.293724
0.220006 0.159436 0.29368
0.223978 0.217952 0.293547
0.0327172 0.0347536 0.331079
0.0366667 0.0932993 0.331078
0.0325973 0.159511 0.331004
0.036279 0.217984 0.330847
0.0993084 0.0305923 0.331117
0.0950681 0.097197 0.331038
0.0990394 0.155642 0.33102
0.0950542 0.222225 0.330907
0.157587 0.0346415 0.331138
0.161882 0.0932699 0.331065
0.157481 0.159518 0.331025
0.161207 0.217905 0.330901
0.224383 0.0305397 0.331094
0.220008 0.0971842 0.331065
0.223905 0.155692 0.331011
0.220027 0.222113 0.330903
0.0367449 0.0306274 0.3684
0.032418 0.0972598 0.368364
0.0363687 0.155772 0.368325
0.0324683 0.222341 0.368222
0.0950057 0.0348827 0.368403
0.0992664 0.0932337 0.36836
0.0948864 0.159644 0.368372
0.0983728 0.217985 0.368243
0.161747 0.0306218 0.36839
0.157301 0.0971258 0.36839
0.161412 0.155706 0.368384
0.157483 0.222195 0.368235
0.220132 0.0347911 0.368396
0.2243 0.0933388 0.368362
0.2198 0.159665 0.368333
0.223384 0.218047 0.368243
0.0323682 0.0346813 0.405704
0.0364754 0.0932638 0.405713
0.0322207 0.159799 0.405628
0.0357581 0.218272 0.405584
0.0990691 0.030586 0.405724
0.094735 0.0972844 0.405722
0.098806 0.155641 0.405677
0.095004 0.222429 0.405569
0.157438 0.0346162 0.405715
0.161594 0.0933244 0.405704
0.157144 0.15985 0.405653
0.160768 0.218226 0.405554
0.224114 0.0307451 0.405671
0.219737 0.0971739 0.405695
0.223697 0.155778 0.405677
0.220099 0.2224 0.405568
0.0365327 0.0308257 0.44306
0.0321683 0.0972685 0.443055
0.0361346 0.15603 0.443024
0.0326499 0.222466 0.442968
0.09476 0.0348042 0.443102
0.0990017 0.0933449 0.442998
0.094694 0.159956 0.442966
0.0979231 0.218295 0.442952
0.161626 0.0308212 0.443065
0.15716 0.0973187 0.443004
0.161183 0.155845 0.442991
0.157544 0.222525 0.442943
0.21986 0.0347414 0.443114
0.223988 0.0933348 0.443015
0.219706 0.159967 0.443003
0.22298 0.218301 0.44296
0.032248 0.0347581 0.480487
0.0363651 0.0936844 0.480407
0.0323392 0.159941 0.480415
0.035178 0.218539 0.480393
0.0990566 0.0312032 0.480463
0.0947267 0.0975211 0.48045
0.098541 0.155928 0.480341
0.0953231 0.222658 0.480383
0.157106 0.0347999 0.480479
0.161409 0.0934603 0.480408
0.157271 0.15999 0.480358
0.160215 0.218357 0.480372
0.224062 0.0311082 0.480449
0.219558 0.0973994 0.480411
0.223707 0.156116 0.480378
0.220202 0.222536 0.480374
0.00376236 0.0303553 0.276393
0.00369311 0.0980601 0.273772
0.00359651 0.15533 0.276337
0.00349433 0.223162 0.273764
0.0662589 0.0356768 0.273842
0.0661981 0.0928675 0.276442
0.0660371 0.160453 0.273857
0.0659998 0.217767 0.276242
0.128675 0.0303069 0.276464
0.128692 0.0979566 0.273746
0.128543 0.155299 0.276336
0.128406 0.223191 0.27379
0.19115 0.0355994 0.273875
0.191189 0.0928805 0.27646
0.191017 0.160437 0.273857
0.190905 0.217827 0.276186
0.00367528 0.0359038 0.311146
0.00360941 0.0929286 0.313695
0.00342526 0.16065 0.31124
0.00332597 0.217654 0.313433
0.0661181 0.0304813 0.313729
0.0660796 0.0982057 0.311179
0.0659825 0.155323 0.313595
0.0658175 0.223248 0.311092
0.128548 0.0357159 0.311132
0.128587 0.0929372 0.313759
0.128461 0.160692 0.311212
0.128223 0.21769 0.313435
0.191133 0.0304966 0.313758
0.1911 0.0981515 0.311111
0.190909 0.155349 0.313583
0.190821 0.223196 0.311144
0.00356615 0.0305905 0.351069
0.00338633 0.0983409 0.348499
0.00332953 0.155506 0.350944
0.00319918 0.22338 0.348443
0.0660283 0.0358424 0.348509
0.0659255 0.0930404 0.35102
0.0658163 0.160699 0.348563
0.0656368 0.217755 0.350641
0.128539 0.0304526 0.351092
0.128437 0.0982408 0.348476
0.128311 0.155435 0.350962
0.128123 0.223403 0.348548
0.191086 0.0358075 0.348532
0.190949 0.0930981 0.351105
0.190746 0.160803 0.34855
0.190635 0.217698 0.350667
0.00342148 0.0358757 0.385869
0.00333355 0.0930877 0.388358
0.00313256 0.160857 0.385849
0.00301086 0.21779 0.387972
0.0659255 0.0305618 0.388361
0.0657642 0.0982579 0.385797
0.0656338 0.155408 0.38829
0.0654677 0.223529 0.385872
0.128414 0.0357931 0.385888
0.128272 0.0929818 0.388427
0.128137 0.160829 0.385872
0.127953 0.217726 0.387951
0.19091 0.0305033 0.388383
0.190806 0.0982758 0.385756
0.19065 0.155486 0.38831
0.190477 0.223472 0.385924
0.00335483 0.0305604 0.425707
0.0031107 0.0983011 0.423137
0.00305617 0.155507 0.425539
0.00295184 0.223532 0.423361
0.0658011 0.0358452 0.423205
0.0656303 0.093164 0.425738
0.0654976 0.160867 0.423239
0.0653876 0.21787 0.425233
0.128318 0.0306246 0.42573
0.128199 0.0983181 0.423163
0.128036 0.155636 0.425579
0.12791 0.223517 0.42331
0.190797 0.0358997 0.423143
0.190692 0.0932211 0.425763
0.19053 0.160871 0.42311
0.190391 0.21791 0.425198
0.00326132 0.0359723 0.460559
0.00316812 0.0935244 0.46311
0.00306948 0.160895 0.460654
0.00289787 0.218066 0.462489
0.0657499 0.0308384 0.463102
0.0656378 0.0983185 0.460534
0.0656172 0.155871 0.462901
0.0653961 0.223647 0.46088
0.12829 0.0359887 0.460528
0.128171 0.0934886 0.463051
0.128125 0.160916 0.46058
0.127954 0.218168 0.462489
0.190757 0.0307306 0.463132
0.190614 0.0982631 0.460514
0.19057 0.155877 0.462947
0.190378 0.223535 0.460809
0.190686 0.0359361 0.497975
0.0657473 0.0359996 0.498007
0.128173 0.0984491 0.497988
0.224446 0.0645258 0.498059
0.0371119 0.00196089 0.498165
0.0031647 0.098406 0.498007
0.190551 0.160789 0.498007
0.190394 0.218225 0.499818
0.0995094 0.0644848 0.498068
0.00291572 0.22343 0.4986
0.162269 0.0019386 0.498152
0.127979 0.223328 0.498587
0.0654152 0.21817 0.499781
0.0319389 0.189441 0.500235
0.157108 0.189358 0.500238
0.0322841 0.00232874 0.537503
0.0365473 0.064839 0.535943
0.032733 0.12688 0.53785
0.0365757 0.188838 0.535932
0.0992336 0.0023974 0.535953
0.0950419 0.0647704 0.53769
0.0990532 0.126914 0.535856
0.0951488 0.188792 0.537966
0.157141 0.00232548 0.537599
0.161571 0.064777 0.535945
0.157732 0.126817 0.537863
0.161572 0.188795 0.535928
0.224254 0.00237993 0.53588
0.219946 0.0646994 0.537666
0.223933 0.1269 0.535951
0.220156 0.188853 0.5379
0.0383751 0.00285913 0.573682
0.0309204 0.0650057 0.575163
0.0388046 0.126748 0.574055
0.0311791 0.188175 0.575853
0.0932282 0.00275697 0.574789
0.101026 0.0650166 0.573905
0.0936107 0.12667 0.575569
0.101343 0.188201 0.574109
0.16331 0.00282489 0.573725
0.155978 0.0650304 0.57527
0.163855 0.126797 0.573988
0.156223 0.188247 0.575802
0.218307 0.00282168 0.574841
0.226149 0.0650017 0.573882
0.218531 0.126681 0.575611
0.226224 0.188262 0.574201
0.0338172 0.00317703 0.613696
0.0345855 0.064962 0.613716
0.0340716 0.126321 0.614625
0.034829 0.187686 0.614082
0.033776 0.24955 0.614451
0.0972168 0.00317109 0.613207
0.0965217 0.0649398 0.614223
0.0971928 0.126373 0.613959
0.0964472 0.187733 0.614605
0.0973466 0.24946 0.613983
0.158615 0.00318365 0.613637
0.159681 0.0650829 0.613696
0.15922 0.126451 0.614649
0.159839 0.187831 0.614083
0.158782 0.249629 0.614473
0.222199 0.00324095 0.613164
0.221591 0.0650167 0.614251
0.222213 0.126463 0.614047
0.221591 0.187823 0.614646
0.222517 0.249521 0.613985
0.0343904 0.00243315 0.652901
0.0342784 0.0642126 0.653887
0.0344333 0.126065 0.654188
0.0341298 0.188017 0.654285
0.0968091 0.00244981 0.653025
0.0968908 0.0642364 0.65371
0.0966886 0.12612 0.654241
0.09686 0.188022 0.654196
0.159448 0.00246493 0.652779
0.159303 0.064328 0.653906
0.159423 0.126128 0.654155
0.159236 0.188119 0.654239
0.221754 0.00251182 0.653006
0.221989 0.0643206 0.653733
0.221821 0.126131 0.654307
0.221847 0.188085 0.654166
0.0342761 0.00107117 0.693558
0.0343208 0.0634781 0.694165
0.034407 0.125957 0.694542
0.0341866 0.188375 0.694482
0.0969621 0.00112317 0.693548
0.0967402 0.0635175 0.694248
0.0967335 0.125973 0.694497
0.0967811 0.188436 0.69453
0.159407 0.00111234 0.693555
0.159305 0.063554 0.69416
0.15926 0.125947 0.694565
0.159469 0.188426 0.694501
0.221941 0.00118283 0.693581
0.221931 0.063531 0.694331
0.221874 0.125975 0.6945
0.221624 0.188467 0.694501
0.0347237 8.05015e-04 0.734692
0.0345293 0.0631555 0.734858
0.034426 0.125793 0.735033
0.0343428 0.188457 0.735108
0.0969628 6.51562e-04 0.734734
0.0971064 0.0632337 0.734872
0.0969086 0.125825 0.734946
0.0968738 0.188492 0.735085
0.159744 6.2997e-04 0.734768
0.159512 0.0631958 0.734815
0.159608 0.125833 0.734951
0.159389 0.18844 0.734977
0.222145 7.14245e-04 0.734728
0.222114 0.063155 0.734891
0.222014 0.125852 0.735007
0.221978 0.188557 0.735007
0.0364416 0.0317786 0.517921
0.0323716 0.0974144 0.517866
0.0358092 0.156154 0.517884
0.0332907 0.222094 0.51799
0.0948187 0.0347787 0.517929
0.0987001 0.0939289 0.51788
0.0949464 0.159952 0.517865
0.0972388 0.218075 0.517964
0.161313 0.0316695 0.517945
0.157375 0.0974937 0.517889
0.160917 0.156067 0.517912
0.158283 0.222027 0.518
0.219765 0.0347682 0.517922
0.223663 0.0940416 0.51789
0.219862 0.159768 0.517888
0.222186 0.2182 0.517925
0.0326114 0.0347117 0.555755
0.0356059 0.0944357 0.555873
0.0331208 0.159068 0.555961
0.0340713 0.218034 0.556068
0.0982807 0.032269 0.555722
0.095185 0.0970611 0.55587
0.0976449 0.156153 0.555913
0.0964626 0.220998 0.556053
0.157439 0.0347068 0.555774
0.160646 0.0943713 0.555841
0.158054 0.159124 0.555948
0.158972 0.218094 0.556104
0.223248 0.0322875 0.555737
0.220266 0.0970038 0.555864
0.222543 0.156236 0.555943
0.221448 0.220875 0.556046
0.0354771 0.0337434 0.593748
0.0335318 0.0967818 0.594057
0.0346973 0.156289 0.594235
0.034772 0.21933 0.594303
0.095685 0.0351415 0.593767
0.0976785 0.0950554 0.594072
0.0967369 0.158093 0.594183
0.0963965 0.217813 0.594295
0.160449 0.033732 0.593807
0.158644 0.0968423 0.594088
0.1599 0.156285 0.594251
0.159902 0.21939 0.594282
0.220603 0.0352351 0.593778
0.222645 0.0952076 0.594068
0.22163 0.158062 0.59424
0.221433 0.217824 0.594336
0.0337379 0.034372 0.633017
0.0347044 0.0951993 0.633765
0.0344073 0.157181 0.633983
0.03412 0.218166 0.633614
0.097354 0.0337361 0.633008
0.0965242 0.0957197 0.633709
0.0968887 0.156709 0.633955
0.097056 0.218486 0.633654
0.159043 0.034455 0.633029
0.159739 0.0952996 0.633738
0.159505 0.157419 0.633987
0.159174 0.218222 0.633644
0.222272 0.0337962 0.633048
0.221638 0.095887 0.633724
0.221926 0.156852 0.633985
0.222034 0.21855 0.633631
0.0344488 0.0326314 0.673599
0.0341975 0.094999 0.674114
0.0342159 0.157037 0.67426
0.034143 0.219314 0.674089
0.0967418 0.0329947 0.673597
0.096881 0.0947567 0.674129
0.0969032 0.157155 0.674276
0.0968495 0.219082 0.674065
0.159263 0.0328131 0.673551
0.159308 0.0951133 0.674141
0.159221 0.156929 0.674289
0.159508 0.219359 0.674128
0.221803 0.0329965 0.673612
0.222013 0.0948311 0.674119
0.221922 0.157109 0.67425
0.221754 0.219279 0.674059
0.0344736 0.0319297 0.714356
0.0343971 0.0946837 0.714673
0.0343755 0.157128 0.71476
0.0342393 0.219719 0.714738
0.0970263 0.0320612 0.714366
0.0968399 0.0946351 0.714619
0.0967363 0.157376 0.714789
0.0966581 0.219725 0.714706
0.15941 0.0320289 0.714397
0.159519 0.0945948 0.714592
0.159392 0.157084 0.714754
0.159359 0.219723 0.714658
0.22197 0.0320649 0.714362
0.222102 0.0946439 0.714705
0.222026 0.157099 0.714744
0.221865 0.219944 0.714691
0.00317387 0.0311432 0.500549
0.0656626 0.093731 0.500435
0.128226 0.0310387 0.500492
0.190595 0.093783 0.500499
0.00311785 0.0360165 0.535733
0.00310491 0.094107 0.537926
0.00305818 0.159896 0.536136
0.00298458 0.217699 0.537265
0.0655904 0.0317985 0.537993
0.0655961 0.0981719 0.535943
0.0655687 0.15611 0.537762
0.0654721 0.221841 0.536787
0.128026 0.036146 0.535755
0.128085 0.094108 0.537961
0.128044 0.159865 0.536116
0.127934 0.217754 0.537278
0.190546 0.0316738 0.538024
0.190596 0.0980592 0.535925
0.1905 0.156193 0.537812
0.190434 0.221807 0.53686
0.00314984 0.0310292 0.575509
0.00317968 0.100299 0.573953
0.00317525 0.15349 0.575054
0.00315288 0.222107 0.575096
0.0656398 0.0386675 0.57353
0.0656755 0.0926561 0.575483
0.0657568 0.161355 0.574297
0.065618 0.214643 0.574602
0.128056 0.0309473 0.575521
0.128194 0.10028 0.573867
0.128204 0.153533 0.575152
0.128175 0.22217 0.575197
0.190557 0.0385398 0.57358
0.190674 0.0924909 0.575361
0.190707 0.161322 0.57435
0.190608 0.214715 0.574598
0.00288504 0.0350167 0.613158
0.00295231 0.0956038 0.614291
0.00304196 0.157153 0.614229
0.00305513 0.217701 0.613975
0.0654416 0.0342222 0.613926
0.0654919 0.0961268 0.613783
0.0655266 0.15657 0.614279
0.0655134 0.218623 0.614368
0.127963 0.0351048 0.613094
0.127993 0.0956619 0.614334
0.128101 0.157251 0.614144
0.128041 0.217778 0.613971
0.190445 0.034243 0.61394
0.190576 0.0962243 0.613811
0.190633 0.15676 0.614403
0.190507 0.218735 0.614342
0.00305842 0.0334746 0.653453
0.00307846 0.0953871 0.653971
0.00301436 0.156943 0.65419
0.00290949 0.218849 0.653851
0.0654984 0.0336753 0.653081
0.0655617 0.0952488 0.654115
0.0654964 0.157151 0.654207
0.0654738 0.218636 0.653799
0.128082 0.0336677 0.65334
0.128082 0.0953847 0.653913
0.128045 0.156958 0.654187
0.127993 0.218885 0.653906
0.190553 0.03376 0.653214
0.190603 0.0952409 0.654017
0.190538 0.157097 0.654244
0.190532 0.218791 0.653799
0.00306044 0.0323702 0.693953
0.00301329 0.0948209 0.694459
0.00301798 0.157022 0.694551
0.00292259 0.219501 0.694548
0.0655794 0.0323729 0.693991
0.065541 0.0946606 0.694391
0.0655273 0.157326 0.694598
0.0654398 0.21956 0.694351
0.128025 0.0324605 0.693949
0.12806 0.0947993 0.694471
0.128044 0.157179 0.694663
0.128022 0.219605 0.69444
0.19054 0.0324409 0.693915
0.190616 0.0947872 0.694437
0.190567 0.1571 0.694592
0.190513 0.219716 0.694501
0.00321078 0.0320543 0.734814
0.00317681 0.0944725 0.735102
0.00314118 0.157173 0.735126
0.00302701 0.219618 0.735178
0.0658066 0.0320882 0.734815
0.065727 0.0944645 0.735105
0.0656281 0.157104 0.73522
0.0655477 0.219723 0.735121
0.128268 0.0318647 0.73489
0.128253 0.0945541 0.734959
0.128225 0.157067 0.735132
0.128095 0.219649 0.734994
0.1908 0.0320227 0.734799
0.190773 0.0944812 0.735087
0.190794 0.157263 0.735159
0.190576 0.219844 0.73503
0.127978 0.156142 0.500271
0.00302668 0.156179 0.500307
0.093639 0.249943 0.575696
0.219743 0.127015 0.50014
0.094582 0.00194252 0.500105
0.0322388 0.0645447 0.500188
0.0384732 0.249939 0.574241
0.218567 0.249965 0.575762
0.0343064 0.249911 0.653643
0.09464 0.127086 0.500226
0.157258 0.0645308 0.500248
0.0966828 0.249914 0.653768
0.21964 0.00192046 0.500143
0.221689 0.249986 0.653752
0.0347443 7.85675e-04 0.776001
0.034483 0.0633 0.775897
0.0345191 0.12595 0.775897
0.0346484 0.188545 0.776046
0.0969463 8.93189e-04 0.775989
0.0970124 0.0633533 0.775798
0.0971129 0.125933 0.775926
0.0969299 0.188497 0.775892
0.159819 8.81866e-04 0.775922
0.159699 0.0633316 0.775817
0.159574 0.125904 0.775745
0.15973 0.188542 0.775834
0.222197 6.94258e-04 0.776167
0.222164 0.0633431 0.775812
0.222137 0.125964 0.775798
0.221995 0.188542 0.775908
0.0346571 8.82067e-04 0.81708
0.0347161 0.063506 0.816731
0.0347586 0.126052 0.816816
0.034822 0.188647 0.817004
0.0970918 9.29819e-04 0.817024
0.097158 0.063534 0.816807
0.0972909 0.12606 0.816766
0.0972186 0.188554 0.817051
0.159575 9.83864e-04 0.817132
0.15975 0.063485 0.816755
0.15977 0.126099 0.816696
0.159834 0.18864 0.816891
0.221893 9.88915e-04 0.817048
0.222133 0.063552 0.816797
0.222244 0.126124 0.81664
0.222337 0.188689 0.816927
0.0346107 0.0010349 0.857736
0.0346697 0.0635734 0.857457
0.0346684 0.126062 0.857223
0.0348757 0.188518 0.857634
0.0970752 9.75511e-04 0.857649
0.0971681 0.0635467 0.857297
0.0972426 0.126033 0.857327
0.0973194 0.188538 0.857514
0.159556 8.94357e-04 0.857739
0.159626 0.0635252 0.857358
0.159768 0.126072 0.857239
0.159785 0.18859 0.857545
0.22189 9.99521e-04 0.857626
0.222172 0.0635771 0.857368
0.222133 0.125991 0.857219
0.222169 0.188564 0.857456
0.0346075 0.0013834 0.898016
0.034742 0.063853 0.897574
0.034796 0.126013 0.897565
0.0349335 0.188068 0.898019
0.0972422 0.00139296 0.898063
0.0971337 0.0637464 0.897596
0.097387 0.125993 0.89754
0.0973959 0.188115 0.897967
0.159715 0.00140218 0.89802
0.159813 0.0638136 0.897624
0.159795 0.126024 0.897553
0.159887 0.188182 0.897902
0.222187 0.00148051 0.898059
0.222221 0.0637733 0.897632
0.222292 0.12605 0.897601
0.222385 0.188194 0.897884
0.035266 0.00169091 0.937435
0.0349597 0.0638577 0.936999
0.0349492 0.12578 0.937408
0.0353394 0.187783 0.937406
0.0973765 0.00168216 0.937222
0.0976076 0.0638135 0.937292
0.097606 0.125745 0.937032
0.0973205 0.187709 0.937716
0.160261 0.00167924 0.937415
0.159945 0.0638486 0.937062
0.159909 0.12586 0.937334
0.160259 0.187837 0.937349
0.22232 0.00169761 0.93724
0.222439 0.0638737 0.93737
0.222494 0.125787 0.937065
0.222248 0.18783 0.937609
0.0354097 0.00132189 0.975902
0.0351486 0.063492 0.976499
0.0354709 0.12561 0.975835
0.0348088 0.187743 0.976781
0.097593 0.00126998 0.97674
0.0977204 0.063551 0.975711
0.0974284 0.125558 0.97669
0.0979904 0.187689 0.975996
0.160292 0.00128179 0.975977
0.160105 0.0635123 0.976527
0.160402 0.125631 0.975795
0.159701 0.18779 0.976918
0.222591 0.00139756 0.976833
0.2227 0.0636072 0.975761
0.222432 0.125664 0.976585
0.223013 0.187822 0.975957
0.0361528 0.0314512 0.994672
0.0340372 0.0955167 0.994823
0.0363198 0.155459 0.994973
0.0337308 0.219366 0.995079
0.0967808 0.0337692 0.994736
0.0989211 0.0932461 0.994834
0.0964898 0.157553 0.994932
0.0992592 0.217377 0.9951
0.16107 0.0315862 0.994648
0.15895 0.0957004 0.994858
0.161375 0.155487 0.994933
0.158686 0.219637 0.995049
0.221572 0.0338929 0.994728
0.223856 0.0933795 0.99484
0.221543 0.157666 0.994966
0.224072 0.217412 0.995077
0.0345062 0.0319572 0.755527
0.0345979 0.0945068 0.755528
0.0345237 0.157286 0.755614
0.0344131 0.219914 0.755686
0.0969187 0.0320143 0.755488
0.0971905 0.094606 0.755496
0.0969392 0.157191 0.755528
0.0967701 0.219851 0.755579
0.159658 0.0320404 0.755426
0.159502 0.0943912 0.755419
0.159553 0.157261 0.755488
0.159318 0.219813 0.755498
0.222125 0.0318445 0.755566
0.221949 0.094487 0.755414
0.222019 0.157272 0.755461
0.221873 0.219884 0.755491
0.0345157 0.0320265 0.796557
0.0347458 0.0948059 0.796439
0.0347963 0.157418 0.796549
0.034803 0.220028 0.796802
0.0973387 0.0324172 0.796542
0.0971035 0.0946494 0.796433
0.097246 0.15759 0.796552
0.097321 0.219722 0.796772
0.159584 0.032126 0.79653
0.15972 0.0946919 0.796408
0.159692 0.157432 0.796417
0.159634 0.219834 0.796673
0.22214 0.0320553 0.796548
0.221977 0.0946555 0.796356
0.222164 0.157604 0.796426
0.22232 0.219886 0.796579
0.0345993 0.0322404 0.837298
0.0345989 0.0946217 0.837141
0.0347496 0.157645 0.837218
0.0348681 0.219988 0.837669
0.0971779 0.0322475 0.837236
0.0972199 0.0949462 0.837087
0.0972729 0.157302 0.837147
0.0974761 0.220227 0.837611
0.159519 0.0320766 0.837307
0.159543 0.0946306 0.837096
0.159781 0.15745 0.837146
0.159669 0.220061 0.837598
0.221838 0.0323464 0.837262
0.222204 0.0948312 0.837004
0.222239 0.157346 0.837132
0.222363 0.220197 0.83751
0.034647 0.0323749 0.877691
0.0347145 0.0949288 0.877336
0.0347755 0.157313 0.877546
0.0347292 0.219544 0.878115
0.0971255 0.0322794 0.877634
0.0969944 0.0948556 0.87734
0.0973443 0.157296 0.877495
0.0972617 0.219568 0.87812
0.159499 0.0322644 0.87762
0.159811 0.0948456 0.87734
0.159818 0.157359 0.877441
0.159919 0.219713 0.878052
0.222148 0.0324129 0.877582
0.221956 0.0949273 0.877347
0.222326 0.157423 0.877421
0.222334 0.219767 0.878041
0.0349143 0.032404 0.91727
0.0345183 0.0951321 0.917118
0.0351874 0.156673 0.917341
0.0345274 0.219253 0.917823
0.0971364 0.032769 0.917328
0.0975358 0.0946181 0.917117
0.0970026 0.157156 0.917368
0.0978288 0.218945 0.917825
0.160063 0.0323509 0.917323
0.159551 0.0951456 0.917147
0.160258 0.15676 0.917325
0.159574 0.219374 0.917832
0.221966 0.0329176 0.917373
0.222531 0.094418 0.917159
0.221836 0.157177 0.917334
0.222866 0.21898 0.917783
0.0346331 0.0328283 0.956204
0.0355425 0.0941268 0.956225
0.0344463 0.157201 0.956346
0.0359377 0.218781 0.956758
0.0980336 0.0318902 0.956222
0.0969785 0.0950556 0.956185
0.0981317 0.156177 0.956399
0.0969584 0.219631 0.95676
0.159549 0.0328107 0.956269
0.160531 0.0942304 0.956222
0.15946 0.157281 0.956435
0.160872 0.218751 0.956813
0.223017 0.0320123 0.956289
0.221911 0.0949804 0.956221
0.223069 0.156367 0.956372
0.221882 0.21986 0.956761
0.00331282 0.0320119 0.77597
0.00327142 0.0946664 0.775984
0.00331846 0.157379 0.776074
0.00326848 0.219843 0.7762
0.0658044 0.0321195 0.77603
0.0657585 0.0946484 0.775905
0.0658374 0.157201 0.776017
0.0658194 0.219854 0.776085
0.128347 0.0319964 0.775877
0.128331 0.0946148 0.775931
0.128323 0.157321 0.77597
0.128275 0.219576 0.776032
0.190885 0.032072 0.77598
0.190786 0.0946146 0.775834
0.190853 0.157249 0.775964
0.190791 0.219955 0.775959
0.00341771 0.0320975 0.816948
0.00346287 0.0947821 0.816824
0.00351036 0.157495 0.816938
0.00357926 0.220112 0.817178
0.0659044 0.0321188 0.816896
0.0659809 0.0947832 0.816793
0.0659968 0.157395 0.816958
0.0661271 0.219951 0.817217
0.128409 0.0320918 0.81695
0.128445 0.0946964 0.816776
0.128551 0.157399 0.816896
0.128561 0.219977 0.817158
0.190807 0.032231 0.816921
0.190973 0.094818 0.816827
0.19105 0.157524 0.816843
0.191056 0.219907 0.817027
0.00335879 0.032155 0.857537
0.00336743 0.0947702 0.857375
0.00351713 0.157384 0.857485
0.00362618 0.21988 0.857948
0.0658602 0.0321912 0.857584
0.0659001 0.0948618 0.857332
0.0660492 0.157356 0.857415
0.0661437 0.21989 0.857965
0.128284 0.0322704 0.85761
0.128413 0.0948098 0.85741
0.128535 0.157396 0.857427
0.1286 0.219939 0.857992
0.1908 0.032271 0.857603
0.190955 0.0947607 0.857276
0.190978 0.157335 0.857389
0.191065 0.21998 0.857888
0.00344268 0.0324969 0.897886
0.00344164 0.0948039 0.897496
0.0035055 0.157043 0.897765
0.00360679 0.219337 0.898322
0.0659355 0.0323606 0.897782
0.0660539 0.0948345 0.897587
0.0661504 0.157103 0.897707
0.0661113 0.219397 0.898416
0.128437 0.0325062 0.897836
0.128479 0.094781 0.897488
0.128582 0.157159 0.897722
0.128652 0.219395 0.898271
0.190925 0.0325488 0.897718
0.190978 0.094809 0.897603
0.191063 0.157161 0.897648
0.19111 0.219494 0.898345
0.00368496 0.032385 0.937051
0.00363124 0.0946678 0.937335
0.00367223 0.157003 0.937077
0.00377619 0.218806 0.937951
0.066118 0.0326274 0.937326
0.0660687 0.0946597 0.936856
0.0662007 0.156726 0.937559
0.0662746 0.21958 0.937428
0.128658 0.0322922 0.937018
0.128627 0.0946635 0.937221
0.128677 0.157073 0.937078
0.128779 0.218794 0.938053
0.191094 0.032604 0.937415
0.191048 0.0946405 0.936923
0.191143 0.156755 0.93759
0.191247 0.219562 0.937437
0.00398864 0.0320941 0.976309
0.00393253 0.0945944 0.975629
0.00396197 0.156491 0.976701
0.00390738 0.219777 0.975851
0.066482 0.0321676 0.975642
0.0664723 0.0943957 0.976524
0.0663653 0.157055 0.975808
0.0664286 0.218732 0.977082
0.128906 0.0320316 0.97635
0.128901 0.0946471 0.975633
0.128901 0.156472 0.976718
0.128864 0.219913 0.975781
0.191385 0.0322578 0.975659
0.19135 0.0944362 0.97654
0.191411 0.157168 0.97577
0.191373 0.218718 0.977034
0.0982227 0.249989 0.937815
0.0347215 0.24997 0.938108
0.03329 0.25067 0.014638
0.0380517 0.313523 0.0129015
0.0323692 0.376705 0.0139933
0.0374607 0.439619 0.0119603
0.100371 0.250536 0.0129636
0.0954696 0.313535 0.01471
0.10041 0.376617 0.0123877
0.0945228 0.439643 0.013469
0.158281 0.250657 0.01466
0.16305 0.313532 0.0129204
0.157294 0.376696 0.0139297
0.162317 0.439609 0.0120741
0.22536 0.250579 0.0128876
0.220424 0.313472 0.0147208
0.225476 0.376596 0.0123755
0.219517 0.439695 0.0135538
0.0383085 0.251008 0.0500501
0.0325643 0.313645 0.0521037
0.0381182 0.376475 0.0496939
0.0319711 0.439302 0.0511985
0.0953049 0.251086 0.0523139
0.100904 0.313666 0.0499087
0.094437 0.376429 0.0516576
0.0999903 0.439313 0.0493283
0.163246 0.250956 0.0501378
0.157601 0.3137 0.0521153
0.163035 0.376437 0.0497345
0.156969 0.439247 0.0512261
0.220402 0.251042 0.0523442
0.2258 0.313655 0.0498365
0.219647 0.376486 0.051744
0.224968 0.439289 0.0492722
0.0328411 0.25115 0.089686
0.0383247 0.313744 0.0872472
0.0321325 0.376503 0.0891738
0.0375079 0.439145 0.0865068
0.100722 0.251174 0.0873442
0.0949778 0.313748 0.0896795
0.100395 0.376385 0.0869537
0.0944734 0.4391 0.0886226
0.157647 0.251129 0.0897349
0.163319 0.313712 0.0872998
0.157126 0.376479 0.0891263
0.162371 0.43919 0.0865331
0.225763 0.251192 0.0872811
0.219937 0.313712 0.0897531
0.22534 0.376411 0.0869611
0.219426 0.439155 0.0887136
0.0380314 0.251286 0.124528
0.0322839 0.313812 0.127025
0.0377197 0.376444 0.124245
0.0318445 0.439074 0.126098
0.0950745 0.251241 0.127021
0.100625 0.313779 0.124556
0.0943587 0.376504 0.126521
0.0999242 0.439117 0.123885
0.162831 0.251211 0.124523
0.157362 0.313795 0.127078
0.162754 0.376381 0.124218
0.15687 0.439104 0.126091
0.220058 0.251196 0.126947
0.225612 0.313825 0.124538
0.219495 0.376459 0.126517
0.224806 0.439187 0.123786
0.0324329 0.251367 0.164304
0.0378982 0.31386 0.161802
0.031663 0.376519 0.16393
0.0371844 0.439123 0.161058
0.100213 0.251284 0.161776
0.0946313 0.313875 0.164361
0.100157 0.376499 0.161576
0.0942271 0.439109 0.163446
0.157379 0.25134 0.164324
0.162867 0.313873 0.161698
0.156742 0.376533 0.163906
0.162249 0.43911 0.161133
0.225343 0.251297 0.161769
0.219662 0.313904 0.164324
0.225166 0.376473 0.161516
0.21919 0.439161 0.163395
0.0376444 0.251377 0.199138
0.0320941 0.313954 0.201676
0.0374345 0.376535 0.198873
0.031748 0.439195 0.200848
0.0947137 0.251407 0.201514
0.100339 0.313945 0.199045
0.0942788 0.376569 0.201215
0.0996639 0.439191 0.198423
0.162743 0.251452 0.199075
0.157108 0.313912 0.201648
0.162564 0.376488 0.198855
0.156638 0.43922 0.200832
0.219759 0.251355 0.201549
0.225403 0.313931 0.199097
0.219192 0.376632 0.201244
0.224627 0.439194 0.19838
0.0320567 0.251479 0.238771
0.0376742 0.314055 0.236326
0.0316078 0.376705 0.238498
0.0370951 0.439267 0.235682
0.100122 0.251465 0.236375
0.0945248 0.314069 0.238951
0.0999806 0.376627 0.23609
0.0940118 0.439148 0.238134
0.157065 0.251491 0.238704
0.162808 0.314046 0.236283
0.156593 0.376663 0.238427
0.162177 0.439165 0.235713
0.225143 0.251442 0.236367
0.219563 0.313973 0.238927
0.224898 0.376531 0.236079
0.219013 0.43915 0.23815
0.0334204 0.283727 0.0324086
0.0349175 0.343443 0.0324189
0.0368065 0.409435 0.0314518
0.03267 0.469213 0.0313874
0.0994588 0.280202 0.0324755
0.0974574 0.346715 0.0323933
0.0955192 0.406378 0.0314059
0.0994737 0.472075 0.0313799
0.15848 0.283714 0.0324414
0.15988 0.343549 0.0324269
0.161727 0.409349 0.0314373
0.157619 0.469212 0.0314078
0.224495 0.280133 0.0324946
0.222579 0.346794 0.032413
0.220313 0.406349 0.0314189
0.224227 0.472267 0.031385
0.0367175 0.280313 0.0697841
0.0351067 0.346952 0.06979
0.0328227 0.40597 0.0688117
0.0371858 0.472063 0.0688195
0.0960154 0.284366 0.0698127
0.0970262 0.342891 0.069819
0.0994461 0.409359 0.0687835
0.0949194 0.468733 0.0688086
0.161861 0.280386 0.0697961
0.160226 0.346843 0.0698093
0.157667 0.406005 0.0688201
0.16201 0.472125 0.0687901
0.22093 0.284347 0.0698092
0.221942 0.342897 0.0698594
0.224345 0.409555 0.0688007
0.219932 0.468565 0.0688015
0.0332833 0.284402 0.107055
0.0344153 0.342939 0.107146
0.0368189 0.409642 0.106163
0.0325199 0.468309 0.106203
0.0992013 0.280399 0.107104
0.0977616 0.347069 0.107154
0.0950927 0.405813 0.106183
0.0996396 0.472033 0.106166
0.158271 0.284449 0.107123
0.159252 0.343082 0.107172
0.16188 0.409609 0.106167
0.15753 0.468337 0.106195
0.22425 0.280282 0.107093
0.222825 0.347058 0.107112
0.220125 0.40581 0.106147
0.22445 0.47218 0.106168
0.0365985 0.28032 0.144392
0.0351776 0.347224 0.144434
0.0325866 0.405637 0.143525
0.0369687 0.472172 0.143546
0.0955896 0.284565 0.144372
0.0964596 0.343048 0.144476
0.0991218 0.409603 0.143488
0.0949943 0.46828 0.14354
0.161557 0.280272 0.144375
0.160162 0.347267 0.144397
0.157563 0.405725 0.143528
0.161955 0.472135 0.14354
0.220656 0.284599 0.144378
0.221493 0.343094 0.144447
0.224218 0.409698 0.143476
0.220001 0.468301 0.143541
0.0330091 0.284579 0.181656
0.0337439 0.343037 0.181744
0.0366095 0.409805 0.180819
0.032409 0.468105 0.180869
0.0989613 0.280339 0.181656
0.0977371 0.347279 0.181697
0.0948673 0.405752 0.180839
0.099252 0.472259 0.180848
0.158043 0.284763 0.181645
0.158799 0.342969 0.181759
0.1617 0.409742 0.180833
0.157382 0.468149 0.180871
0.223948 0.280337 0.181638
0.222753 0.347358 0.181722
0.219788 0.405739 0.180831
0.224301 0.472364 0.180841
0.0362202 0.280434 0.218934
0.0354675 0.347362 0.21897
0.0322674 0.405817 0.218137
0.0366689 0.472445 0.218168
0.095411 0.284789 0.218936
0.0960398 0.343072 0.219021
0.0991611 0.409896 0.218135
0.0950229 0.468279 0.218204
0.161313 0.280408 0.218916
0.160354 0.347306 0.218966
0.15727 0.405724 0.218169
0.16167 0.472298 0.218178
0.220395 0.284683 0.218948
0.221014 0.342996 0.219038
0.224196 0.409908 0.218157
0.219866 0.4682 0.218211
0.00402281 0.285071 0.0127848
0.00391889 0.342786 0.0139946
0.00369325 0.411129 0.013735
0.00353142 0.468817 0.0113165
0.0666122 0.280236 0.0149828
0.0663769 0.348094 0.0137929
0.0662073 0.405559 0.0115323
0.0660257 0.473811 0.0137279
0.129006 0.284913 0.0128916
0.128925 0.342783 0.0140186
0.128682 0.411052 0.0136451
0.128519 0.468732 0.0113065
0.191574 0.280216 0.0149576
0.191345 0.348054 0.0138956
0.191212 0.405502 0.0115446
0.190919 0.473764 0.0137135
0.00409498 0.279973 0.052213
0.00383219 0.348259 0.0513363
0.00367738 0.405009 0.0488387
0.00353375 0.473617 0.0514148
0.0665075 0.285543 0.050138
0.066319 0.342287 0.0511624
0.0661398 0.410982 0.0511723
0.0660129 0.468315 0.0486491
0.129089 0.279941 0.0522092
0.128783 0.348311 0.0513503
0.128624 0.405008 0.0487378
0.128512 0.473582 0.0514032
0.191521 0.285453 0.0501147
0.191358 0.342314 0.0511017
0.191106 0.410972 0.0512298
0.190931 0.468312 0.0487131
0.00395029 0.285516 0.0874996
0.0037943 0.34231 0.0884226
0.00355837 0.410861 0.0885426
0.00351592 0.468123 0.0859995
0.0664781 0.279951 0.0894724
0.0662353 0.348288 0.0887864
0.0660771 0.40509 0.0861245
0.0659967 0.473494 0.088829
0.128968 0.285649 0.0874764
0.128764 0.342359 0.0883938
0.128545 0.410782 0.0886092
0.128514 0.468106 0.0860996
0.191414 0.279949 0.0895351
0.19123 0.348207 0.0888789
0.191064 0.405169 0.0861006
0.190943 0.473412 0.0888354
0.00377037 0.280106 0.12688
0.00355097 0.34832 0.126153
0.00337309 0.405069 0.123475
0.0035134 0.473363 0.126127
0.0662195 0.285654 0.124666
0.0660547 0.342302 0.125583
0.0659066 0.41089 0.125897
0.0659338 0.468059 0.123489
0.12868 0.280077 0.126807
0.128543 0.348298 0.126254
0.128448 0.405061 0.123482
0.128469 0.473383 0.126167
0.191259 0.285534 0.124783
0.191094 0.342385 0.125604
0.190932 0.410815 0.125959
0.190953 0.468181 0.123465
0.00353624 0.285781 0.161999
0.00342445 0.342366 0.162769
0.00328302 0.410844 0.163249
0.00335225 0.468055 0.160819
0.0660503 0.280103 0.164103
0.0658711 0.348324 0.163589
0.0657705 0.405007 0.160822
0.065908 0.473344 0.163444
0.128539 0.285623 0.162006
0.128461 0.342379 0.162838
0.128314 0.410859 0.163266
0.128426 0.468118 0.160861
0.191107 0.280035 0.164068
0.190897 0.348282 0.163587
0.190868 0.405059 0.160794
0.190896 0.47342 0.163457
0.00346802 0.280131 0.20129
0.00329107 0.348352 0.200917
0.00321542 0.405217 0.19808
0.00331023 0.47351 0.200708
0.0659653 0.285778 0.199273
0.0658768 0.342426 0.199949
0.0657708 0.410821 0.200637
0.0658381 0.468061 0.198174
0.128487 0.280142 0.201334
0.128307 0.348456 0.200944
0.12824 0.405123 0.198083
0.128317 0.47347 0.200744
0.19102 0.285768 0.199244
0.190875 0.34248 0.199947
0.190718 0.410894 0.200675
0.190773 0.468106 0.198179
0.00335287 0.28588 0.236607
0.00330415 0.342566 0.237091
0.00318984 0.410975 0.237965
0.00322846 0.46797 0.235551
0.0658782 0.280233 0.238612
0.0657942 0.348467 0.238314
0.0656493 0.405206 0.235416
0.0657438 0.473482 0.238049
0.128366 0.285796 0.236568
0.128278 0.342515 0.237107
0.128173 0.411034 0.23789
0.128251 0.468045 0.235606
0.190879 0.280153 0.238574
0.190777 0.348409 0.238311
0.190728 0.405052 0.235437
0.190767 0.473407 0.238055
0.0376214 0.25148 0.273641
0.0319998 0.313945 0.276207
0.0372827 0.37651 0.273317
0.0315346 0.439108 0.275466
0.0946671 0.251466 0.276123
0.100126 0.313933 0.273548
0.094141 0.376506 0.275795
0.0995281 0.439069 0.273047
0.162481 0.251459 0.273576
0.156911 0.313938 0.276244
0.162277 0.376467 0.273347
0.156582 0.439086 0.275414
0.219624 0.251447 0.276092
0.22517 0.313859 0.273599
0.219181 0.376511 0.275829
0.224449 0.439071 0.273015
0.0320428 0.251405 0.313436
0.0375413 0.313843 0.310895
0.0316544 0.376385 0.313028
0.0367885 0.438936 0.310335
0.100093 0.251395 0.310833
0.0944145 0.313828 0.313571
0.0996412 0.376305 0.310685
0.0940964 0.438912 0.312742
0.156939 0.251373 0.313438
0.162478 0.313745 0.310836
0.156787 0.376346 0.313138
0.16181 0.438926 0.310315
0.224971 0.251393 0.310847
0.2195 0.313749 0.313546
0.224645 0.376279 0.310677
0.219097 0.438932 0.31268
0.0374362 0.251509 0.348173
0.0317248 0.313878 0.35086
0.0371379 0.376366 0.348107
0.031332 0.438916 0.349927
0.0942481 0.251441 0.350805
0.0999377 0.313798 0.348255
0.0940883 0.376399 0.350303
0.0991897 0.438883 0.347639
0.162523 0.251455 0.348227
0.15666 0.313784 0.350838
0.162098 0.376267 0.348019
0.156316 0.438883 0.349926
0.219245 0.251459 0.350811
0.225039 0.313867 0.348245
0.219015 0.376387 0.350337
0.224308 0.438908 0.347677
0.0316537 0.251602 0.388133
0.0373553 0.313948 0.385716
0.0313869 0.376498 0.387783
0.0368205 0.438916 0.384963
0.0998125 0.251584 0.385598
0.094081 0.314017 0.388244
0.0996121 0.376341 0.38543
0.0936682 0.438931 0.387271
0.156515 0.251565 0.388163
0.162309 0.313914 0.385627
0.156415 0.376409 0.38773
0.161745 0.438915 0.384924
0.224843 0.251576 0.385644
0.219143 0.313921 0.388209
0.224551 0.376294 0.385376
0.218646 0.438845 0.3872
0.0372878 0.251695 0.423049
0.031693 0.314011 0.425579
0.0370721 0.376363 0.422826
0.0311376 0.438753 0.424681
0.0940873 0.251632 0.425577
0.099732 0.314009 0.423214
0.0938059 0.376471 0.425089
0.0989881 0.438836 0.422255
0.162238 0.251718 0.423052
0.156546 0.313964 0.42563
0.16189 0.376311 0.422807
0.156062 0.438752 0.42463
0.219051 0.251617 0.42552
0.224874 0.313971 0.423203
0.218853 0.376358 0.425078
0.224119 0.438788 0.422317
0.0316418 0.251773 0.46295
0.0373301 0.314094 0.460823
0.0313025 0.376427 0.462459
0.036582 0.438665 0.459693
0.0998475 0.251797 0.460559
0.0940564 0.313992 0.462993
0.0994988 0.376337 0.460372
0.0936358 0.438714 0.461913
0.156745 0.251794 0.463043
0.162359 0.314048 0.460754
0.156292 0.376388 0.462521
0.161504 0.438717 0.459742
0.224755 0.251813 0.460496
0.219042 0.314023 0.463015
0.224467 0.376305 0.460436
0.218511 0.438663 0.461838
0.0371185 0.251719 0.49809
0.0368293 0.376257 0.498022
0.0990934 0.438595 0.497486
0.162097 0.251657 0.498086
0.161875 0.376209 0.49806
0.224056 0.438576 0.497494
0.0329162 0.284817 0.256216
0.0333322 0.34302 0.256308
0.0365047 0.40991 0.255434
0.0325086 0.468131 0.255558
0.0986024 0.280394 0.256155
0.0980103 0.347385 0.256231
0.0947923 0.405681 0.25547
0.0990394 0.472171 0.255512
0.15802 0.284917 0.256164
0.158205 0.342937 0.256297
0.161498 0.409807 0.255429
0.157483 0.468205 0.25552
0.223505 0.280352 0.256177
0.222874 0.347435 0.256271
0.219821 0.405663 0.25547
0.224033 0.472242 0.255519
0.0359309 0.280448 0.293472
0.0354283 0.34727 0.293555
0.0322498 0.405545 0.292702
0.0365269 0.472192 0.292834
0.0954806 0.284836 0.293451
0.0957248 0.342761 0.293611
0.0989818 0.409678 0.292737
0.0948432 0.468032 0.292815
0.160712 0.280268 0.293441
0.160345 0.347241 0.293581
0.157244 0.40557 0.292753
0.161443 0.472174 0.292805
0.22054 0.284851 0.293494
0.220803 0.342825 0.293617
0.22391 0.40956 0.292731
0.219872 0.468098 0.292815
0.0331412 0.284883 0.330784
0.0329575 0.342954 0.33097
0.0365191 0.40941 0.330042
0.032226 0.467919 0.330109
0.0978262 0.280285 0.330813
0.0979431 0.347108 0.330923
0.0946083 0.405492 0.330039
0.0989486 0.471933 0.330096
0.158069 0.284744 0.330737
0.158067 0.342711 0.33096
0.161512 0.409487 0.330081
0.157189 0.46789 0.330069
0.222736 0.280311 0.330816
0.22297 0.347095 0.330923
0.219627 0.405599 0.330047
0.223935 0.471924 0.330055
0.0350198 0.280503 0.368148
0.0355807 0.34715 0.368303
0.0320521 0.405736 0.367415
0.0364179 0.471874 0.36739
0.0958323 0.284907 0.368166
0.0952694 0.342938 0.368309
0.0990345 0.409406 0.3674
0.094701 0.468012 0.36738
0.159918 0.280366 0.368167
0.160557 0.34714 0.368279
0.157012 0.405529 0.367368
0.161342 0.4719 0.367344
0.220782 0.284823 0.368133
0.22029 0.342878 0.368312
0.224052 0.409303 0.367366
0.219788 0.468062 0.367424
0.0334121 0.284884 0.405536
0.0325745 0.343048 0.405716
0.0365165 0.40951 0.404772
0.0321809 0.467799 0.404731
0.0971371 0.280575 0.405558
0.0982333 0.347167 0.405691
0.0944052 0.40559 0.404737
0.0988425 0.471904 0.404714
0.158452 0.285057 0.405522
0.157491 0.342955 0.405721
0.161557 0.409446 0.404778
0.157262 0.467945 0.404708
0.221994 0.280659 0.405553
0.223078 0.347109 0.405722
0.219269 0.405512 0.404717
0.223773 0.471752 0.404725
0.0340378 0.280893 0.443001
0.0361114 0.346882 0.443192
0.0318084 0.405623 0.442129
0.0361487 0.471719 0.442106
0.0963311 0.284831 0.442995
0.0946031 0.343154 0.443223
0.0990886 0.409319 0.44218
0.0947384 0.467905 0.442069
0.159044 0.280865 0.443007
0.16115 0.347044 0.443184
0.156704 0.405535 0.442174
0.161146 0.471634 0.442086
0.221205 0.284971 0.44297
0.219618 0.343142 0.443211
0.224059 0.409202 0.442147
0.219694 0.467841 0.442077
0.0344671 0.284793 0.480483
0.0320493 0.343367 0.480749
0.0363405 0.409189 0.479649
0.03234 0.467578 0.479592
0.0960369 0.281 0.480562
0.0989504 0.34672 0.480753
0.094303 0.40572 0.479605
0.0984285 0.471405 0.479562
0.159522 0.284933 0.480476
0.157029 0.343231 0.480768
0.161347 0.409218 0.479677
0.157288 0.467678 0.479575
0.221034 0.280839 0.480586
0.223839 0.346709 0.480727
0.219212 0.405746 0.479677
0.223527 0.47124 0.479539
0.00331334 0.280127 0.275748
0.00323613 0.348315 0.2756
0.00306159 0.405204 0.272697
0.00315955 0.47325 0.275345
0.0657895 0.28576 0.27389
0.0657866 0.34248 0.274334
0.0655902 0.410759 0.275205
0.0656191 0.468001 0.272889
0.12828 0.280204 0.27572
0.128177 0.348288 0.275681
0.128161 0.405122 0.272679
0.128128 0.473335 0.275338
0.190744 0.285753 0.274029
0.19073 0.342454 0.274354
0.1906 0.410711 0.275184
0.190639 0.467935 0.272904
0.00323398 0.285653 0.311349
0.00317068 0.342377 0.311706
0.00306106 0.410631 0.312535
0.00311051 0.468 0.310114
0.0656876 0.280065 0.312872
0.0655806 0.34802 0.31307
0.0655828 0.405117 0.309968
0.0655438 0.473099 0.312685
0.128133 0.285663 0.31134
0.128186 0.342331 0.311689
0.128067 0.410434 0.312621
0.128078 0.467886 0.310109
0.190653 0.280019 0.312907
0.190614 0.347925 0.313021
0.190551 0.405096 0.31005
0.190594 0.472959 0.312642
0.00305434 0.280087 0.350111
0.00304533 0.348129 0.35047
0.003008 0.40498 0.347265
0.00297054 0.473248 0.349961
0.0655472 0.285895 0.348846
0.0655174 0.342394 0.348931
0.0654786 0.410566 0.349894
0.0654724 0.467905 0.347456
0.128117 0.279896 0.350099
0.128044 0.348122 0.350424
0.12802 0.405032 0.347279
0.127981 0.473122 0.349942
0.190535 0.285883 0.348892
0.190568 0.342235 0.348942
0.190485 0.410655 0.34994
0.190541 0.467768 0.347428
0.0029283 0.285921 0.386337
0.00297519 0.342377 0.386207
0.00291484 0.410769 0.387322
0.00292594 0.467754 0.38478
0.065432 0.280287 0.387375
0.0654523 0.348211 0.387887
0.0654399 0.40504 0.384687
0.0654392 0.473202 0.387258
0.1279 0.285921 0.386425
0.128012 0.342321 0.386173
0.127938 0.410764 0.387306
0.127969 0.467749 0.384782
0.190386 0.280093 0.387286
0.190445 0.348185 0.387886
0.190385 0.405015 0.384591
0.190448 0.473152 0.387235
0.00287721 0.28012 0.424509
0.00299866 0.348237 0.425522
0.00290173 0.404976 0.421949
0.00284084 0.47297 0.424577
0.0653659 0.285877 0.423966
0.0654962 0.34253 0.423503
0.0653992 0.410628 0.424786
0.0653314 0.467654 0.422106
0.127831 0.280169 0.424508
0.12793 0.348163 0.425519
0.127859 0.405038 0.421966
0.127843 0.472934 0.42457
0.190317 0.285957 0.42401
0.190404 0.342442 0.42346
0.190298 0.410542 0.424794
0.190366 0.467759 0.422163
0.00289146 0.286032 0.461727
0.00295894 0.342452 0.460748
0.00277503 0.410538 0.462242
0.0028491 0.467406 0.459684
0.0653595 0.280166 0.461676
0.0654892 0.348086 0.463251
0.0652877 0.40496 0.45944
0.0652383 0.472824 0.461974
0.127865 0.285957 0.461788
0.127999 0.342372 0.460703
0.127876 0.410553 0.462253
0.127734 0.46754 0.459661
0.19038 0.28013 0.461716
0.190416 0.348173 0.463231
0.190267 0.404948 0.459473
0.190279 0.472823 0.461972
0.00286856 0.404824 0.497146
0.0652661 0.467221 0.497317
0.127899 0.404819 0.497064
0.190331 0.467204 0.497325
0.190515 0.342392 0.498298
0.00280004 0.472806 0.49931
0.218967 0.37626 0.499844
0.0029353 0.280194 0.49887
0.127893 0.280142 0.498862
0.0653246 0.410268 0.499608
0.190285 0.410273 0.499639
0.0310256 0.438561 0.499611
0.156068 0.438606 0.499655
0.0997245 0.313882 0.498408
0.22475 0.313872 0.498334
0.0655506 0.342434 0.4983
0.0940219 0.376252 0.499891
0.127816 0.472767 0.499293
0.0654301 0.285563 0.499777
0.190405 0.285561 0.499761
0.0319718 0.3139 0.500423
0.0943308 0.251621 0.500399
0.156844 0.313849 0.500462
0.219286 0.251609 0.500423
0.032377 0.250763 0.53806
0.0370013 0.312888 0.536127
0.0315005 0.375519 0.537498
0.0362732 0.438253 0.534914
0.099359 0.250757 0.536022
0.0943971 0.312907 0.537957
0.099371 0.375485 0.535895
0.0940488 0.438279 0.536703
0.157454 0.250758 0.538032
0.162015 0.312923 0.536222
0.156539 0.375532 0.53745
0.161173 0.438318 0.534777
0.22418 0.250763 0.536049
0.219461 0.31298 0.537993
0.224285 0.375476 0.535802
0.219112 0.438247 0.536764
0.0313393 0.312175 0.575288
0.0360403 0.375248 0.5727
0.0335402 0.438387 0.573606
0.1002 0.312114 0.574008
0.0946828 0.375332 0.573916
0.0973528 0.438396 0.572464
0.156309 0.312267 0.575245
0.161056 0.375289 0.572706
0.158523 0.438481 0.573547
0.225129 0.312167 0.574095
0.219665 0.375289 0.573952
0.222361 0.438454 0.572448
0.0348975 0.311889 0.613429
0.0336212 0.375345 0.612289
0.0343462 0.438846 0.611166
0.0962025 0.312012 0.613904
0.0970442 0.375284 0.611485
0.0968123 0.43892 0.611489
0.159936 0.311997 0.613504
0.158703 0.375439 0.612244
0.159459 0.438822 0.611194
0.221133 0.312065 0.613939
0.22237 0.375394 0.6115
0.221746 0.438895 0.611513
0.0343339 0.311934 0.65318
0.0343462 0.375594 0.649942
0.0344823 0.438531 0.650589
0.0967316 0.311964 0.652999
0.0968328 0.375723 0.650391
0.0969739 0.438633 0.650548
0.159251 0.312026 0.653089
0.159342 0.375642 0.650097
0.1595 0.438648 0.650707
0.221976 0.312023 0.653077
0.222102 0.37574 0.650501
0.221994 0.438583 0.650621
0.0340288 0.250757 0.6943
0.0344402 0.313185 0.693902
0.0350387 0.375717 0.69097
0.0341871 0.438294 0.69087
0.0967801 0.250773 0.694266
0.096335 0.313174 0.693711
0.0955983 0.375629 0.691104
0.0969661 0.438322 0.69093
0.159233 0.250934 0.694341
0.159219 0.313137 0.693786
0.159336 0.375883 0.690056
0.159337 0.438124 0.690714
0.221847 0.250883 0.694232
0.222232 0.31325 0.693653
0.222809 0.375685 0.691005
0.22199 0.438412 0.690732
0.0341649 0.250899 0.735117
0.0344474 0.313523 0.735073
0.0333213 0.375966 0.734548
0.0339844 0.438679 0.731915
0.0968601 0.250998 0.735059
0.0961431 0.31347 0.735141
0.0965828 0.375999 0.733586
0.0971637 0.438423 0.731832
0.159202 0.251048 0.73492
0.159112 0.313185 0.735011
0.159184 0.376174 0.731551
0.159225 0.43835 0.731919
0.222017 0.251067 0.735029
0.221979 0.31326 0.734948
0.220991 0.376218 0.732146
0.221346 0.438443 0.731725
0.0329751 0.28062 0.518158
0.0364609 0.346226 0.518326
0.0324968 0.405479 0.517249
0.0357016 0.471451 0.51706
0.0976676 0.283985 0.518145
0.0946301 0.343057 0.518336
0.0986113 0.408634 0.517218
0.0951806 0.467958 0.517126
0.157985 0.280582 0.518179
0.16144 0.346055 0.518354
0.157284 0.405485 0.517235
0.16078 0.471632 0.517029
0.222702 0.284046 0.518129
0.219464 0.342984 0.518339
0.2236 0.408714 0.51723
0.220218 0.467878 0.517077
0.0355109 0.282792 0.556019
0.0326448 0.342494 0.555876
0.0355157 0.408619 0.554728
0.0332243 0.468452 0.55472
0.0952981 0.280074 0.5561
0.0984214 0.344947 0.555871
0.0955506 0.406106 0.554826
0.0979084 0.470963 0.55464
0.1605 0.282753 0.55607
0.157572 0.342644 0.555875
0.160548 0.408703 0.554626
0.158297 0.468492 0.554659
0.220215 0.280179 0.556145
0.223459 0.344898 0.555882
0.220677 0.406013 0.554807
0.222807 0.471095 0.554583
0.0332294 0.279486 0.594167
0.035257 0.343457 0.593661
0.0336389 0.405493 0.59268
0.0348701 0.470288 0.592802
0.0978539 0.280894 0.594161
0.0956745 0.342069 0.593703
0.0974321 0.406576 0.59254
0.0964098 0.469343 0.592749
0.158271 0.279689 0.594214
0.160336 0.343455 0.59377
0.158831 0.405518 0.592599
0.159844 0.470305 0.592683
0.222911 0.281023 0.594175
0.220701 0.342153 0.593773
0.22225 0.406576 0.59249
0.221311 0.46944 0.592716
0.0346566 0.280739 0.633098
0.0338037 0.342512 0.632407
0.0347552 0.406583 0.630615
0.0342456 0.469511 0.63149
0.0962006 0.280189 0.633021
0.0970527 0.343192 0.632469
0.0966004 0.406222 0.630555
0.0973825 0.470088 0.631536
0.159822 0.280772 0.633059
0.158844 0.342706 0.632402
0.159992 0.406723 0.630753
0.159278 0.469678 0.63159
0.221143 0.280381 0.633138
0.222359 0.343299 0.632537
0.221735 0.4063 0.630716
0.222223 0.469923 0.631599
0.0341602 0.281111 0.673667
0.0348337 0.343662 0.672669
0.0343141 0.405486 0.669888
0.0345807 0.469691 0.671161
0.096701 0.281102 0.673578
0.0961934 0.343653 0.67259
0.0969503 0.406208 0.670096
0.0966363 0.469511 0.671177
0.159173 0.281055 0.673666
0.159307 0.34348 0.672581
0.15909 0.405658 0.66988
0.15966 0.469889 0.671195
0.221905 0.2811 0.673548
0.222065 0.343703 0.672428
0.222573 0.406002 0.67022
0.221903 0.469634 0.671175
0.0342418 0.282228 0.714678
0.0351512 0.345729 0.714718
0.0337376 0.405886 0.71083
0.0342722 0.469367 0.711619
0.096579 0.282166 0.714637
0.0952765 0.345193 0.71455
0.0972617 0.406134 0.710848
0.0968088 0.469339 0.711604
0.159107 0.282508 0.714452
0.15906 0.343774 0.71404
0.159121 0.405597 0.710548
0.159275 0.469439 0.711496
0.222042 0.282308 0.714463
0.223093 0.344651 0.714245
0.221415 0.406397 0.71059
0.221881 0.469497 0.711515
0.0029951 0.347855 0.500917
0.128029 0.347838 0.50095
0.00299517 0.284055 0.537929
0.00304175 0.341372 0.535942
0.00293308 0.409007 0.536682
0.00286511 0.467317 0.535087
0.0655588 0.279202 0.536355
0.0655103 0.346648 0.538368
0.0654211 0.404111 0.534984
0.0652687 0.471472 0.536543
0.12799 0.284013 0.537929
0.128051 0.341442 0.535956
0.127843 0.409118 0.536765
0.127852 0.467344 0.535025
0.190539 0.279275 0.536346
0.190549 0.346726 0.538471
0.190439 0.404173 0.534932
0.190327 0.471432 0.536486
0.00314061 0.276649 0.573941
0.00298578 0.345097 0.575394
0.00303005 0.405173 0.572778
0.00298988 0.469617 0.573592
0.0655324 0.283654 0.575782
0.065554 0.340057 0.573682
0.0654509 0.407291 0.573813
0.0655298 0.468989 0.572845
0.128117 0.276627 0.573976
0.127998 0.345168 0.575472
0.128034 0.405139 0.572702
0.128061 0.469653 0.573501
0.190512 0.283662 0.575903
0.19052 0.340104 0.57369
0.19046 0.407378 0.573631
0.190588 0.469105 0.572776
0.00290513 0.280544 0.614167
0.00293823 0.341802 0.612621
0.00306212 0.406374 0.611712
0.00324827 0.469553 0.611645
0.0654525 0.279412 0.613295
0.0654717 0.343031 0.613424
0.0656583 0.406167 0.611018
0.0657938 0.469525 0.612023
0.127946 0.280601 0.614199
0.127941 0.34189 0.612599
0.128133 0.406393 0.611654
0.128257 0.469691 0.611557
0.190542 0.279346 0.613262
0.19057 0.343181 0.613499
0.190636 0.406009 0.611204
0.190727 0.469608 0.612019
0.00300272 0.280602 0.653233
0.00311527 0.342549 0.652246
0.00327161 0.406568 0.649838
0.00324016 0.469728 0.651072
0.0654326 0.280668 0.653467
0.0655632 0.342595 0.651892
0.065803 0.406837 0.649962
0.0657415 0.469701 0.650965
0.127929 0.280633 0.653131
0.128039 0.34263 0.652213
0.128164 0.406819 0.649784
0.128232 0.469708 0.651159
0.190463 0.280879 0.653483
0.190628 0.342549 0.65189
0.190782 0.406656 0.650274
0.190778 0.469617 0.650989
0.00296883 0.282076 0.694197
0.00301797 0.343585 0.692579
0.00324835 0.406276 0.690055
0.00310847 0.469545 0.691206
0.0654237 0.281609 0.694033
0.0654157 0.344403 0.693776
0.0655359 0.406875 0.69053
0.0655493 0.469385 0.691264
0.127906 0.28193 0.694026
0.127843 0.343724 0.692584
0.128029 0.406421 0.690136
0.128102 0.46948 0.691254
0.190583 0.28197 0.69403
0.190644 0.343542 0.692388
0.190575 0.406596 0.689952
0.190647 0.469425 0.691245
0.00305003 0.282198 0.735234
0.00306538 0.344511 0.735109
0.00310028 0.406986 0.731515
0.00312208 0.469984 0.732222
0.0654262 0.28193 0.735174
0.0652018 0.345125 0.735695
0.0654421 0.407756 0.733232
0.0656207 0.469445 0.732012
0.127954 0.282279 0.735044
0.127834 0.344065 0.733835
0.128095 0.406935 0.731295
0.128043 0.469659 0.732042
0.190538 0.282025 0.734862
0.190531 0.343812 0.733706
0.19022 0.407058 0.731214
0.190472 0.469712 0.731896
0.159327 0.250008 0.65364
0.163556 0.250029 0.574301
0.0344851 0.25095 0.77623
0.0348269 0.313455 0.776365
0.0346439 0.375594 0.776683
0.0347642 0.438773 0.773323
0.0971659 0.250928 0.776147
0.0966586 0.313429 0.776425
0.0975292 0.375878 0.774592
0.0975874 0.438463 0.773166
0.15932 0.250921 0.776039
0.159852 0.313128 0.77626
0.160529 0.375892 0.773784
0.159328 0.438506 0.773251
0.222323 0.250962 0.776021
0.221568 0.313095 0.776134
0.220902 0.376041 0.773621
0.221743 0.438439 0.773239
0.0349379 0.251139 0.817442
0.0349707 0.313767 0.818017
0.0347873 0.375632 0.818337
0.0346049 0.438523 0.814565
0.0973382 0.251139 0.817295
0.0973474 0.31366 0.817933
0.0984849 0.37592 0.817089
0.0974994 0.438654 0.814541
0.159884 0.251146 0.817253
0.159957 0.313765 0.817764
0.159156 0.375721 0.817312
0.159329 0.438685 0.814113
0.222034 0.251125 0.817103
0.222031 0.31373 0.817584
0.222358 0.375678 0.817413
0.222206 0.438545 0.813964
0.0349267 0.250982 0.85821
0.0348186 0.313668 0.859148
0.0347437 0.376075 0.860267
0.0346045 0.43891 0.85628
0.0973466 0.251041 0.858352
0.0973595 0.313751 0.859113
0.0973289 0.376164 0.860204
0.0972581 0.438936 0.856359
0.159786 0.251204 0.858072
0.159859 0.313886 0.859155
0.159719 0.376232 0.860254
0.159683 0.438923 0.856307
0.222202 0.251127 0.858174
0.222332 0.313897 0.85915
0.222345 0.376217 0.860164
0.222249 0.438765 0.856038
0.0347927 0.31303 0.89967
0.0344744 0.376202 0.899729
0.0345517 0.440056 0.897286
0.0972731 0.312993 0.899554
0.0973775 0.37618 0.899993
0.0971973 0.439988 0.89714
0.159803 0.313041 0.899619
0.159687 0.376164 0.899852
0.159616 0.440148 0.897306
0.222481 0.31313 0.899549
0.222353 0.376344 0.900008
0.222139 0.440035 0.897113
0.0357948 0.312706 0.938564
0.0340035 0.376668 0.938518
0.0354881 0.440186 0.936144
0.0968427 0.312756 0.938905
0.0985487 0.376621 0.938005
0.0964069 0.440194 0.936532
0.160911 0.312661 0.93866
0.159133 0.376725 0.938466
0.160554 0.440222 0.936158
0.22209 0.312729 0.938881
0.223399 0.376551 0.938036
0.221598 0.440287 0.936641
0.222478 0.250477 0.898669
0.0338188 0.313337 0.977316
0.0374361 0.376774 0.976097
0.0313385 0.440216 0.975859
0.159844 0.25057 0.898626
0.0989045 0.313277 0.976446
0.0953197 0.376774 0.977122
0.100564 0.440196 0.974931
0.0348117 0.250441 0.898686
0.158887 0.313364 0.977383
0.162403 0.376806 0.976108
0.156334 0.440191 0.975848
0.223827 0.313331 0.976372
0.22028 0.376872 0.977181
0.225503 0.440185 0.974918
0.0368134 0.280566 0.995091
0.0346368 0.345887 0.995009
0.0334433 0.407431 0.994067
0.0365576 0.472189 0.993697
0.0961171 0.28278 0.995089
0.0977919 0.343561 0.995091
0.0987911 0.409463 0.99402
0.0956572 0.47012 0.993742
0.161645 0.280618 0.995102
0.159691 0.345919 0.995026
0.158575 0.407507 0.994065
0.16152 0.472055 0.993714
0.221065 0.282952 0.995094
0.222648 0.343479 0.995137
0.223912 0.40957 0.994037
0.220727 0.470012 0.993795
0.0342053 0.282153 0.755884
0.0342848 0.345941 0.756112
0.0334397 0.407965 0.752809
0.0346807 0.469728 0.752606
0.0968737 0.282363 0.755808
0.0955584 0.344992 0.755713
0.0982304 0.406832 0.752508
0.0968503 0.46946 0.75252
0.158981 0.282111 0.755655
0.160004 0.344211 0.755397
0.159392 0.405684 0.752101
0.159509 0.469529 0.752399
0.222138 0.281952 0.755559
0.220913 0.343869 0.755407
0.221235 0.406194 0.752074
0.221329 0.469448 0.752425
0.0350459 0.282188 0.797273
0.0348598 0.345904 0.797718
0.0346306 0.407977 0.794113
0.0345422 0.469577 0.793915
0.097333 0.282688 0.797149
0.0970695 0.345337 0.797447
0.0978845 0.406427 0.793675
0.0971066 0.469552 0.793707
0.159967 0.282438 0.797082
0.159994 0.345668 0.797146
0.158667 0.40597 0.793608
0.159484 0.469807 0.793618
0.22182 0.282316 0.7969
0.221503 0.345824 0.796963
0.222351 0.406217 0.79368
0.222023 0.469537 0.793609
0.03514 0.282679 0.838365
0.0349727 0.3469 0.839579
0.034588 0.408294 0.835634
0.0343321 0.469615 0.835075
0.097488 0.282702 0.838378
0.0975515 0.346825 0.839429
0.0977496 0.407988 0.835448
0.0970029 0.469978 0.835046
0.159925 0.283054 0.838269
0.159955 0.346861 0.83945
0.158948 0.40822 0.835053
0.159439 0.469633 0.834918
0.222021 0.282814 0.838288
0.222251 0.34703 0.839486
0.222855 0.408298 0.834907
0.222316 0.469404 0.834836
0.0345908 0.282328 0.878931
0.0346346 0.345589 0.88016
0.034861 0.408871 0.877792
0.0345802 0.470685 0.876513
0.0974161 0.282159 0.878892
0.0972635 0.345616 0.880184
0.0970191 0.408816 0.8778
0.0970434 0.470952 0.876459
0.159784 0.282307 0.878867
0.159821 0.345469 0.880188
0.160024 0.408818 0.877961
0.15973 0.47085 0.876379
0.222675 0.282311 0.878926
0.222518 0.346067 0.88025
0.22193 0.408918 0.877676
0.222088 0.470723 0.876238
0.0354959 0.281648 0.918617
0.0347801 0.345533 0.91947
0.0342292 0.408859 0.917718
0.0350414 0.472107 0.917089
0.0968807 0.281941 0.918642
0.0973553 0.345021 0.919529
0.0978934 0.409167 0.917688
0.0965807 0.4714 0.917106
0.160466 0.28174 0.918609
0.159882 0.345449 0.919632
0.159228 0.408955 0.917739
0.160049 0.472149 0.917056
0.222034 0.28199 0.918507
0.222485 0.345156 0.919483
0.222914 0.409221 0.917822
0.221693 0.471433 0.917095
0.0341228 0.282034 0.957311
0.0352158 0.345322 0.957451
0.0358722 0.409966 0.956296
0.0334561 0.471536 0.95573
0.0985916 0.281307 0.957279
0.0971525 0.346314 0.957437
0.0963061 0.408908 0.956331
0.0984413 0.472663 0.955695
0.159316 0.282121 0.957277
0.160223 0.345339 0.957408
0.160946 0.409952 0.956313
0.158596 0.471614 0.955755
0.223574 0.281163 0.957273
0.222282 0.346275 0.957395
0.221504 0.408958 0.956285
0.223387 0.472781 0.955795
0.00329 0.282221 0.776444
0.00349242 0.344474 0.7768
0.00318948 0.408134 0.774365
0.00325881 0.469851 0.773547
0.0657809 0.282012 0.776312
0.0656642 0.344953 0.776969
0.0658286 0.407622 0.774253
0.0657962 0.469662 0.773305
0.128215 0.282359 0.776348
0.128239 0.343885 0.774884
0.128478 0.40673 0.772703
0.128259 0.46998 0.773127
0.190714 0.281709 0.77597
0.190647 0.344708 0.776476
0.19058 0.40721 0.773173
0.19066 0.469738 0.773154
0.00364352 0.282369 0.81772
0.00364004 0.344875 0.818628
0.00311926 0.407785 0.815962
0.00320486 0.469637 0.814564
0.066175 0.282585 0.8177
0.0661181 0.345163 0.81852
0.0659939 0.407654 0.815732
0.0658061 0.469703 0.814552
0.128586 0.282699 0.817618
0.128543 0.344824 0.818018
0.128353 0.407052 0.814265
0.128224 0.470074 0.814375
0.191033 0.282517 0.81763
0.190891 0.345262 0.817993
0.190771 0.407741 0.815447
0.190821 0.469532 0.814276
0.00360375 0.282368 0.858683
0.00354434 0.345307 0.85994
0.00342027 0.408301 0.857574
0.00331705 0.470004 0.856007
0.0661452 0.282511 0.858734
0.0661061 0.345254 0.859985
0.0659418 0.408382 0.857545
0.0658179 0.470309 0.855982
0.128689 0.282641 0.858636
0.128635 0.34527 0.859934
0.128622 0.40843 0.85773
0.128388 0.470349 0.856031
0.191099 0.282697 0.858736
0.191063 0.345433 0.860088
0.190937 0.408385 0.857424
0.190864 0.470141 0.855697
0.00361342 0.281872 0.899294
0.00352992 0.345049 0.900194
0.00339948 0.409323 0.897905
0.0033311 0.471344 0.897018
0.0660973 0.28181 0.899014
0.0660389 0.345143 0.900203
0.0660064 0.409414 0.898409
0.0659062 0.471414 0.896793
0.128606 0.281984 0.899187
0.128576 0.344854 0.900303
0.128522 0.409362 0.897978
0.128367 0.47147 0.896981
0.191177 0.281911 0.898939
0.191154 0.344978 0.900264
0.191008 0.409503 0.898465
0.190888 0.471461 0.896695
0.00381188 0.282492 0.937969
0.00373626 0.344864 0.938794
0.00362903 0.41049 0.937524
0.00347151 0.471736 0.935836
0.0662764 0.281249 0.938712
0.0662274 0.346616 0.938472
0.0661327 0.408725 0.936618
0.0659412 0.473193 0.936815
0.128813 0.282631 0.937888
0.128765 0.344784 0.93882
0.128653 0.41063 0.93758
0.128495 0.471789 0.935839
0.191434 0.281249 0.938678
0.191319 0.346564 0.938514
0.191191 0.408803 0.936663
0.190992 0.47311 0.93676
0.00388848 0.281193 0.977577
0.00379672 0.347493 0.976545
0.00368393 0.406874 0.974612
0.00350585 0.475892 0.975941
0.0663641 0.283165 0.975936
0.0662737 0.344046 0.976912
0.0661474 0.412288 0.976147
0.0660514 0.46885 0.973971
0.128878 0.28126 0.977414
0.128764 0.347317 0.976515
0.128668 0.406693 0.974622
0.128523 0.475869 0.975908
0.191364 0.283163 0.975972
0.191312 0.344115 0.976805
0.191138 0.412308 0.976112
0.191075 0.46882 0.973989
0.160821 0.250155 0.976545
0.0973605 0.250462 0.898743
0.221975 0.250271 0.977385
0.0969364 0.250209 0.977351
0.0358069 0.250097 0.976615
0.159676 0.250013 0.93809
0.223185 0.25002 0.937706
0.032412 0.502384 0.0134058
0.0366384 0.564774 0.0114862
0.032684 0.626861 0.0132857
0.0365995 0.688784 0.011236
0.0994523 0.502351 0.0117496
0.0950301 0.564776 0.0133136
0.0989698 0.62689 0.0113516
0.0950585 0.688835 0.0132581
0.157181 0.502324 0.0133658
0.161499 0.564713 0.0116261
0.157687 0.626892 0.0133309
0.161552 0.688732 0.0112191
0.224377 0.502382 0.0117195
0.219981 0.564712 0.0133527
0.223844 0.626788 0.011367
0.22006 0.68873 0.0133969
0.0369873 0.502034 0.0492029
0.032204 0.564664 0.0511796
0.0369033 0.627094 0.0490345
0.0322561 0.689439 0.0512501
0.0945786 0.502025 0.0510529
0.0993318 0.564629 0.0490762
0.0948909 0.62705 0.0512264
0.0997265 0.689425 0.0489346
0.161995 0.502011 0.0491731
0.157226 0.564615 0.0511992
0.161906 0.627091 0.0490655
0.157205 0.689442 0.0513088
0.219582 0.501996 0.051142
0.224372 0.564624 0.0490901
0.219822 0.627029 0.0513695
0.224784 0.689406 0.0489667
0.0319644 0.501822 0.0885956
0.0370452 0.564443 0.0863771
0.0323381 0.626918 0.0886275
0.0373936 0.689436 0.0863253
0.0996765 0.501801 0.0864765
0.0947352 0.564401 0.0886534
0.0995906 0.626975 0.0863993
0.0947173 0.689452 0.0887231
0.157008 0.501826 0.088664
0.16194 0.56443 0.0864002
0.157412 0.62699 0.0887534
0.162372 0.68949 0.0863023
0.22461 0.501813 0.086426
0.219708 0.564416 0.0887053
0.224534 0.626997 0.0863453
0.219724 0.689433 0.0887366
0.0372244 0.501743 0.123732
0.0321403 0.564256 0.126095
0.0373473 0.626875 0.123652
0.032108 0.689262 0.126118
0.0945356 0.501695 0.125999
0.0997636 0.564308 0.123717
0.0946948 0.626869 0.126082
0.100259 0.689283 0.123748
0.162134 0.501724 0.123733
0.15704 0.564248 0.126065
0.162382 0.6268 0.123698
0.157176 0.689307 0.126162
0.219464 0.501715 0.126046
0.224666 0.564268 0.12367
0.219734 0.626762 0.126084
0.22513 0.689307 0.123726
0.0319451 0.501668 0.163466
0.0372039 0.564227 0.160942
0.0321293 0.626716 0.163371
0.0375764 0.689137 0.16105
0.099635 0.501685 0.161056
0.0944328 0.564198 0.163422
0.0998614 0.626714 0.161011
0.0946512 0.689157 0.163493
0.156872 0.501699 0.163447
0.162182 0.564246 0.160977
0.157063 0.626678 0.163397
0.162658 0.689166 0.161042
0.224635 0.501736 0.160996
0.219453 0.564205 0.163448
0.224904 0.626728 0.16099
0.219592 0.689146 0.163513
0.0370567 0.501728 0.198257
0.0318364 0.564219 0.200771
0.0371992 0.626653 0.198325
0.0319168 0.68902 0.200858
0.0942868 0.501677 0.200781
0.0995508 0.564225 0.19836
0.0944152 0.626642 0.200702
0.0999256 0.68913 0.19844
0.161943 0.501737 0.198299
0.156839 0.564192 0.200771
0.162157 0.626688 0.198294
0.157111 0.689069 0.200845
0.219244 0.501735 0.200804
0.224528 0.56425 0.198363
0.219402 0.6267 0.200696
0.225004 0.689147 0.19849
0.031504 0.501639 0.238084
0.0369576 0.564188 0.235644
0.0316456 0.62656 0.238092
0.0372116 0.68896 0.235743
0.0994725 0.50174 0.235738
0.0940697 0.564171 0.238127
0.0995592 0.626539 0.235751
0.0943022 0.688947 0.238199
0.156659 0.501715 0.238028
0.161995 0.564254 0.235628
0.156762 0.626595 0.238127
0.162289 0.689025 0.23582
0.224486 0.501685 0.235638
0.219233 0.564184 0.238068
0.224598 0.626647 0.235667
0.219214 0.68904 0.238153
0.0370164 0.535003 0.031342
0.0327664 0.593899 0.0313303
0.0366929 0.659892 0.0313079
0.0347052 0.718158 0.0312602
0.0951815 0.531797 0.0313249
0.0993378 0.597546 0.0313016
0.0960356 0.656144 0.0312935
0.0981251 0.722108 0.0311784
0.161928 0.534803 0.0313519
0.157885 0.594094 0.0313578
0.161553 0.659859 0.0313442
0.159756 0.718076 0.0312353
0.220191 0.531734 0.0313743
0.224325 0.597434 0.0313419
0.221082 0.65598 0.0313549
0.223203 0.722214 0.0312258
0.0325788 0.531232 0.068825
0.0369244 0.597497 0.068847
0.033101 0.656203 0.0688511
0.0364192 0.722615 0.0688196
0.0995129 0.534756 0.0688021
0.0952689 0.593706 0.0688194
0.0994059 0.659998 0.0688456
0.0966981 0.718471 0.0688035
0.157611 0.531215 0.0688326
0.16195 0.597487 0.0688422
0.158151 0.656171 0.0689063
0.161331 0.722777 0.0688332
0.224371 0.534748 0.0688365
0.220223 0.593603 0.0688974
0.224523 0.660155 0.0688589
0.221734 0.718479 0.0688745
0.0370336 0.534752 0.106196
0.0327977 0.593513 0.106174
0.0371908 0.659958 0.10621
0.0339125 0.718363 0.106295
0.0952088 0.530951 0.106225
0.0995958 0.597483 0.106213
0.0955455 0.656004 0.106222
0.0991455 0.722587 0.106308
0.161943 0.534778 0.106211
0.157734 0.593375 0.106242
0.162216 0.660096 0.106258
0.158868 0.718352 0.106294
0.22019 0.53087 0.106225
0.224732 0.597576 0.106228
0.220729 0.655987 0.106276
0.224239 0.722594 0.106273
0.032805 0.530744 0.143545
0.0370742 0.597419 0.143531
0.0329657 0.655888 0.143522
0.0367727 0.722378 0.143653
0.0993874 0.534712 0.143541
0.0952501 0.593447 0.143536
0.0996862 0.659847 0.143591
0.0962081 0.718182 0.143665
0.157774 0.530794 0.143546
0.162133 0.597403 0.143519
0.1581 0.655892 0.143554
0.161801 0.72247 0.143638
0.224477 0.534795 0.143554
0.220229 0.59332 0.143548
0.224676 0.659903 0.143593
0.221362 0.718251 0.143667
0.0366812 0.534972 0.180856
0.0326788 0.593273 0.180854
0.0370376 0.659746 0.180907
0.0334838 0.71802 0.180994
0.0952021 0.530707 0.180882
0.0995002 0.597324 0.180887
0.0956269 0.655785 0.180903
0.0994008 0.722254 0.181016
0.161806 0.534961 0.180851
0.157762 0.593283 0.180839
0.162036 0.659744 0.180904
0.158595 0.718057 0.181015
0.220187 0.530706 0.180884
0.224537 0.597322 0.180869
0.220575 0.655829 0.180924
0.224286 0.72235 0.181038
0.032598 0.53074 0.218202
0.0369098 0.597318 0.218183
0.0329697 0.655563 0.218203
0.0367437 0.722169 0.218369
0.0992396 0.534828 0.218175
0.0952578 0.59329 0.2182
0.0993612 0.659577 0.218226
0.0957415 0.71791 0.218409
0.157534 0.530719 0.218228
0.161837 0.597285 0.218197
0.157925 0.655623 0.218233
0.161807 0.722205 0.218336
0.224236 0.53485 0.218204
0.220013 0.593406 0.21818
0.224358 0.659729 0.218237
0.220776 0.718053 0.218369
0.00356551 0.536044 0.0136161
0.00351238 0.59417 0.0112503
0.00358542 0.659906 0.013087
0.00373507 0.717512 0.0120809
0.0660479 0.531681 0.0111604
0.0660249 0.598135 0.0133487
0.0661188 0.656033 0.0114698
0.0662299 0.72192 0.0122672
0.128549 0.536147 0.0136129
0.128501 0.594062 0.0112488
0.128612 0.659856 0.013007
0.128767 0.717558 0.0120854
0.190918 0.531698 0.0112418
0.191021 0.598093 0.0133403
0.191141 0.655997 0.0115813
0.191259 0.721768 0.0122815
0.00344287 0.531249 0.0486575
0.00350902 0.598584 0.0513017
0.0036904 0.656246 0.0489813
0.00383072 0.723386 0.0504916
0.0659501 0.536061 0.0513076
0.0659882 0.593901 0.0488024
0.0662262 0.660867 0.0511059
0.0663526 0.718185 0.0495188
0.128478 0.531205 0.0486967
0.128513 0.598398 0.0512639
0.128715 0.656098 0.0490246
0.128881 0.72337 0.0504589
0.190963 0.535959 0.0513451
0.191023 0.593892 0.0487742
0.191207 0.660864 0.051069
0.191349 0.71811 0.0495695
0.00351986 0.535995 0.0887858
0.00353352 0.593529 0.086174
0.00379361 0.660893 0.0886443
0.00390948 0.718154 0.0867067
0.0660316 0.530961 0.0861267
0.0661569 0.598351 0.0887277
0.0662524 0.656068 0.0862497
0.0663908 0.723632 0.0883747
0.128498 0.535887 0.0887653
0.128631 0.593786 0.0861599
0.128758 0.66098 0.0886523
0.128821 0.718166 0.0867701
0.190988 0.530861 0.0862007
0.191099 0.598485 0.0887673
0.191261 0.656108 0.0863433
0.191408 0.723653 0.0883639
0.00349744 0.530874 0.123535
0.00367735 0.598496 0.126053
0.00370039 0.655674 0.123549
0.00392754 0.723647 0.125808
0.0660479 0.5359 0.126027
0.0661458 0.59337 0.123481
0.0663349 0.660994 0.126093
0.0664737 0.717856 0.124122
0.128453 0.530719 0.123569
0.128681 0.598494 0.126087
0.128829 0.655766 0.123596
0.128971 0.723649 0.125879
0.191042 0.535978 0.126114
0.191182 0.593399 0.12349
0.191325 0.66099 0.126026
0.191492 0.717997 0.124019
0.00346122 0.535844 0.163331
0.0035453 0.593186 0.160861
0.00372761 0.660895 0.163412
0.00388437 0.717898 0.161346
0.0659531 0.530596 0.160933
0.0661322 0.598373 0.163446
0.0662411 0.655579 0.160944
0.0664084 0.723456 0.163333
0.128475 0.535912 0.163375
0.128592 0.593182 0.160894
0.128786 0.660852 0.163371
0.128959 0.717781 0.161319
0.191 0.530603 0.16093
0.191178 0.59844 0.163426
0.19129 0.655522 0.160974
0.191445 0.723423 0.163212
0.00340516 0.530587 0.198272
0.0035107 0.598457 0.200727
0.00357419 0.655504 0.198292
0.00375498 0.72344 0.20068
0.0658788 0.535985 0.200704
0.0659766 0.593152 0.198224
0.0661313 0.660923 0.200669
0.0663104 0.717748 0.198643
0.128377 0.530703 0.198277
0.128508 0.598391 0.20067
0.128603 0.655564 0.198323
0.128789 0.723329 0.200798
0.190875 0.535876 0.200781
0.190974 0.593197 0.198217
0.191139 0.660794 0.200732
0.191294 0.717818 0.198629
0.00331497 0.535994 0.238085
0.00337207 0.593117 0.235517
0.0034185 0.660686 0.238039
0.00352529 0.717725 0.235856
0.0657731 0.53055 0.235504
0.0658606 0.598368 0.238062
0.0659465 0.655371 0.235686
0.0660163 0.723237 0.238152
0.128288 0.536023 0.238124
0.128341 0.593033 0.235606
0.128434 0.66076 0.238073
0.128559 0.717694 0.235853
0.190811 0.530718 0.235554
0.190901 0.598446 0.238102
0.190969 0.655402 0.23571
0.191055 0.723334 0.238116
0.0368729 0.501619 0.272955
0.0316713 0.564055 0.27541
0.0369874 0.62642 0.272964
0.0317998 0.688907 0.275486
0.0941761 0.501556 0.275393
0.0994461 0.564115 0.273022
0.0942568 0.626475 0.275345
0.0995991 0.688936 0.273149
0.161871 0.501582 0.272921
0.156524 0.564073 0.275352
0.16199 0.626538 0.273042
0.156776 0.68894 0.275503
0.219119 0.501607 0.275377
0.224339 0.564071 0.272966
0.219102 0.626495 0.27539
0.224633 0.689003 0.273189
0.0316489 0.50147 0.312809
0.0367633 0.563989 0.310309
0.0316832 0.626408 0.312774
0.0370564 0.688867 0.310436
0.0991726 0.501439 0.310248
0.0941854 0.563978 0.312634
0.0994175 0.62641 0.310338
0.0942756 0.688864 0.312826
0.156736 0.501454 0.312737
0.161789 0.563986 0.310301
0.156674 0.626386 0.312711
0.162069 0.688919 0.310472
0.224144 0.501483 0.310245
0.219151 0.563944 0.312671
0.224467 0.626441 0.310383
0.219344 0.688958 0.31279
0.0367378 0.501429 0.347588
0.0316099 0.563929 0.350041
0.0368353 0.626423 0.347647
0.0317708 0.688893 0.350108
0.0939775 0.501396 0.3499
0.099264 0.563885 0.347578
0.0941783 0.626328 0.349979
0.0994928 0.68884 0.347781
0.161807 0.501428 0.347526
0.156727 0.563989 0.35
0.161876 0.626366 0.347589
0.156834 0.688828 0.350049
0.218991 0.501377 0.349902
0.224264 0.563917 0.347614
0.219147 0.626368 0.349942
0.22457 0.688912 0.347733
0.0313046 0.501333 0.38718
0.0367671 0.563826 0.384933
0.0316095 0.626256 0.387322
0.0369176 0.688833 0.385026
0.0991092 0.50134 0.384817
0.0939901 0.563739 0.387184
0.0993719 0.626243 0.384988
0.094242 0.688769 0.387327
0.156319 0.5013 0.387104
0.161679 0.563714 0.384864
0.156584 0.626221 0.387334
0.161922 0.688744 0.385037
0.224284 0.501238 0.384861
0.219158 0.563742 0.387217
0.224306 0.626265 0.384917
0.219103 0.688751 0.387353
0.0364511 0.501143 0.422171
0.0315293 0.563573 0.424502
0.0365984 0.62613 0.422141
0.0316133 0.688595 0.424719
0.0937641 0.501144 0.42448
0.0989338 0.563643 0.422161
0.0941092 0.62608 0.424525
0.0993574 0.688649 0.422247
0.16141 0.501132 0.422221
0.156621 0.563561 0.424435
0.161562 0.626087 0.422082
0.156616 0.688575 0.424647
0.218896 0.501109 0.424456
0.223979 0.563625 0.422176
0.219266 0.626038 0.424527
0.224343 0.688687 0.422279
0.0311386 0.500977 0.461915
0.0363984 0.56343 0.459474
0.0314374 0.625869 0.461802
0.0367191 0.688441 0.459474
0.0989009 0.501009 0.459542
0.0938137 0.563335 0.461715
0.0990562 0.625856 0.45942
0.0941122 0.688392 0.461822
0.156205 0.501024 0.461923
0.161542 0.563413 0.459428
0.156491 0.625823 0.461758
0.161714 0.688442 0.459583
0.223943 0.500936 0.459581
0.21883 0.563314 0.461732
0.224033 0.625897 0.459443
0.219062 0.688434 0.461882
0.0364719 0.500951 0.497037
0.0364831 0.625779 0.496676
0.098796 0.563349 0.496813
0.0992261 0.68819 0.496807
0.161556 0.500951 0.497015
0.161458 0.625739 0.496611
0.22383 0.56336 0.496834
0.224217 0.688309 0.496849
0.0368021 0.534804 0.255504
0.0325577 0.59312 0.255532
0.0367948 0.659561 0.255575
0.0328126 0.717938 0.255685
0.0948696 0.530736 0.25554
0.0992977 0.597213 0.255544
0.0952437 0.655571 0.255571
0.0992947 0.722061 0.25571
0.161697 0.534767 0.255506
0.157517 0.593233 0.255542
0.161828 0.659573 0.255589
0.157931 0.717958 0.255701
0.219991 0.530706 0.255511
0.224366 0.597201 0.255499
0.22026 0.655648 0.255589
0.224284 0.722051 0.25569
0.0324057 0.530482 0.292802
0.0368447 0.597121 0.292857
0.0326115 0.655423 0.292885
0.0367942 0.72209 0.293005
0.0992469 0.534632 0.29279
0.094974 0.593203 0.292847
0.099359 0.659396 0.292889
0.0952259 0.718067 0.293005
0.157314 0.530579 0.29279
0.161825 0.597112 0.292827
0.157415 0.655622 0.292918
0.161853 0.722073 0.293009
0.224198 0.534647 0.292834
0.219789 0.593175 0.292822
0.224403 0.659471 0.292922
0.220218 0.718094 0.293045
0.0366702 0.534638 0.330142
0.0323114 0.59308 0.330156
0.0368719 0.659362 0.330217
0.0325572 0.717905 0.330277
0.0947944 0.530438 0.330063
0.0993697 0.596916 0.330145
0.0949121 0.655492 0.330201
0.0993671 0.721971 0.330287
0.16164 0.53458 0.330103
0.157323 0.593072 0.330152
0.161976 0.659396 0.330191
0.157613 0.718038 0.330306
0.219796 0.530477 0.330111
0.224274 0.596888 0.330112
0.219901 0.655546 0.330174
0.224365 0.72192 0.330275
0.0322443 0.530521 0.367416
0.0368225 0.597053 0.367461
0.0324858 0.655353 0.367487
0.036771 0.721996 0.367582
0.0990817 0.534389 0.367383
0.0947119 0.592994 0.367428
0.0992888 0.659247 0.36751
0.0950386 0.717943 0.367563
0.157312 0.530454 0.367378
0.161812 0.596947 0.367453
0.157393 0.655324 0.367452
0.16192 0.721937 0.367529
0.224061 0.534324 0.367389
0.219638 0.592931 0.367415
0.22431 0.659274 0.367461
0.220021 0.717874 0.36758
0.036429 0.534195 0.404697
0.0321548 0.592844 0.404714
0.036669 0.659357 0.404798
0.0324242 0.717726 0.404884
0.0947835 0.53034 0.404688
0.0992172 0.596631 0.404702
0.0949257 0.655368 0.404763
0.0993197 0.721848 0.404836
0.161408 0.534073 0.404652
0.157296 0.592723 0.404658
0.161774 0.659352 0.404774
0.157528 0.717885 0.404863
0.219672 0.530349 0.404679
0.224083 0.596683 0.404695
0.219959 0.655315 0.40474
0.22418 0.721784 0.404798
0.032227 0.530076 0.441992
0.0365744 0.596506 0.441939
0.0324825 0.654949 0.442032
0.0367043 0.721698 0.442113
0.098736 0.533985 0.442031
0.094755 0.592632 0.441926
0.0990866 0.659019 0.441997
0.094979 0.717698 0.442103
0.157315 0.530168 0.441971
0.161572 0.596543 0.441936
0.157548 0.655079 0.441975
0.161591 0.721613 0.442138
0.223761 0.533916 0.442013
0.219745 0.592586 0.441939
0.224037 0.659077 0.442011
0.219995 0.717727 0.442114
0.036213 0.533789 0.479353
0.0322511 0.59246 0.4792
0.0364587 0.658903 0.479256
0.0323833 0.717521 0.479382
0.0948652 0.529993 0.479384
0.0989226 0.596142 0.479209
0.0949813 0.654955 0.479249
0.0990273 0.721381 0.479421
0.161207 0.533879 0.479369
0.157309 0.592451 0.479231
0.161518 0.658887 0.479273
0.157555 0.717464 0.479376
0.219862 0.530002 0.479353
0.223967 0.596105 0.479214
0.219987 0.654996 0.479232
0.224129 0.721447 0.479376
0.00324504 0.530616 0.272837
0.00329817 0.598229 0.275453
0.00337739 0.655329 0.272957
0.00340933 0.723186 0.27556
0.0657975 0.535809 0.275421
0.0657946 0.592979 0.272861
0.065875 0.660549 0.275445
0.0659431 0.717765 0.273116
0.128213 0.530477 0.272799
0.12832 0.598307 0.275428
0.128395 0.655429 0.272953
0.128486 0.723195 0.275467
0.1907 0.535736 0.275371
0.190753 0.593028 0.272786
0.190925 0.660717 0.275503
0.190979 0.717685 0.273164
0.00322024 0.535591 0.312684
0.0032475 0.592926 0.310084
0.0033335 0.66057 0.312803
0.00339088 0.717813 0.310343
0.0656616 0.530487 0.310118
0.0657428 0.59817 0.312792
0.0659106 0.6554 0.310198
0.0659264 0.723022 0.312867
0.12815 0.535578 0.312693
0.12824 0.593029 0.310094
0.128361 0.660528 0.312842
0.128444 0.717814 0.310311
0.190668 0.530481 0.310114
0.19074 0.598098 0.312763
0.190849 0.655311 0.310135
0.190907 0.723194 0.312869
0.00305276 0.530431 0.347454
0.00319541 0.598106 0.350105
0.00327388 0.655297 0.347485
0.0034131 0.723121 0.350141
0.0656413 0.535636 0.350031
0.0657083 0.592935 0.347354
0.0658317 0.66057 0.350118
0.0658953 0.717791 0.347612
0.128138 0.530468 0.347408
0.128214 0.59806 0.350085
0.128306 0.655441 0.347434
0.128465 0.72299 0.350123
0.190669 0.535674 0.34998
0.190727 0.592989 0.347361
0.190844 0.660558 0.350135
0.190945 0.717864 0.347478
0.00301942 0.535618 0.387306
0.00317023 0.592744 0.384686
0.00333858 0.660453 0.387328
0.00334692 0.717642 0.38493
0.0655662 0.530307 0.384719
0.0656485 0.597991 0.387397
0.0657857 0.655285 0.384834
0.0658417 0.723012 0.38745
0.12806 0.535492 0.387287
0.128194 0.592752 0.38467
0.128285 0.660472 0.387311
0.128356 0.717726 0.384838
0.190588 0.530217 0.384716
0.19067 0.597948 0.387293
0.190754 0.655193 0.384762
0.190869 0.723034 0.387379
0.00288481 0.53023 0.422085
0.00306958 0.597591 0.424553
0.00324005 0.65514 0.422076
0.00326548 0.722759 0.424675
0.0654259 0.535275 0.424453
0.0655873 0.592715 0.421938
0.0657584 0.660269 0.424537
0.0657934 0.717557 0.422088
0.127942 0.530259 0.422118
0.128159 0.597635 0.42452
0.128256 0.655182 0.422025
0.128327 0.722844 0.424692
0.190492 0.535284 0.424517
0.19061 0.592723 0.421914
0.190751 0.660213 0.424518
0.190769 0.717537 0.422131
0.00289071 0.535005 0.461795
0.0030041 0.592419 0.459181
0.00317135 0.660081 0.461764
0.00317744 0.717466 0.459375
0.0653562 0.529907 0.459458
0.065517 0.597448 0.461751
0.065609 0.654993 0.459364
0.0656438 0.722571 0.461941
0.12789 0.535141 0.461779
0.12804 0.592406 0.459246
0.128179 0.659966 0.461717
0.128138 0.717573 0.459455
0.190374 0.529819 0.459468
0.190559 0.597469 0.461737
0.190644 0.654973 0.459269
0.190706 0.722691 0.46191
0.00285556 0.529749 0.496984
0.00303906 0.654819 0.496666
0.0654555 0.592306 0.496635
0.0655936 0.717355 0.496766
0.127809 0.529669 0.497022
0.128053 0.654765 0.496715
0.190387 0.592274 0.496714
0.190653 0.717399 0.496695
0.00298721 0.597483 0.499067
0.0653184 0.535107 0.499125
0.156549 0.688143 0.499159
0.190308 0.535131 0.499145
0.127962 0.597514 0.499028
0.0313862 0.688223 0.49917
0.19062 0.659878 0.49896
0.128145 0.722491 0.499104
0.00315374 0.722591 0.499226
0.0937695 0.625621 0.498903
0.218792 0.625687 0.49886
0.0935198 0.500958 0.499327
0.0656174 0.659951 0.498929
0.156101 0.563312 0.499108
0.218537 0.50093 0.499273
0.0312337 0.563327 0.499076
0.0317332 0.500924 0.536656
0.0359269 0.563211 0.534505
0.0317812 0.625372 0.536248
0.036132 0.687789 0.534259
0.0982436 0.500919 0.534849
0.0943191 0.563279 0.5363
0.0985227 0.625423 0.534362
0.0943735 0.687643 0.536186
0.156613 0.500911 0.53662
0.160934 0.563183 0.534425
0.156926 0.625385 0.536235
0.16129 0.687772 0.534322
0.223356 0.500894 0.534762
0.219372 0.563244 0.536256
0.223547 0.625445 0.534407
0.219414 0.687705 0.536064
0.0345302 0.501008 0.572482
0.0341284 0.563283 0.57358
0.0348317 0.62533 0.572557
0.0340312 0.687473 0.573216
0.0965557 0.50113 0.573347
0.0970883 0.56326 0.57274
0.0966912 0.625315 0.57344
0.0974624 0.687434 0.572257
0.159473 0.501071 0.572439
0.159303 0.563287 0.573504
0.159915 0.625325 0.572551
0.158988 0.687454 0.573154
0.221595 0.501157 0.573284
0.222118 0.563217 0.572732
0.221724 0.625289 0.5734
0.222591 0.687487 0.572294
0.034579 0.501368 0.612114
0.0345845 0.563541 0.611957
0.0345467 0.625605 0.612193
0.0348404 0.687579 0.611523
0.0969038 0.501399 0.61185
0.0971654 0.56355 0.612275
0.0972964 0.625558 0.611852
0.0968759 0.687493 0.611726
0.159559 0.501385 0.612136
0.159579 0.563549 0.611946
0.159538 0.625507 0.612142
0.159973 0.687477 0.611503
0.221919 0.501412 0.611958
0.222212 0.563467 0.612208
0.222295 0.625449 0.611813
0.2218 0.687513 0.611806
0.0345097 0.501236 0.651289
0.0346639 0.563625 0.651707
0.0346116 0.625807 0.651639
0.0346539 0.687958 0.651271
0.0971475 0.501205 0.651367
0.0970932 0.563674 0.651679
0.0971298 0.625812 0.651645
0.0972293 0.687925 0.651309
0.159581 0.501252 0.651274
0.159676 0.563644 0.651723
0.15978 0.62589 0.651655
0.159468 0.687958 0.651123
0.222083 0.501186 0.651315
0.222135 0.563656 0.651728
0.22219 0.625791 0.65157
0.222147 0.687922 0.651233
0.0344733 0.501003 0.691713
0.0343867 0.563589 0.691999
0.0345073 0.626105 0.691929
0.0344875 0.688546 0.691723
0.0968945 0.501024 0.691706
0.0971408 0.56362 0.691914
0.0969363 0.626055 0.692001
0.0971747 0.688519 0.691605
0.159383 0.501025 0.691655
0.159547 0.563517 0.691958
0.159539 0.626114 0.691969
0.159654 0.688558 0.691673
0.222036 0.500986 0.691595
0.222034 0.563504 0.691905
0.221979 0.626044 0.692088
0.221992 0.688528 0.691677
0.0345765 0.501116 0.732388
0.0343246 0.563649 0.732554
0.0343134 0.626296 0.732642
0.0345116 0.688834 0.732247
0.0967581 0.50102 0.732323
0.0969103 0.563605 0.732549
0.096833 0.626195 0.732575
0.0969229 0.688771 0.732291
0.159322 0.501019 0.732297
0.159328 0.563574 0.732533
0.159289 0.62618 0.732661
0.159355 0.688754 0.732173
0.221797 0.500974 0.732252
0.221798 0.563587 0.732585
0.22179 0.62618 0.732554
0.221841 0.688798 0.732386
0.032617 0.530194 0.516811
0.0362947 0.596015 0.516632
0.0327737 0.654686 0.516566
0.0363963 0.721041 0.516672
0.0983766 0.533709 0.516791
0.0950726 0.592479 0.516623
0.0987333 0.658202 0.516592
0.0950239 0.717225 0.516676
0.157621 0.530113 0.516797
0.161144 0.596228 0.516608
0.157903 0.654628 0.51657
0.161422 0.720979 0.516661
0.22343 0.533735 0.516755
0.220146 0.592587 0.516592
0.223788 0.658248 0.516534
0.219909 0.717368 0.516666
0.0354292 0.533586 0.554566
0.0333686 0.593036 0.554449
0.0356467 0.65737 0.554299
0.0331441 0.717118 0.554162
0.0958746 0.531324 0.554645
0.0982148 0.595451 0.554418
0.0960243 0.654948 0.55428
0.0984665 0.719397 0.554173
0.160369 0.533629 0.554518
0.158393 0.593091 0.554396
0.160867 0.657396 0.554278
0.15809 0.717126 0.554176
0.220957 0.531361 0.554564
0.223286 0.595331 0.55441
0.221011 0.655085 0.554276
0.223341 0.719313 0.554185
0.0340113 0.53156 0.593083
0.0351881 0.594764 0.593028
0.0341405 0.656004 0.592815
0.0353067 0.719417 0.592379
0.0972805 0.532438 0.593047
0.0966336 0.593912 0.593066
0.0977826 0.656869 0.592772
0.0962183 0.718522 0.592393
0.159156 0.531556 0.59302
0.160358 0.594759 0.593047
0.159171 0.655981 0.592774
0.160375 0.719358 0.592348
0.22238 0.532411 0.593029
0.221616 0.593935 0.593023
0.222876 0.656802 0.592768
0.221448 0.718455 0.592388
0.0348982 0.532613 0.631974
0.0346249 0.594402 0.632046
0.0351057 0.657019 0.631883
0.0342071 0.718614 0.631416
0.0970599 0.532222 0.632007
0.0975593 0.594976 0.632078
0.0969602 0.6566 0.631851
0.0975882 0.718986 0.631312
0.159865 0.532642 0.632013
0.159583 0.594365 0.632081
0.160066 0.656743 0.631856
0.15922 0.718769 0.631326
0.222026 0.53224 0.632066
0.222659 0.594778 0.632021
0.221949 0.656447 0.631817
0.222554 0.719023 0.631303
0.0345382 0.53225 0.671707
0.0347431 0.594807 0.67194
0.0345 0.657196 0.671712
0.0346101 0.719481 0.671123
0.0972331 0.532282 0.671681
0.0969556 0.59478 0.671949
0.0971528 0.656973 0.671764
0.0969385 0.719385 0.671176
0.159649 0.532152 0.671656
0.159924 0.59478 0.671927
0.15964 0.657297 0.67171
0.159622 0.719422 0.671073
0.222129 0.532339 0.671696
0.222071 0.594846 0.671969
0.22217 0.657005 0.671709
0.221911 0.71952 0.671138
0.0345082 0.532319 0.712068
0.0343107 0.594937 0.712237
0.0345383 0.65736 0.712064
0.0345673 0.720268 0.711629
0.0967775 0.532447 0.712072
0.0970083 0.594787 0.712235
0.097048 0.65747 0.712072
0.0969922 0.720144 0.71153
0.159434 0.532302 0.712103
0.159336 0.594898 0.712254
0.159378 0.65755 0.712061
0.159467 0.720317 0.711542
0.221926 0.532407 0.712053
0.221975 0.594704 0.712227
0.221994 0.657512 0.712157
0.222015 0.720155 0.711583
0.222416 0.74971 0.611068
0.00288033 0.534058 0.536397
0.00303516 0.592491 0.534533
0.00306928 0.659155 0.536195
0.00307067 0.717463 0.534254
0.0653571 0.530051 0.534777
0.0655072 0.596637 0.536348
0.0655445 0.654862 0.534513
0.0656142 0.721811 0.536313
0.127867 0.534089 0.536305
0.128038 0.592429 0.534504
0.128159 0.659051 0.536196
0.128081 0.717361 0.534242
0.190422 0.53001 0.534823
0.190546 0.59657 0.536274
0.190621 0.654847 0.53441
0.19062 0.721807 0.536313
0.00314073 0.53171 0.572935
0.00323864 0.594469 0.573584
0.00326696 0.656191 0.572536
0.0032827 0.71973 0.573279
0.0655494 0.532101 0.573645
0.0657595 0.594032 0.572754
0.0657989 0.65691 0.573395
0.0657407 0.718436 0.572125
0.128086 0.531801 0.572947
0.128232 0.594531 0.573586
0.128324 0.656166 0.572509
0.128261 0.719733 0.573429
0.190609 0.531976 0.573521
0.190744 0.594089 0.572766
0.190873 0.656941 0.573434
0.190789 0.718329 0.572134
0.00341176 0.532036 0.612275
0.0035284 0.594495 0.611944
0.00344658 0.656899 0.612171
0.00332883 0.718564 0.611215
0.0659188 0.532231 0.612033
0.0660194 0.594437 0.6123
0.0659829 0.656535 0.611674
0.0658448 0.719291 0.611732
0.128434 0.532129 0.612249
0.128495 0.594435 0.611927
0.128467 0.65686 0.612135
0.128407 0.718557 0.611144
0.190898 0.53222 0.612018
0.191008 0.594379 0.612369
0.190925 0.65638 0.611742
0.190836 0.719331 0.611737
0.00336952 0.532408 0.651431
0.00338759 0.594678 0.651715
0.00330951 0.656942 0.6514
0.00325024 0.71912 0.650985
0.0658043 0.532244 0.651514
0.0659385 0.59479 0.651644
0.0658602 0.656951 0.651571
0.0657655 0.719152 0.65086
0.12834 0.532372 0.651509
0.128469 0.594742 0.65181
0.12838 0.65684 0.651462
0.128243 0.719237 0.65099
0.190888 0.532338 0.651551
0.190939 0.594657 0.651646
0.190888 0.657079 0.651514
0.190769 0.719175 0.650778
0.00323653 0.532063 0.691806
0.00322153 0.594903 0.691921
0.00323036 0.657209 0.691831
0.00331795 0.719957 0.691215
0.0657264 0.532236 0.691733
0.0657465 0.594795 0.691988
0.0657837 0.65735 0.691788
0.0657915 0.719903 0.691287
0.128191 0.532215 0.69184
0.128277 0.594856 0.691962
0.128235 0.657398 0.691782
0.128286 0.719858 0.69116
0.190678 0.532116 0.691845
0.190763 0.594665 0.692032
0.19081 0.657347 0.691875
0.190814 0.71988 0.691249
0.00313057 0.532227 0.732392
0.00312937 0.594816 0.732571
0.00317961 0.657685 0.7324
0.00316947 0.720174 0.732122
0.0656046 0.53235 0.732479
0.0655852 0.59484 0.732449
0.0656661 0.657624 0.732364
0.065739 0.720176 0.732012
0.128063 0.532246 0.732349
0.128104 0.594784 0.732456
0.128066 0.6576 0.732387
0.12813 0.720169 0.731941
0.190586 0.53221 0.73238
0.19058 0.594812 0.732498
0.190581 0.657586 0.73235
0.190593 0.720141 0.732059
0.159031 0.74962 0.61131
0.033964 0.749723 0.611385
0.0974922 0.749649 0.611033
0.221134 0.749881 0.572688
0.0961186 0.749936 0.572693
0.0345758 0.501021 0.773465
0.0344164 0.563521 0.773596
0.0344369 0.626123 0.773453
0.0345232 0.688706 0.773446
0.0968322 0.501045 0.773373
0.0969053 0.56354 0.773467
0.0969571 0.626109 0.773584
0.0968892 0.68872 0.773383
0.159536 0.501085 0.773204
0.159338 0.563576 0.77348
0.159353 0.62606 0.773423
0.159514 0.688635 0.773415
0.221755 0.500954 0.773296
0.221816 0.563572 0.77336
0.221871 0.626057 0.773518
0.221911 0.68867 0.773397
0.0345105 0.500831 0.814641
0.0343857 0.56338 0.81449
0.0343829 0.625916 0.814286
0.0343265 0.688587 0.814327
0.096997 0.501021 0.814549
0.0969566 0.56335 0.814438
0.0968601 0.62594 0.814424
0.0970734 0.688459 0.814445
0.159746 0.500948 0.814477
0.159578 0.563326 0.814393
0.159416 0.625914 0.814348
0.159494 0.688446 0.814412
0.221981 0.500845 0.814456
0.222045 0.563354 0.814368
0.221962 0.625924 0.8143
0.221872 0.68852 0.814343
0.0343979 0.501089 0.855621
0.0345012 0.563467 0.855102
0.0343444 0.625876 0.854945
0.0344768 0.688297 0.85494
0.0971336 0.501154 0.855549
0.0969233 0.563431 0.855173
0.0970475 0.625803 0.854881
0.0969767 0.688239 0.855056
0.15963 0.501098 0.855438
0.15976 0.563387 0.854942
0.15944 0.625837 0.854978
0.159623 0.68824 0.854977
0.222332 0.500855 0.855332
0.222128 0.563412 0.855056
0.222111 0.62588 0.85478
0.221994 0.688202 0.855029
0.034422 0.501939 0.896145
0.034295 0.563895 0.895652
0.0346739 0.62589 0.895045
0.0343936 0.687858 0.895361
0.0970994 0.501991 0.896279
0.0969996 0.563869 0.895397
0.0968776 0.625826 0.895175
0.0971685 0.687846 0.895224
0.159517 0.502048 0.896022
0.159487 0.563877 0.895563
0.159621 0.625742 0.894959
0.159437 0.687754 0.89532
0.222075 0.501981 0.89625
0.222063 0.563789 0.895242
0.221891 0.62572 0.895195
0.222064 0.687773 0.895235
0.0339875 0.502837 0.936037
0.0347843 0.564597 0.934932
0.034143 0.626069 0.935359
0.034736 0.687469 0.934695
0.0341358 0.74928 0.935393
0.097569 0.502812 0.93556
0.0966836 0.564666 0.935485
0.0972204 0.626044 0.934566
0.0965901 0.687426 0.935312
0.0975022 0.749417 0.934998
0.159172 0.50285 0.935946
0.159828 0.564503 0.934975
0.159075 0.626032 0.935341
0.159745 0.687482 0.934647
0.159031 0.749302 0.935429
0.222599 0.502791 0.935459
0.221674 0.564632 0.935535
0.222136 0.62595 0.934559
0.221456 0.687394 0.935259
0.222597 0.749378 0.934922
0.038061 0.502716 0.974371
0.0303306 0.564813 0.975347
0.0377045 0.626495 0.973649
0.0303238 0.688117 0.974961
0.0932078 0.502737 0.975456
0.100364 0.564788 0.973984
0.0927714 0.626558 0.975203
0.100337 0.688057 0.973354
0.163231 0.502632 0.974486
0.155247 0.564768 0.975368
0.162707 0.626459 0.973627
0.155381 0.688101 0.97513
0.218185 0.502771 0.975576
0.22522 0.564744 0.973921
0.217689 0.626493 0.975307
0.22529 0.688031 0.973405
0.0330904 0.532131 0.993541
0.0363566 0.596898 0.993352
0.0340845 0.656198 0.993266
0.0348952 0.720932 0.993166
0.09918 0.534519 0.993512
0.0959099 0.594353 0.993381
0.0984787 0.659044 0.993287
0.0977569 0.717988 0.99311
0.15809 0.532226 0.993564
0.161338 0.596888 0.993364
0.159218 0.656101 0.993262
0.159986 0.720965 0.99317
0.224097 0.534751 0.993524
0.22092 0.594121 0.993361
0.22335 0.659114 0.993301
0.22289 0.717895 0.993193
0.034293 0.532418 0.752877
0.0344938 0.5948 0.752924
0.0344195 0.657852 0.752775
0.0345987 0.720069 0.752481
0.0968854 0.532319 0.752819
0.0967449 0.594838 0.752864
0.0969694 0.657619 0.752808
0.0970824 0.72026 0.752461
0.159096 0.532418 0.752739
0.159297 0.594739 0.752891
0.159241 0.657704 0.752793
0.159267 0.719785 0.752437
0.221924 0.532146 0.752745
0.221785 0.594908 0.752945
0.221804 0.657485 0.752817
0.221818 0.720273 0.752461
0.0343666 0.531973 0.793955
0.0344549 0.594748 0.793914
0.0345134 0.657299 0.793841
0.0346727 0.720105 0.793769
0.0970249 0.532283 0.793838
0.0970656 0.594549 0.793915
0.0970242 0.657508 0.793818
0.0968007 0.719793 0.793768
0.159478 0.531951 0.793801
0.159366 0.594784 0.793881
0.159432 0.657294 0.793802
0.159694 0.719814 0.793725
0.222009 0.532218 0.793717
0.221969 0.594599 0.793869
0.221941 0.657433 0.793812
0.221922 0.719955 0.793758
0.0344042 0.532241 0.834951
0.0344188 0.594748 0.834759
0.034166 0.657148 0.834661
0.0342427 0.719645 0.834763
0.0969071 0.532232 0.83491
0.0968268 0.594495 0.834734
0.0968335 0.657154 0.834782
0.0971086 0.719543 0.834826
0.159612 0.532252 0.834854
0.159602 0.594644 0.834694
0.159607 0.657023 0.834682
0.159569 0.719502 0.834857
0.222118 0.532119 0.834821
0.222073 0.5946 0.834653
0.221961 0.65714 0.834617
0.222087 0.719625 0.834811
0.0346074 0.532799 0.875722
0.0342385 0.594694 0.875294
0.0343501 0.656996 0.875253
0.0344533 0.719011 0.875498
0.0969807 0.532607 0.875696
0.0971286 0.594861 0.875295
0.0970445 0.656925 0.875201
0.096826 0.719149 0.875468
0.159602 0.532787 0.875518
0.15947 0.594493 0.87523
0.159469 0.657021 0.875198
0.159893 0.718875 0.875535
0.222105 0.532386 0.875496
0.222131 0.594929 0.875163
0.222087 0.656819 0.875207
0.222029 0.719103 0.875467
0.0338849 0.533249 0.916166
0.0348139 0.59563 0.91554
0.0343704 0.656429 0.91547
0.0341736 0.718315 0.915878
0.0975289 0.533987 0.916145
0.0965199 0.595001 0.915495
0.0970556 0.656992 0.915417
0.0973495 0.718067 0.915865
0.159011 0.533314 0.916098
0.159865 0.595409 0.915504
0.159485 0.656293 0.915366
0.159242 0.718468 0.915779
0.222425 0.533904 0.916104
0.221547 0.594782 0.915447
0.221894 0.657013 0.915427
0.222257 0.717857 0.915844
0.0357088 0.534977 0.955413
0.0335557 0.59462 0.955183
0.0347386 0.657862 0.955115
0.0351691 0.717567 0.954989
0.0957953 0.533406 0.955454
0.0978662 0.59657 0.955127
0.0966235 0.655839 0.955015
0.096511 0.719214 0.955009
0.160756 0.534735 0.95546
0.158596 0.594598 0.955186
0.159722 0.65786 0.955062
0.1602 0.717444 0.954983
0.220872 0.533282 0.955454
0.222781 0.596479 0.955153
0.221624 0.655899 0.955031
0.221394 0.719259 0.954979
0.00318602 0.532218 0.773513
0.00321733 0.594866 0.773394
0.00322843 0.657553 0.773363
0.00330734 0.719999 0.773212
0.0656576 0.532371 0.773434
0.0656512 0.59482 0.773477
0.065744 0.657428 0.773349
0.0657427 0.720014 0.77323
0.128172 0.532166 0.773401
0.128131 0.594735 0.773347
0.128223 0.657395 0.773358
0.128248 0.719772 0.773302
0.19063 0.532456 0.773279
0.190628 0.594847 0.773397
0.190729 0.657368 0.773308
0.190752 0.72 0.773218
0.00319591 0.532167 0.814517
0.00316506 0.59478 0.814294
0.00317379 0.657214 0.814155
0.00321608 0.71986 0.814336
0.0657013 0.532201 0.814451
0.0657157 0.594603 0.814319
0.0656405 0.657365 0.814321
0.0657511 0.719695 0.814413
0.128302 0.532156 0.814449
0.128174 0.594626 0.814347
0.128258 0.657227 0.814335
0.128316 0.719578 0.814349
0.190858 0.532266 0.814415
0.190699 0.594673 0.814263
0.190728 0.657099 0.814142
0.190714 0.71976 0.814391
0.00322818 0.532373 0.855428
0.00314613 0.594694 0.854953
0.00315435 0.657051 0.854873
0.00317746 0.719472 0.855129
0.0657457 0.532351 0.855334
0.0657184 0.594722 0.855005
0.0656097 0.656989 0.854872
0.0657502 0.719333 0.855131
0.128315 0.532549 0.855266
0.128328 0.594543 0.854876
0.128265 0.657064 0.854859
0.128301 0.719297 0.855248
0.190921 0.532268 0.855193
0.190845 0.594677 0.854884
0.190769 0.656983 0.854866
0.190827 0.719437 0.85512
0.00321944 0.533218 0.895759
0.00320591 0.595123 0.895468
0.00316372 0.656678 0.895306
0.00326344 0.718571 0.895606
0.0657192 0.533185 0.896052
0.0656999 0.594932 0.895211
0.0657297 0.656919 0.895286
0.0658065 0.718386 0.895757
0.128307 0.53309 0.895749
0.128215 0.595059 0.89538
0.128225 0.656653 0.895163
0.128316 0.718751 0.895521
0.190772 0.533144 0.895926
0.190768 0.594775 0.895082
0.190779 0.656759 0.89527
0.19087 0.718446 0.895716
0.00332363 0.53475 0.936092
0.00330696 0.595359 0.93483
0.00324414 0.656855 0.935145
0.00332842 0.717477 0.935505
0.0658567 0.533789 0.935226
0.0657657 0.595741 0.935442
0.065765 0.656306 0.935012
0.0659119 0.718237 0.935016
0.128397 0.534614 0.936074
0.128334 0.595204 0.934844
0.128349 0.656784 0.935103
0.12835 0.717484 0.935457
0.190887 0.533771 0.935257
0.190794 0.595687 0.935484
0.190763 0.65628 0.934948
0.190863 0.718371 0.934942
0.00337759 0.530894 0.97371
0.0032459 0.599923 0.97533
0.00328818 0.653425 0.974219
0.0034284 0.721923 0.973947
0.0658636 0.538383 0.975784
0.0657815 0.592433 0.973743
0.0658255 0.66097 0.974851
0.0659449 0.714584 0.974766
0.128437 0.53076 0.973663
0.12826 0.599913 0.975268
0.128388 0.653398 0.974266
0.128495 0.721947 0.974031
0.19079 0.538262 0.975761
0.190718 0.592294 0.973792
0.190844 0.660924 0.974774
0.191026 0.714606 0.974768
0.162879 0.749855 0.973502
0.218241 0.749884 0.975033
0.0345922 0.749721 0.895737
0.0969469 0.749775 0.895903
0.159722 0.749743 0.895708
0.22207 0.749714 0.89587
0.0931268 0.749889 0.975006
0.0378456 0.749874 0.973491
0.0322815 0.75072 0.0133053
0.037395 0.812896 0.0112829
0.0326698 0.875514 0.013366
0.0379008 0.938315 0.0125139
0.0994593 0.750741 0.0111332
0.0946413 0.812812 0.0130376
0.100266 0.875514 0.0117048
0.0959328 0.938335 0.0144189
0.157393 0.750696 0.0132413
0.16243 0.81292 0.0112655
0.1576 0.875497 0.013321
0.16289 0.938332 0.0125402
0.224338 0.750653 0.0111
0.219751 0.812895 0.013143
0.225274 0.875541 0.0117845
0.220904 0.938377 0.0143695
0.0374409 0.751707 0.0487735
0.0320537 0.813897 0.0508599
0.0381585 0.876261 0.0493803
0.0330195 0.938587 0.0517014
0.0946374 0.751711 0.0511316
0.0999609 0.81386 0.0486945
0.0950338 0.876208 0.0512222
0.100952 0.938588 0.0495177
0.162417 0.751655 0.0487205
0.157144 0.813849 0.0509226
0.162966 0.876262 0.0493511
0.157874 0.938645 0.0516472
0.219672 0.751674 0.0512199
0.224915 0.813869 0.0486693
0.220052 0.876199 0.0511858
0.22593 0.93857 0.0495424
0.0320458 0.751766 0.0886531
0.0378154 0.813978 0.0862314
0.0325909 0.876336 0.0888384
0.0386901 0.938716 0.0872808
0.100246 0.751834 0.0862624
0.0945045 0.814126 0.0884858
0.100714 0.876445 0.0867879
0.0955713 0.938755 0.0894301
0.157054 0.751859 0.0887261
0.162956 0.814028 0.0862104
0.157601 0.876327 0.0888045
0.163621 0.938731 0.0872488
0.225069 0.751852 0.0861572
0.219527 0.814138 0.0885109
0.225832 0.876476 0.086766
0.220457 0.938741 0.0894591
0.0378743 0.751655 0.123625
0.0321057 0.813985 0.126044
0.038342 0.876391 0.124202
0.0328407 0.938766 0.126859
0.0946381 0.751685 0.126146
0.10037 0.813999 0.123593
0.0949672 0.876342 0.12634
0.100872 0.938786 0.124658
0.162844 0.751685 0.123643
0.157006 0.813963 0.126037
0.16309 0.876384 0.124119
0.157938 0.938837 0.126913
0.219616 0.751679 0.126243
0.22539 0.813983 0.123597
0.220064 0.87626 0.126409
0.225892 0.938744 0.124572
0.032034 0.751514 0.16355
0.037911 0.813881 0.160982
0.0323139 0.876317 0.163725
0.0384017 0.938873 0.161966
0.100424 0.751571 0.161081
0.0944947 0.81384 0.163504
0.100775 0.876449 0.16157
0.0952811 0.938869 0.164272
0.157087 0.75157 0.163617
0.163003 0.81388 0.160993
0.15734 0.87631 0.163679
0.163253 0.938846 0.16201
0.225338 0.751559 0.161049
0.219456 0.813906 0.163571
0.225664 0.87646 0.161444
0.220249 0.938846 0.16432
0.0376792 0.751434 0.198404
0.0320309 0.813765 0.200907
0.0379947 0.876292 0.198807
0.0326943 0.938821 0.201602
0.0945466 0.751489 0.201069
0.100291 0.813771 0.198312
0.0948307 0.876276 0.201071
0.100618 0.938806 0.199278
0.162646 0.751487 0.198402
0.156912 0.813828 0.200976
0.163163 0.876328 0.198847
0.157751 0.938801 0.201585
0.21945 0.751577 0.201044
0.225296 0.813774 0.198259
0.219961 0.876178 0.201167
0.225659 0.938806 0.199266
0.0317795 0.751399 0.238417
0.0375227 0.813745 0.235685
0.0322614 0.876178 0.238478
0.03785 0.938798 0.236516
0.0999033 0.751387 0.235793
0.0943984 0.813788 0.238373
0.100251 0.876271 0.236132
0.0951274 0.938825 0.238958
0.15677 0.751431 0.238382
0.162632 0.813736 0.235698
0.157268 0.876285 0.238516
0.162881 0.938796 0.236582
0.225055 0.751408 0.235769
0.219342 0.813733 0.23838
0.22533 0.876269 0.236073
0.220237 0.938737 0.238974
0.0341024 0.784124 0.0310783
0.0372622 0.843089 0.0308652
0.0335422 0.908632 0.032024
0.0368433 0.968014 0.0321632
0.0989026 0.780457 0.0310196
0.0953756 0.846114 0.030866
0.0995805 0.905225 0.0319429
0.0963392 0.971713 0.0321718
0.159064 0.784104 0.0310966
0.162222 0.843032 0.0308719
0.158516 0.908627 0.0319929
0.161776 0.96807 0.0320897
0.223905 0.780407 0.0310399
0.220429 0.846204 0.0309486
0.224457 0.905421 0.0319454
0.22137 0.971608 0.032152
0.0357212 0.780892 0.0686626
0.0330695 0.846649 0.0685459
0.0375705 0.905743 0.0695608
0.033697 0.971397 0.0696949
0.0973949 0.784855 0.0687278
0.100034 0.843229 0.0684497
0.0957852 0.90922 0.0695462
0.0997627 0.967741 0.0696397
0.160882 0.780814 0.0687264
0.158002 0.846717 0.0685099
0.162634 0.905782 0.0695699
0.158842 0.971372 0.0696183
0.222369 0.784995 0.0686946
0.22502 0.843287 0.0684421
0.220672 0.90916 0.0695741
0.224584 0.967649 0.0696228
0.0355378 0.785002 0.106222
0.0373435 0.843135 0.106044
0.0330739 0.909214 0.107046
0.037321 0.967782 0.107133
0.0978057 0.780883 0.106195
0.0957685 0.84696 0.106066
0.100272 0.905702 0.107059
0.0960414 0.971625 0.107124
0.160612 0.78495 0.106281
0.162318 0.843164 0.106011
0.158076 0.909335 0.107041
0.162279 0.967907 0.107138
0.222856 0.780894 0.10622
0.220871 0.847068 0.106017
0.225242 0.905594 0.107018
0.220972 0.971657 0.107076
0.0348931 0.78057 0.14363
0.0337414 0.847058 0.143516
0.0376292 0.905623 0.144447
0.0332995 0.971782 0.144523
0.098485 0.784899 0.143679
0.0994498 0.843017 0.143523
0.0956352 0.909391 0.144458
0.0998327 0.967859 0.144505
0.159862 0.780637 0.143659
0.15878 0.846897 0.143491
0.162606 0.905661 0.144456
0.158379 0.971831 0.144532
0.223466 0.784995 0.143695
0.224552 0.842938 0.143504
0.22063 0.909524 0.144402
0.224814 0.967837 0.144498
0.0362541 0.784753 0.181065
0.0367732 0.842907 0.180871
0.0331241 0.909316 0.181811
0.0373031 0.967884 0.181844
0.096941 0.780416 0.181078
0.0964881 0.846916 0.180921
0.10014 0.905557 0.18181
0.0956157 0.971847 0.181854
0.16112 0.784845 0.181084
0.161677 0.842943 0.180903
0.158016 0.909324 0.181805
0.162262 0.967856 0.181854
0.222084 0.780344 0.181041
0.221589 0.847103 0.180898
0.225026 0.905509 0.181821
0.220605 0.9719 0.181864
0.0340617 0.780248 0.218433
0.0341213 0.847024 0.218281
0.0375159 0.905377 0.219147
0.0330962 0.97194 0.219164
0.0988749 0.7849 0.218472
0.09902 0.842795 0.218226
0.0956235 0.90934 0.219193
0.0997804 0.967791 0.219155
0.159167 0.78024 0.218425
0.159129 0.847094 0.218293
0.162471 0.905461 0.219165
0.158016 0.971868 0.219199
0.223777 0.784862 0.218453
0.2239 0.842682 0.218258
0.220537 0.909466 0.219164
0.224697 0.967739 0.21919
0.00375116 0.78403 0.0113628
0.00378683 0.841507 0.0132132
0.00407733 0.908937 0.0125467
0.00428164 0.967456 0.0142216
0.0662226 0.778974 0.01293
0.0663317 0.846681 0.0107942
0.0665532 0.904266 0.0142683
0.0667409 0.971486 0.0127534
0.128811 0.784019 0.0113024
0.128779 0.841405 0.0132605
0.129142 0.909077 0.0125509
0.129174 0.967463 0.0142402
0.19124 0.779095 0.0130013
0.191307 0.846767 0.0108235
0.191556 0.90427 0.0142175
0.191694 0.971572 0.0128047
0.00383832 0.780234 0.0503672
0.00390831 0.847938 0.0483438
0.00415609 0.904832 0.0520345
0.0043402 0.972704 0.0500076
0.0663586 0.785609 0.0494076
0.0663301 0.842337 0.0509515
0.0667059 0.910322 0.0496395
0.0668357 0.967194 0.0519215
0.128884 0.780092 0.0504146
0.128815 0.847766 0.0482329
0.129121 0.904821 0.0521145
0.129275 0.972844 0.0499731
0.191395 0.785424 0.0493499
0.191346 0.842488 0.0509573
0.191644 0.910312 0.0496317
0.191784 0.967259 0.0518331
0.00399794 0.78583 0.0874278
0.00397298 0.842383 0.0884874
0.00427145 0.910603 0.0869656
0.00436432 0.967425 0.089461
0.0664963 0.780155 0.0875222
0.0664802 0.848189 0.0859692
0.0667657 0.905027 0.0897499
0.0668654 0.972905 0.0872895
0.128988 0.786115 0.0874605
0.128957 0.842455 0.0885648
0.129273 0.910678 0.0869848
0.129371 0.967459 0.0894747
0.19151 0.780191 0.0876414
0.191511 0.848171 0.0859667
0.191767 0.904869 0.0897428
0.191833 0.97301 0.0873115
0.00402036 0.780097 0.124662
0.00405579 0.848293 0.123698
0.00419545 0.904922 0.127235
0.00417682 0.972944 0.124672
0.0665752 0.786063 0.12522
0.0665318 0.842345 0.125822
0.0666848 0.910687 0.1245
0.0666513 0.967707 0.127016
0.129092 0.780076 0.12472
0.12901 0.848218 0.123736
0.129168 0.905 0.127255
0.12919 0.972928 0.124712
0.191581 0.785932 0.125207
0.191524 0.842379 0.125821
0.191705 0.910491 0.124462
0.191692 0.967677 0.126987
0.00399313 0.785924 0.162792
0.00403423 0.842184 0.163035
0.00415712 0.910837 0.161836
0.00406132 0.967698 0.164427
0.0664907 0.779888 0.161921
0.0665603 0.848287 0.161311
0.066655 0.905005 0.16455
0.0666092 0.973237 0.162057
0.12899 0.785975 0.16283
0.128982 0.84229 0.163037
0.129168 0.910739 0.16192
0.129101 0.967702 0.164462
0.191523 0.780013 0.16195
0.191535 0.848342 0.161278
0.19158 0.90498 0.16456
0.191562 0.973087 0.162019
0.00394378 0.780035 0.199138
0.00397392 0.848082 0.198851
0.00400967 0.904938 0.20191
0.00403639 0.973098 0.199294
0.0664196 0.785812 0.200397
0.0664357 0.842255 0.200225
0.0665542 0.910569 0.199331
0.0665422 0.967662 0.201831
0.128948 0.780013 0.199195
0.128934 0.848208 0.198743
0.129064 0.904905 0.201955
0.129019 0.973057 0.19927
0.191398 0.785936 0.200288
0.191471 0.842139 0.200219
0.191638 0.910524 0.199289
0.191505 0.967721 0.201841
0.00373733 0.78565 0.237865
0.00384062 0.842311 0.237548
0.00397074 0.910452 0.23668
0.00389821 0.967846 0.239053
0.0662443 0.77998 0.236399
0.0664426 0.848042 0.236219
0.066457 0.905034 0.239244
0.0664422 0.97295 0.236599
0.128732 0.785708 0.237835
0.128917 0.842227 0.23754
0.128948 0.910398 0.236665
0.12887 0.967806 0.239143
0.19126 0.779893 0.236355
0.191416 0.848149 0.236281
0.191487 0.905026 0.239219
0.19142 0.972909 0.23667
0.0372603 0.751414 0.273149
0.0317251 0.813874 0.275679
0.0378249 0.87642 0.273424
0.0326036 0.938966 0.27623
0.0942303 0.751408 0.275658
0.10004 0.81389 0.273027
0.0946727 0.876344 0.275922
0.100378 0.938928 0.27379
0.162363 0.751352 0.273192
0.156759 0.813786 0.275698
0.162839 0.876378 0.273452
0.157493 0.938938 0.276278
0.219353 0.751425 0.275697
0.22505 0.813836 0.273086
0.219675 0.876317 0.275879
0.22534 0.938854 0.273885
0.0318303 0.751408 0.313033
0.0374352 0.813893 0.310357
0.0320993 0.876451 0.313173
0.0379864 0.939012 0.311044
0.0997479 0.751391 0.310544
0.0941926 0.81389 0.312975
0.100303 0.876478 0.310756
0.0949139 0.938982 0.313616
0.156789 0.751459 0.313025
0.162514 0.813887 0.310339
0.157001 0.876452 0.313167
0.162872 0.939049 0.311117
0.224815 0.751442 0.310521
0.219198 0.813917 0.312953
0.225297 0.876511 0.31084
0.219869 0.939035 0.313599
0.037238 0.751364 0.347793
0.0315627 0.813882 0.35028
0.0377419 0.876517 0.348048
0.0322585 0.939034 0.350888
0.0943879 0.751421 0.350209
0.0998799 0.813891 0.347669
0.0944993 0.876403 0.350455
0.100288 0.939021 0.34845
0.162151 0.751405 0.347849
0.15661 0.813876 0.350265
0.162793 0.876505 0.348093
0.157217 0.939086 0.350906
0.219349 0.751405 0.350309
0.224984 0.8139 0.347708
0.219409 0.876421 0.35044
0.225288 0.939085 0.348532
0.0317205 0.751281 0.387619
0.0373962 0.813793 0.384963
0.0317971 0.876381 0.387754
0.0376904 0.939033 0.385798
0.0996209 0.751321 0.385088
0.0940875 0.813817 0.387615
0.100236 0.876446 0.385388
0.094656 0.939076 0.388153
0.156719 0.75131 0.387542
0.162441 0.813852 0.384998
0.156752 0.87648 0.38781
0.16266 0.939058 0.385889
0.22468 0.751365 0.385113
0.219006 0.81382 0.387553
0.225289 0.876492 0.385458
0.219535 0.939094 0.388184
0.0371105 0.751238 0.42241
0.0314325 0.813715 0.42482
0.0374685 0.87647 0.422816
0.0319758 0.939073 0.425486
0.0941189 0.751193 0.4248
0.0998093 0.813799 0.422324
0.0941583 0.876436 0.425139
0.0999433 0.93909 0.42321
0.162156 0.751186 0.422432
0.156468 0.813787 0.424821
0.162537 0.876467 0.422776
0.156982 0.939104 0.425496
0.219092 0.751165 0.424782
0.224762 0.813821 0.422333
0.219216 0.876434 0.425036
0.224883 0.939104 0.423166
0.0315377 0.75106 0.462099
0.037111 0.813676 0.459727
0.0314062 0.876436 0.462365
0.037521 0.939141 0.460683
0.099399 0.751105 0.459712
0.0937391 0.813706 0.462083
0.0999925 0.876463 0.460237
0.0943839 0.939097 0.462738
0.156448 0.751065 0.462072
0.162125 0.81371 0.459669
0.15643 0.876379 0.462431
0.162515 0.93913 0.460672
0.224487 0.751162 0.45971
0.218687 0.813678 0.462081
0.224911 0.876518 0.460219
0.219234 0.93916 0.462771
0.0368367 0.75095 0.496973
0.0373014 0.876417 0.497674
0.0994871 0.81358 0.497189
0.161832 0.750913 0.496998
0.1624 0.876348 0.497596
0.224551 0.813621 0.497197
0.00325493 0.973431 0.497924
0.0364008 0.784829 0.255795
0.0363736 0.842782 0.255614
0.0330224 0.909446 0.256499
0.037192 0.967848 0.256442
0.0962206 0.780268 0.255807
0.0966339 0.847209 0.255662
0.0997665 0.905373 0.256487
0.095463 0.971994 0.256452
0.161472 0.784677 0.255791
0.161344 0.842746 0.255639
0.158067 0.909517 0.256501
0.16212 0.967849 0.256494
0.221255 0.780265 0.255776
0.2218 0.847091 0.255669
0.224776 0.905407 0.256483
0.22046 0.97201 0.256503
0.0334443 0.780344 0.293088
0.034056 0.847283 0.293
0.0372044 0.90548 0.293796
0.0328764 0.972191 0.293753
0.0990029 0.784728 0.293094
0.0986474 0.842841 0.292923
0.0955143 0.909699 0.293795
0.0994721 0.968004 0.293741
0.158486 0.780254 0.293108
0.159061 0.847263 0.292994
0.162219 0.905593 0.293789
0.157876 0.972121 0.293807
0.224018 0.784764 0.293103
0.223824 0.842958 0.292986
0.220491 0.909656 0.293837
0.224451 0.967993 0.293835
0.0365393 0.784648 0.330381
0.0360367 0.842856 0.330266
0.0328216 0.909819 0.331086
0.0370471 0.967992 0.331133
0.0956883 0.780425 0.330373
0.0966248 0.84721 0.33031
0.0996433 0.905547 0.3311
0.095163 0.972227 0.331121
0.161603 0.784744 0.33039
0.161111 0.842888 0.330235
0.157705 0.909688 0.331124
0.161943 0.968053 0.331143
0.220725 0.780405 0.33039
0.221614 0.847227 0.33037
0.224558 0.905633 0.331138
0.220219 0.972155 0.331144
0.0329991 0.780233 0.367682
0.0342658 0.847174 0.367597
0.0370115 0.905546 0.368466
0.0326406 0.972188 0.368422
0.0990818 0.784584 0.367699
0.0983461 0.842791 0.367581
0.0952816 0.909663 0.368453
0.0995711 0.96805 0.368437
0.158126 0.780377 0.367711
0.159121 0.847127 0.367633
0.162064 0.905546 0.368493
0.157671 0.972167 0.368448
0.223996 0.784712 0.367711
0.223347 0.842948 0.367604
0.220197 0.909602 0.368483
0.22444 0.968087 0.368413
0.0364828 0.784498 0.405004
0.0355573 0.842959 0.404845
0.0327094 0.909601 0.405803
0.0368841 0.968127 0.405759
0.0954439 0.78028 0.40501
0.0967888 0.847271 0.404932
0.0993556 0.905633 0.405794
0.0950138 0.972243 0.405757
0.161379 0.784514 0.405005
0.160616 0.842984 0.404874
0.157735 0.909695 0.405825
0.161899 0.968254 0.405786
0.22044 0.780372 0.40503
0.221718 0.847182 0.404922
0.224369 0.905671 0.405791
0.219988 0.97218 0.40575
0.0329621 0.780277 0.442315
0.0342611 0.847036 0.442212
0.0367303 0.905803 0.443143
0.0324131 0.972171 0.443122
0.098838 0.784411 0.442285
0.0977763 0.843045 0.442176
0.0951307 0.909554 0.443189
0.0993051 0.968333 0.443106
0.157931 0.780354 0.442283
0.159243 0.847058 0.442238
0.16167 0.905757 0.443178
0.157296 0.97209 0.443173
0.223796 0.784389 0.442253
0.222718 0.843158 0.442194
0.220098 0.909557 0.443133
0.22417 0.968361 0.443128
0.0363266 0.784293 0.479597
0.0349709 0.843022 0.479569
0.0324904 0.909419 0.480519
0.03675 0.968623 0.480484
0.0953492 0.780308 0.479636
0.0966621 0.846814 0.479569
0.0990972 0.905923 0.48054
0.0946896 0.972048 0.480494
0.161237 0.784299 0.479581
0.15989 0.842882 0.479534
0.157604 0.909371 0.480527
0.161878 0.968494 0.480539
0.220225 0.780284 0.479609
0.221782 0.846818 0.479546
0.224169 0.905867 0.480543
0.21969 0.971994 0.480526
0.00367794 0.780145 0.273476
0.00382269 0.848203 0.273557
0.00390774 0.905099 0.276518
0.00382715 0.973189 0.273889
0.0661483 0.785714 0.275285
0.066225 0.842325 0.274852
0.0663823 0.910644 0.274034
0.0662613 0.967894 0.27638
0.128706 0.780017 0.273586
0.128804 0.848168 0.273565
0.128878 0.905047 0.276521
0.128797 0.973144 0.273947
0.191168 0.785685 0.275308
0.191264 0.842298 0.27489
0.191389 0.910501 0.274018
0.191294 0.967858 0.276426
0.00358577 0.785751 0.312689
0.00368214 0.842368 0.312177
0.00379316 0.910833 0.311249
0.00375457 0.967924 0.31371
0.0661293 0.780204 0.310788
0.0662042 0.848312 0.310954
0.0663342 0.905028 0.313833
0.0662305 0.973316 0.311229
0.128609 0.785801 0.312656
0.128696 0.842357 0.312183
0.128792 0.910701 0.311318
0.128699 0.967934 0.313729
0.1911 0.780088 0.310785
0.191279 0.848294 0.311003
0.191255 0.905061 0.313936
0.191195 0.973337 0.311275
0.00353753 0.780173 0.347961
0.00369522 0.84832 0.348374
0.00373751 0.905065 0.351155
0.00363121 0.973321 0.348498
0.0660325 0.785794 0.35011
0.0661119 0.842382 0.349386
0.0661577 0.910753 0.348568
0.0661752 0.967914 0.351126
0.128556 0.780261 0.347995
0.128663 0.848297 0.348338
0.128691 0.905074 0.351223
0.128607 0.973356 0.34854
0.191022 0.78575 0.350065
0.191102 0.842377 0.349448
0.19116 0.910856 0.348639
0.191094 0.96786 0.351054
0.0033977 0.785666 0.387397
0.00355427 0.842311 0.386562
0.0035887 0.910816 0.386001
0.00351902 0.967982 0.388439
0.0660121 0.780014 0.385292
0.0661549 0.848208 0.385724
0.0661531 0.905002 0.388463
0.0660523 0.973303 0.385819
0.128483 0.78569 0.387386
0.128541 0.842314 0.386619
0.128567 0.910915 0.386038
0.128528 0.96795 0.38844
0.190914 0.780059 0.385271
0.191104 0.848448 0.385742
0.191129 0.905019 0.388514
0.191004 0.973387 0.385857
0.00337382 0.779981 0.422602
0.00355473 0.848207 0.423109
0.00346718 0.905131 0.425823
0.00342478 0.973392 0.423183
0.0658642 0.785661 0.424695
0.0659098 0.84231 0.423749
0.0659247 0.910848 0.423413
0.0659218 0.968016 0.425809
0.12842 0.779866 0.422569
0.128469 0.848308 0.423075
0.128439 0.905055 0.425836
0.12837 0.973381 0.423159
0.190832 0.785601 0.424617
0.190944 0.842356 0.423799
0.190962 0.910796 0.423372
0.190884 0.968063 0.425848
0.00322767 0.785516 0.461984
0.00326867 0.842301 0.461021
0.00332946 0.910934 0.460718
0.00332006 0.967994 0.463204
0.0657292 0.779872 0.45984
0.0657621 0.848356 0.460487
0.0658643 0.905007 0.463211
0.0658404 0.973615 0.460528
0.128173 0.785471 0.461977
0.12819 0.842248 0.46106
0.128358 0.910886 0.460813
0.128282 0.967978 0.463256
0.190681 0.779762 0.459815
0.190735 0.848311 0.46055
0.190851 0.905042 0.463204
0.190805 0.97356 0.460517
0.00309207 0.779857 0.497153
0.00323691 0.847973 0.498009
0.128149 0.779897 0.497157
0.128237 0.848083 0.498019
0.190667 0.842217 0.498198
0.12825 0.973523 0.497933
0.190721 0.91095 0.498158
0.0940111 0.876319 0.499711
0.065671 0.842296 0.498245
0.218815 0.876354 0.499636
0.0658111 0.910785 0.498132
0.0998526 0.939236 0.498102
0.224925 0.939188 0.498098
0.0657107 0.785269 0.499296
0.219042 0.750923 0.499333
0.0313603 0.813533 0.499458
0.0940465 0.750836 0.499389
0.190633 0.785402 0.499206
0.156312 0.813554 0.499507
0.0352116 0.750096 0.571833
0.0317409 0.750419 0.536439
0.0366592 0.813453 0.534632
0.0314969 0.876578 0.53696
0.0372542 0.939599 0.535713
0.098874 0.75051 0.53456
0.0940982 0.813469 0.536641
0.0997382 0.876617 0.535308
0.0942844 0.939557 0.537236
0.15666 0.750478 0.53644
0.161643 0.813467 0.534631
0.15645 0.876582 0.536929
0.162018 0.939624 0.535728
0.223944 0.750492 0.534586
0.218916 0.813477 0.536555
0.224654 0.876658 0.535361
0.219277 0.939589 0.537281
0.033041 0.813158 0.572882
0.0365199 0.87681 0.572178
0.0311366 0.940233 0.574378
0.0982234 0.813307 0.571916
0.0943155 0.87671 0.573321
0.100203 0.94016 0.573414
0.158069 0.813214 0.572852
0.16167 0.876843 0.572179
0.156087 0.940222 0.574354
0.223296 0.813333 0.571951
0.219451 0.876791 0.573321
0.225274 0.940311 0.573355
0.0349486 0.812514 0.610311
0.0331851 0.876599 0.611272
0.0349238 0.940388 0.612666
0.0962114 0.812433 0.610542
0.0976536 0.876667 0.61081
0.0959537 0.940251 0.613031
0.160011 0.812463 0.610329
0.158413 0.876637 0.611184
0.159972 0.940389 0.612561
0.221154 0.812449 0.610594
0.22273 0.87682 0.610717
0.220959 0.940422 0.613026
0.0344041 0.812824 0.649451
0.034336 0.87617 0.649127
0.0343639 0.940379 0.651852
0.0970091 0.812763 0.649347
0.0969012 0.876126 0.649318
0.0969663 0.940458 0.651748
0.15948 0.812761 0.649487
0.159396 0.876181 0.649065
0.159383 0.94038 0.65177
0.221979 0.812815 0.649357
0.221953 0.876111 0.649308
0.22192 0.94053 0.651726
0.0345116 0.75107 0.69093
0.0344736 0.813691 0.68989
0.0344701 0.876178 0.688578
0.0345454 0.938921 0.692535
0.0970532 0.751051 0.690904
0.0971145 0.813656 0.689886
0.097098 0.876087 0.688505
0.0969104 0.939038 0.69239
0.159623 0.751017 0.690843
0.159595 0.813664 0.689786
0.159577 0.876155 0.688562
0.159527 0.939025 0.692359
0.22203 0.751081 0.690921
0.222097 0.813864 0.689928
0.222191 0.876288 0.688438
0.221909 0.939088 0.69242
0.0345842 0.751362 0.731985
0.0346746 0.813839 0.731314
0.0342286 0.875701 0.731797
0.0343419 0.938522 0.734909
0.0969452 0.75133 0.731838
0.097156 0.81394 0.731113
0.0970855 0.875757 0.730626
0.0969554 0.938586 0.734789
0.159419 0.751338 0.731935
0.159628 0.813997 0.731094
0.159488 0.87578 0.730642
0.159798 0.938481 0.734763
0.221932 0.751328 0.731807
0.221949 0.813788 0.731065
0.223518 0.875964 0.732118
0.222575 0.938391 0.734841
0.0327268 0.780043 0.516898
0.0344737 0.846675 0.516951
0.0363017 0.90625 0.517919
0.03234 0.972118 0.517933
0.0987445 0.783787 0.51694
0.0971469 0.843126 0.516942
0.0950743 0.909277 0.517896
0.0990396 0.969145 0.517914
0.157718 0.780007 0.516903
0.159528 0.846678 0.516944
0.161297 0.906282 0.517892
0.157163 0.972168 0.517937
0.223602 0.783828 0.51694
0.222099 0.843321 0.51693
0.220021 0.90936 0.517914
0.224076 0.969097 0.517921
0.0358332 0.78282 0.554237
0.0344068 0.84344 0.554247
0.0329345 0.909526 0.555316
0.0359543 0.969986 0.555509
0.0954523 0.780335 0.554191
0.0973193 0.846028 0.554363
0.0983597 0.907305 0.555283
0.0950297 0.972068 0.555574
0.160983 0.78286 0.554212
0.159401 0.843492 0.554225
0.157886 0.909658 0.555318
0.160861 0.969994 0.555501
0.220603 0.780423 0.554167
0.222289 0.845933 0.554323
0.2233 0.907333 0.555321
0.220173 0.972275 0.555566
0.0334939 0.780978 0.591887
0.0346133 0.84617 0.591898
0.0353071 0.908964 0.592951
0.0331131 0.97285 0.593518
0.0976481 0.781975 0.591908
0.096735 0.845147 0.591843
0.0957103 0.909979 0.592974
0.0978187 0.971735 0.593509
0.158554 0.781129 0.591833
0.159691 0.846129 0.591844
0.160264 0.909091 0.592926
0.158104 0.972824 0.593457
0.22276 0.781959 0.591871
0.221702 0.84519 0.591863
0.22064 0.910094 0.592903
0.222792 0.971729 0.593444
0.0347892 0.781657 0.630511
0.034477 0.845015 0.629562
0.0336898 0.909273 0.631458
0.0347737 0.972043 0.632063
0.0966638 0.781336 0.630468
0.0970063 0.845284 0.629579
0.0972736 0.909041 0.631446
0.0963333 0.972434 0.632098
0.159834 0.781469 0.630514
0.159421 0.844923 0.629574
0.158733 0.909362 0.631297
0.159794 0.971807 0.631991
0.221409 0.78133 0.630466
0.22185 0.845361 0.629533
0.222203 0.909118 0.63142
0.221189 0.972526 0.632065
0.0344773 0.781979 0.670179
0.034616 0.845355 0.668792
0.0345105 0.908945 0.670905
0.0343188 0.970992 0.672489
0.0971678 0.782143 0.670178
0.0969765 0.845173 0.668824
0.0967437 0.908832 0.67084
0.0969301 0.971056 0.67244
0.159546 0.7819 0.670183
0.159632 0.845444 0.668814
0.159538 0.908742 0.670935
0.159172 0.97124 0.672426
0.222037 0.782292 0.670156
0.222038 0.845216 0.668776
0.22166 0.909065 0.670785
0.221893 0.971071 0.67242
0.0345054 0.782933 0.710792
0.0342533 0.846852 0.709458
0.034254 0.908214 0.713917
0.0344289 0.96981 0.714166
0.0970317 0.782902 0.710799
0.0968434 0.846834 0.709351
0.0968406 0.908709 0.713492
0.097031 0.969697 0.714021
0.159641 0.782869 0.710663
0.159907 0.846797 0.709286
0.159683 0.90845 0.713407
0.159658 0.969719 0.714117
0.222061 0.782899 0.710754
0.222512 0.847372 0.709331
0.222524 0.907694 0.71365
0.222052 0.96968 0.71414
0.003241 0.905086 0.500464
0.0969796 0.750241 0.650548
0.0657081 0.968302 0.500593
0.128246 0.905003 0.500468
0.221992 0.750246 0.650548
0.0345761 0.750183 0.650447
0.159546 0.750168 0.650424
0.190731 0.968159 0.500692
0.00308135 0.784934 0.536405
0.00312889 0.842641 0.535348
0.00322257 0.911038 0.535686
0.00314565 0.96884 0.537998
0.0655165 0.780104 0.534418
0.0656993 0.848061 0.535476
0.0656698 0.905479 0.537721
0.0656647 0.973771 0.535524
0.128059 0.784938 0.536409
0.128149 0.842707 0.535342
0.128119 0.91102 0.53567
0.128049 0.968825 0.538005
0.190572 0.779959 0.534405
0.190679 0.848073 0.535517
0.190568 0.90553 0.537747
0.190634 0.973791 0.535608
0.00314759 0.781 0.57182
0.00321878 0.847315 0.572816
0.0030608 0.906822 0.574692
0.00313844 0.975949 0.573345
0.0657288 0.783146 0.573238
0.0656832 0.843918 0.572509
0.0655897 0.912284 0.573176
0.0655528 0.968946 0.575248
0.128185 0.780996 0.571789
0.128292 0.847415 0.572823
0.128074 0.906696 0.574695
0.128001 0.975893 0.573355
0.190745 0.783191 0.573199
0.190734 0.843914 0.572484
0.190569 0.912343 0.573203
0.19046 0.968847 0.575247
0.00316983 0.782336 0.611207
0.00308507 0.844734 0.610423
0.00297985 0.910472 0.611782
0.00293685 0.972275 0.61332
0.0657127 0.781043 0.610469
0.0656131 0.846429 0.610652
0.0654648 0.908845 0.612632
0.0654304 0.973389 0.612378
0.128266 0.782228 0.611204
0.12815 0.84477 0.61042
0.127964 0.910517 0.611689
0.127892 0.972111 0.613244
0.190664 0.781028 0.610417
0.190647 0.846427 0.610668
0.190502 0.908914 0.612594
0.190439 0.973522 0.612354
0.00322882 0.781623 0.649978
0.003233 0.844911 0.648822
0.00307473 0.909571 0.651042
0.00310948 0.971845 0.652126
0.0657315 0.781707 0.650001
0.0658083 0.844851 0.648743
0.065572 0.90972 0.650617
0.0655571 0.971798 0.652408
0.128318 0.781606 0.64992
0.12825 0.844764 0.648748
0.128084 0.909589 0.650953
0.128098 0.972008 0.651995
0.190772 0.78165 0.65004
0.190653 0.844811 0.648773
0.190559 0.909661 0.650623
0.190541 0.971822 0.652374
0.0032981 0.782508 0.690397
0.00333134 0.845298 0.688879
0.00328039 0.908478 0.691252
0.00319916 0.970273 0.693088
0.0657887 0.7825 0.690403
0.0657871 0.845186 0.688924
0.0657789 0.908408 0.69117
0.0656675 0.970356 0.69298
0.128313 0.782417 0.690382
0.128367 0.845266 0.688917
0.128147 0.908569 0.691019
0.12819 0.970376 0.692944
0.190882 0.782541 0.690332
0.190827 0.845361 0.688925
0.190777 0.908347 0.691165
0.190677 0.970429 0.693005
0.00347146 0.78265 0.731561
0.00344203 0.845069 0.731308
0.00351352 0.90661 0.734869
0.0033627 0.969915 0.734764
0.0658666 0.782702 0.731556
0.0657932 0.845048 0.730707
0.0658953 0.907641 0.73372
0.0657833 0.969559 0.734774
0.128349 0.782823 0.731332
0.128286 0.845166 0.730512
0.128355 0.90785 0.733467
0.128314 0.969631 0.734636
0.190648 0.782753 0.731455
0.190913 0.845415 0.730543
0.190942 0.907566 0.733568
0.190938 0.969499 0.734901
0.160253 0.750003 0.571746
0.0319445 0.939237 0.500063
0.156712 0.939193 0.500051
0.0344284 0.751203 0.773157
0.035106 0.813432 0.772878
0.0349116 0.875669 0.775023
0.0344579 0.938292 0.776206
0.0972286 0.751058 0.773182
0.0971427 0.813408 0.773028
0.0978638 0.875568 0.773837
0.0973112 0.93856 0.77651
0.15938 0.75102 0.773082
0.159409 0.813392 0.773115
0.158917 0.875647 0.773688
0.159278 0.938673 0.776604
0.221986 0.751137 0.773157
0.221494 0.813494 0.773113
0.221193 0.875442 0.774537
0.222525 0.93825 0.776629
0.0344311 0.751104 0.814461
0.0345848 0.813349 0.814452
0.0370636 0.875742 0.816052
0.0347815 0.93823 0.817776
0.0970729 0.750923 0.81451
0.0969732 0.813053 0.814234
0.0965611 0.875937 0.817276
0.0974258 0.938234 0.81741
0.159232 0.750916 0.814466
0.159684 0.813021 0.814161
0.159937 0.876018 0.817174
0.159259 0.938172 0.817509
0.221947 0.750946 0.814477
0.221192 0.812892 0.814701
0.220731 0.875837 0.816919
0.221645 0.938351 0.817671
0.0344854 0.750603 0.855333
0.0342389 0.813041 0.856056
0.0333732 0.875575 0.85848
0.0345741 0.938365 0.858557
0.0970262 0.750664 0.855261
0.0968105 0.812919 0.85593
0.0969862 0.875667 0.859555
0.0969469 0.938157 0.85867
0.15945 0.750618 0.855387
0.159526 0.812905 0.856037
0.1594 0.875644 0.85966
0.159435 0.938141 0.858589
0.222277 0.750653 0.855286
0.222188 0.812922 0.855898
0.221924 0.875767 0.859384
0.222102 0.938092 0.858501
0.0345826 0.81186 0.896569
0.0344508 0.875691 0.899033
0.0346739 0.938804 0.898858
0.0971408 0.811829 0.896399
0.0968636 0.875667 0.899296
0.0971283 0.938803 0.89879
0.159592 0.811867 0.896648
0.159475 0.875851 0.899003
0.159771 0.938858 0.898951
0.222203 0.811946 0.896446
0.222311 0.875679 0.899411
0.222102 0.938786 0.89874
0.0352551 0.812037 0.935459
0.034705 0.875348 0.937904
0.0351304 0.939024 0.937811
0.0967838 0.811955 0.935982
0.0979695 0.87545 0.937191
0.0977071 0.939026 0.938176
0.160292 0.81199 0.93542
0.159797 0.875263 0.937949
0.160044 0.939132 0.937855
0.22168 0.811922 0.935994
0.222725 0.875473 0.937148
0.222677 0.939075 0.938216
0.0315498 0.81202 0.975329
0.0370131 0.875332 0.975362
0.0347962 0.938481 0.976795
0.100103 0.812164 0.974014
0.0959868 0.875249 0.97663
0.0983714 0.93851 0.975786
0.156678 0.812077 0.975305
0.161938 0.875369 0.975362
0.159677 0.938541 0.976832
0.224952 0.812133 0.974003
0.220915 0.875326 0.976668
0.223371 0.938558 0.975764
0.0363911 0.779933 0.993146
0.0333926 0.844894 0.993456
0.0363985 0.906069 0.994434
0.0341759 0.971256 0.994629
0.0961441 0.782753 0.993199
0.099139 0.842465 0.993411
0.0965236 0.908731 0.994595
0.0988228 0.968726 0.994564
0.161389 0.779916 0.993165
0.158382 0.844952 0.993412
0.161351 0.906168 0.994407
0.159081 0.970995 0.994648
0.221108 0.782752 0.993229
0.224157 0.842462 0.993418
0.221362 0.908744 0.994582
0.223661 0.968671 0.994564
0.0345431 0.782906 0.752162
0.0353123 0.845562 0.751982
0.0332379 0.905922 0.755733
0.0344776 0.969509 0.755674
0.0972294 0.782727 0.751931
0.0972433 0.84658 0.751476
0.0981438 0.907682 0.755869
0.096782 0.969336 0.75573
0.15919 0.782912 0.752042
0.15939 0.846271 0.751483
0.158678 0.907987 0.755966
0.160037 0.969175 0.75568
0.221634 0.78268 0.752004
0.221268 0.845238 0.75169
0.224308 0.906512 0.756297
0.222544 0.969168 0.755795
0.0343604 0.782367 0.793514
0.0358731 0.844643 0.793738
0.034438 0.906513 0.797264
0.0348262 0.969124 0.797024
0.0973079 0.782025 0.793605
0.0964355 0.845224 0.793785
0.0976708 0.905865 0.797085
0.0971163 0.969453 0.796904
0.159418 0.781974 0.793595
0.160313 0.845724 0.79381
0.158837 0.905829 0.797041
0.159619 0.969549 0.796998
0.221899 0.782176 0.793659
0.221141 0.845073 0.794001
0.222107 0.906365 0.797197
0.221808 0.969273 0.797062
0.034199 0.781984 0.83501
0.0339645 0.845148 0.835116
0.0355096 0.90598 0.838771
0.0346746 0.969344 0.837833
0.0969347 0.782082 0.835026
0.0965693 0.843532 0.835113
0.0972024 0.905236 0.83901
0.0971908 0.969094 0.837873
0.159366 0.781996 0.834991
0.160076 0.843428 0.83496
0.15924 0.905035 0.839048
0.159271 0.9691 0.837892
0.222073 0.781702 0.835221
0.221076 0.843919 0.835441
0.22141 0.905238 0.838741
0.221619 0.969326 0.837765
0.0344958 0.780844 0.87611
0.034416 0.843613 0.87723
0.0342667 0.906246 0.879358
0.0345867 0.969742 0.878217
0.0969398 0.780786 0.876063
0.097118 0.843294 0.877277
0.0970151 0.906025 0.879542
0.0968837 0.969932 0.87822
0.15949 0.780931 0.876151
0.15955 0.8432 0.877382
0.159502 0.906545 0.879387
0.159736 0.969643 0.878255
0.222315 0.781018 0.876081
0.222163 0.843381 0.877103
0.222415 0.905926 0.879587
0.221959 0.969995 0.878231
0.0350837 0.780151 0.916359
0.0343092 0.843219 0.916969
0.0349447 0.90642 0.918719
0.0345746 0.970162 0.917842
0.0966756 0.780514 0.916424
0.0974582 0.842613 0.916992
0.0969624 0.906882 0.918686
0.0974926 0.969844 0.917825
0.160177 0.779948 0.91636
0.159463 0.843335 0.916997
0.160172 0.90632 0.918844
0.159653 0.970121 0.917836
0.221721 0.780505 0.91637
0.222731 0.842574 0.917042
0.22203 0.90691 0.918734
0.222416 0.969892 0.917843
0.033545 0.780945 0.955114
0.035851 0.842117 0.955688
0.0346109 0.906634 0.956748
0.0356454 0.969591 0.956525
0.098402 0.779487 0.955133
0.0963976 0.843436 0.955671
0.0980024 0.905554 0.95671
0.0970245 0.970433 0.95657
0.158517 0.781004 0.955145
0.160916 0.842051 0.955669
0.159351 0.906746 0.956766
0.160702 0.969633 0.956553
0.223306 0.779524 0.955138
0.221455 0.843508 0.955671
0.22318 0.905527 0.956746
0.222106 0.970515 0.956651
0.00323775 0.782644 0.772942
0.00326211 0.843599 0.774505
0.00333883 0.906893 0.776645
0.00334548 0.969717 0.77613
0.065922 0.7821 0.773061
0.0661049 0.844774 0.772647
0.0658169 0.907444 0.775077
0.0657869 0.969414 0.776261
0.128258 0.782341 0.772995
0.128308 0.844639 0.773272
0.128345 0.906609 0.77679
0.12839 0.969819 0.776159
0.190695 0.782216 0.773111
0.190478 0.844797 0.772786
0.190937 0.907621 0.775205
0.190973 0.969289 0.776267
0.00322004 0.782332 0.814326
0.00325331 0.844351 0.814861
0.00341199 0.9071 0.81755
0.00342839 0.969425 0.817457
0.065781 0.781969 0.814519
0.0658615 0.844247 0.814446
0.0662032 0.907147 0.817777
0.0659118 0.969381 0.817396
0.12824 0.782234 0.814326
0.128256 0.844002 0.81533
0.128307 0.90636 0.817991
0.128306 0.96953 0.81734
0.190698 0.78167 0.81451
0.190666 0.844776 0.814253
0.190476 0.907017 0.817768
0.190669 0.969394 0.81751
0.00326332 0.781455 0.855679
0.0032667 0.844085 0.856042
0.00320088 0.906578 0.858701
0.00335293 0.969507 0.858183
0.0656598 0.781556 0.855569
0.0656895 0.843676 0.857106
0.065799 0.906453 0.859563
0.0658167 0.969461 0.858172
0.128252 0.781587 0.855638
0.128252 0.843316 0.857129
0.128225 0.906656 0.859516
0.128232 0.96934 0.858226
0.190784 0.781422 0.855739
0.190691 0.843329 0.857203
0.190755 0.90664 0.859446
0.190732 0.969298 0.858138
0.00334297 0.780549 0.896288
0.00331383 0.842537 0.897322
0.00339558 0.906753 0.899443
0.00339343 0.969739 0.89829
0.0658976 0.780517 0.896065
0.0658597 0.842398 0.897532
0.0658277 0.906779 0.899406
0.0659069 0.969955 0.898423
0.128381 0.780371 0.89634
0.128381 0.842495 0.897469
0.128436 0.906996 0.899631
0.128465 0.969852 0.898259
0.190946 0.780585 0.896087
0.190928 0.842617 0.897537
0.190872 0.90679 0.899439
0.190986 0.969994 0.898483
0.00355868 0.78029 0.93526
0.00366507 0.841988 0.936768
0.00373079 0.906464 0.937825
0.00375598 0.969897 0.937751
0.0660161 0.779288 0.936089
0.0661723 0.842919 0.935997
0.0662118 0.906304 0.938156
0.066221 0.969638 0.937322
0.128551 0.780285 0.935206
0.128658 0.841945 0.936783
0.12873 0.906441 0.937786
0.128717 0.970025 0.93773
0.191017 0.779266 0.936139
0.191189 0.842865 0.935992
0.191262 0.906341 0.938296
0.191199 0.969653 0.937427
0.00351067 0.776714 0.975251
0.00380205 0.844945 0.974
0.00395449 0.905438 0.976579
0.00397038 0.969718 0.97568
0.0660545 0.783495 0.973426
0.0661868 0.840145 0.975603
0.06647 0.907278 0.975622
0.0664962 0.969403 0.976543
0.12857 0.776648 0.975282
0.128789 0.845 0.973893
0.128899 0.905331 0.976516
0.128964 0.969771 0.975672
0.191065 0.783384 0.973472
0.191265 0.840244 0.975601
0.191391 0.907364 0.975511
0.191435 0.96937 0.976535
0.283718 0.00106143 0.0144471
0.287609 0.0635418 0.0129563
0.283825 0.125821 0.014805
0.287729 0.187938 0.0132893
0.350203 0.00109418 0.0126603
0.346326 0.063461 0.0147609
0.350133 0.125693 0.013099
0.345985 0.188045 0.0149199
0.408693 0.00108045 0.0145228
0.412745 0.0635299 0.013006
0.408794 0.125789 0.0148165
0.412717 0.187951 0.0133479
0.475245 0.00114978 0.0126452
0.471248 0.0635015 0.0148371
0.475214 0.125697 0.0130604
0.471145 0.188011 0.0148751
0.288461 0.00101819 0.0499047
0.283381 0.0634323 0.0523409
0.288322 0.125805 0.0504089
0.283103 0.188381 0.0524747
0.345736 0.00103259 0.0521502
0.350871 0.0634408 0.050195
0.345842 0.125853 0.0525524
0.350857 0.188302 0.0502898
0.413549 0.00103571 0.049909
0.408401 0.0634694 0.052347
0.413421 0.125803 0.0504243
0.408088 0.188392 0.0524119
0.470678 0.00102762 0.052143
0.475899 0.0635044 0.0501596
0.470674 0.125898 0.0525977
0.475814 0.188251 0.0502709
0.283183 0.00103297 0.0896131
0.28833 0.0634336 0.0874769
0.283219 0.125978 0.0897736
0.288123 0.188565 0.0875234
0.350972 0.00102487 0.0873077
0.345672 0.0634925 0.0897338
0.350711 0.125948 0.0875931
0.34548 0.188527 0.0897808
0.408131 0.00100592 0.0894896
0.413383 0.0634455 0.0875445
0.408024 0.125947 0.089839
0.413141 0.188576 0.0874828
0.475908 0.00107499 0.0872556
0.470588 0.0634984 0.0897224
0.475771 0.125969 0.0875425
0.470534 0.188586 0.0898623
0.2882 0.0011336 0.124705
0.283096 0.0636143 0.127112
0.287972 0.126086 0.124712
0.28288 0.188647 0.127104
0.34573 0.00118288 0.127007
0.350559 0.0636335 0.124775
0.345419 0.126082 0.127132
0.350335 0.188614 0.124768
0.413251 0.00120394 0.124772
0.408096 0.0636232 0.127128
0.412945 0.126075 0.124708
0.407767 0.188628 0.127123
0.470564 0.00119148 0.127019
0.475456 0.0636214 0.124747
0.470496 0.126049 0.127147
0.475457 0.188628 0.124738
0.282937 0.00124176 0.164451
0.287957 0.0636901 0.16203
0.282756 0.126213 0.164438
0.287869 0.188736 0.162014
0.350684 0.00123505 0.162059
0.345324 0.0636614 0.164385
0.350399 0.126147 0.162035
0.345084 0.188744 0.164301
0.407795 0.00127524 0.164418
0.413003 0.0636877 0.162031
0.407676 0.126189 0.164455
0.412856 0.188656 0.161952
0.475703 0.00127759 0.162063
0.470347 0.0637437 0.164386
0.475457 0.126185 0.162076
0.470181 0.18873 0.164396
0.288138 0.00129505 0.199282
0.282805 0.0637676 0.201769
0.287988 0.126292 0.19935
0.282524 0.188799 0.201554
0.345365 0.00125032 0.201711
0.350457 0.0637468 0.199299
0.34508 0.12625 0.201674
0.350286 0.188775 0.199238
0.413174 0.00128903 0.199361
0.407677 0.0637815 0.201713
0.412868 0.126221 0.199273
0.407608 0.188798 0.201595
0.470208 0.00134214 0.20168
0.475521 0.0638401 0.199379
0.470083 0.126246 0.201712
0.475331 0.188831 0.199266
0.282772 0.0013281 0.239059
0.287801 0.0637644 0.236598
0.282516 0.126245 0.238939
0.287592 0.188866 0.236513
0.35038 0.00133035 0.236636
0.345272 0.0638077 0.238961
0.350272 0.126277 0.236567
0.344883 0.188886 0.238796
0.407725 0.001379 0.239009
0.412894 0.0638383 0.236656
0.407517 0.126321 0.238919
0.412707 0.188834 0.236528
0.47539 0.00133784 0.236616
0.470086 0.0638594 0.238982
0.47521 0.126291 0.236577
0.469903 0.188906 0.238812
0.283649 0.0339032 0.0324253
0.287 0.0928267 0.0326519
0.2834 0.158437 0.0327358
0.287294 0.217613 0.0326766
0.349392 0.030454 0.0324278
0.345981 0.0962795 0.0326231
0.349651 0.15498 0.0327431
0.345766 0.22104 0.0326611
0.408537 0.0339298 0.0324408
0.412036 0.092864 0.0326187
0.408395 0.158367 0.0327292
0.41215 0.217657 0.0326769
0.474439 0.0303928 0.0324351
0.470936 0.0962968 0.0326545
0.474615 0.155081 0.0327423
0.470673 0.220949 0.0326906
0.287301 0.030101 0.0698527
0.283371 0.0962277 0.0700063
0.287359 0.155256 0.0700489
0.283127 0.221601 0.0700166
0.345932 0.0338417 0.0698364
0.34989 0.0926527 0.0700071
0.345677 0.158846 0.0700689
0.349876 0.217733 0.0699828
0.412318 0.0301598 0.0698204
0.408288 0.0961971 0.0700566
0.412424 0.155197 0.0700972
0.408103 0.221554 0.0700046
0.470904 0.0338951 0.0698182
0.474814 0.0925898 0.0700084
0.470595 0.158888 0.0700864
0.474706 0.217637 0.0699761
0.283334 0.0340166 0.107221
0.287245 0.092631 0.107285
0.283038 0.159014 0.10731
0.287289 0.21772 0.107257
0.349855 0.0301907 0.1072
0.34556 0.0964587 0.107286
0.349719 0.155257 0.107355
0.345395 0.221627 0.107283
0.408302 0.0338539 0.107215
0.41234 0.0925459 0.107329
0.408056 0.159191 0.107324
0.412275 0.217661 0.107263
0.474715 0.0302355 0.107193
0.470502 0.0965157 0.1073
0.474765 0.155117 0.107369
0.470612 0.221791 0.107301
0.287399 0.0301309 0.144554
0.282963 0.0967603 0.144605
0.287104 0.155232 0.144608
0.282791 0.221808 0.144493
0.345583 0.0341721 0.144526
0.349748 0.0927112 0.144593
0.345386 0.159147 0.14458
0.349577 0.217915 0.144493
0.412406 0.0301537 0.144537
0.407838 0.0967516 0.144597
0.412096 0.155149 0.144583
0.407804 0.221802 0.14451
0.470579 0.034207 0.14455
0.474909 0.0927538 0.144631
0.470388 0.159218 0.144583
0.474619 0.217791 0.14452
0.282879 0.0343612 0.181904
0.287362 0.0927364 0.181875
0.28273 0.159245 0.181857
0.287021 0.217837 0.181753
0.349807 0.0302483 0.181903
0.345203 0.0967345 0.18187
0.349551 0.155306 0.181854
0.345195 0.221902 0.181761
0.40786 0.0342673 0.181866
0.412265 0.0927752 0.181873
0.407765 0.159203 0.181819
0.412041 0.217798 0.181717
0.474924 0.030356 0.181872
0.470219 0.0967979 0.181906
0.474622 0.155246 0.181863
0.470226 0.221844 0.181769
0.2873 0.0302178 0.21918
0.282599 0.0968915 0.219156
0.287081 0.155376 0.219131
0.282731 0.221866 0.218989
0.345391 0.0342929 0.219186
0.349836 0.0928599 0.219164
0.345143 0.159295 0.219097
0.34941 0.217967 0.219004
0.412219 0.0303655 0.219141
0.407622 0.0968246 0.219172
0.412028 0.155406 0.219141
0.407637 0.221844 0.219049
0.470373 0.0343367 0.219183
0.474745 0.0928853 0.219182
0.470167 0.159334 0.219085
0.474437 0.217971 0.218991
0.254155 0.0342366 0.0128603
0.254191 0.0929144 0.0147606
0.254212 0.159182 0.0130815
0.254209 0.217649 0.0150511
0.316658 0.0303432 0.0144855
0.316644 0.0966454 0.0129609
0.316675 0.155225 0.0148944
0.316574 0.221994 0.0129057
0.379141 0.0341392 0.0129069
0.379173 0.0928673 0.0147449
0.379053 0.159166 0.0130543
0.379084 0.217609 0.0150585
0.441628 0.0303294 0.0144798
0.441599 0.0966847 0.0130009
0.441691 0.155211 0.0148708
0.441563 0.221956 0.0129408
0.254295 0.029844 0.0522646
0.254218 0.0975626 0.0502812
0.254216 0.155064 0.0527302
0.254134 0.222666 0.0501421
0.316758 0.0350614 0.0501047
0.316757 0.0924918 0.0525914
0.316671 0.159933 0.0502944
0.316706 0.217344 0.0526783
0.379332 0.0298441 0.0522785
0.379206 0.0974611 0.0502866
0.379224 0.155028 0.0527237
0.379118 0.222662 0.0501945
0.441732 0.0350742 0.0501206
0.441704 0.0925305 0.0525933
0.441615 0.160026 0.0502391
0.441624 0.217474 0.0526612
0.254269 0.0352268 0.0874379
0.254178 0.0924809 0.0899421
0.254087 0.160079 0.0875041
0.254057 0.217588 0.0900409
0.316786 0.0299245 0.0896935
0.316552 0.0975942 0.0875271
0.316583 0.155179 0.0900403
0.316571 0.222778 0.0874051
0.379282 0.0351968 0.0873558
0.37915 0.0924601 0.0900108
0.379012 0.160187 0.0875521
0.379027 0.217646 0.0900429
0.441706 0.0298347 0.0896775
0.441603 0.0976735 0.0875145
0.441577 0.155099 0.0900815
0.441515 0.222927 0.087522
0.254094 0.0302043 0.12714
0.253994 0.0976229 0.124804
0.253871 0.15523 0.127318
0.253808 0.222783 0.124658
0.316618 0.0352528 0.124713
0.316484 0.0926987 0.127313
0.316329 0.160229 0.124836
0.316311 0.217733 0.127306
0.379131 0.0302437 0.12716
0.37896 0.0976474 0.124734
0.378851 0.155187 0.127296
0.378867 0.222769 0.124668
0.441584 0.0353358 0.124712
0.441518 0.0928062 0.127371
0.441359 0.160167 0.124849
0.441384 0.21769 0.127299
0.254005 0.0354253 0.161987
0.253895 0.0927534 0.164704
0.253787 0.160461 0.162067
0.253689 0.21771 0.164508
0.316496 0.030272 0.164612
0.316359 0.0978428 0.161987
0.316276 0.155219 0.164615
0.316238 0.223014 0.161912
0.378948 0.035509 0.161884
0.378842 0.0926607 0.164666
0.378745 0.160293 0.162045
0.378697 0.217728 0.164453
0.441501 0.030195 0.16456
0.441356 0.0978279 0.161965
0.44124 0.155204 0.164514
0.441197 0.223 0.161939
0.25391 0.0301963 0.201883
0.253846 0.0979496 0.199178
0.253663 0.155282 0.201847
0.253587 0.222991 0.199188
0.316442 0.0354941 0.199239
0.316341 0.0927618 0.201977
0.316212 0.160551 0.199207
0.316153 0.217798 0.201722
0.378926 0.0302143 0.201894
0.378773 0.0979971 0.199181
0.378764 0.155226 0.201827
0.378673 0.223044 0.199182
0.441419 0.0356121 0.199205
0.441263 0.0927118 0.201973
0.441213 0.16048 0.199238
0.441146 0.217855 0.201745
0.253828 0.0354323 0.236577
0.253788 0.0927271 0.239216
0.25361 0.160489 0.236483
0.253499 0.217757 0.238952
0.316378 0.0303144 0.239202
0.31622 0.0978531 0.236444
0.316141 0.155187 0.239069
0.316039 0.223196 0.236506
0.378824 0.035478 0.236562
0.378734 0.0928427 0.239212
0.378602 0.160541 0.236515
0.37849 0.217787 0.238973
0.441303 0.0303636 0.23915
0.441236 0.098065 0.236512
0.441141 0.155337 0.239082
0.441073 0.223246 0.236363
0.287908 0.00141772 0.27388
0.282522 0.0639251 0.276248
0.287732 0.126315 0.2739
0.282282 0.188893 0.275966
0.345097 0.0014292 0.276385
0.35033 0.0638806 0.273861
0.344954 0.126335 0.276263
0.35011 0.188883 0.273798
0.412907 0.00142543 0.273886
0.407632 0.0639554 0.276251
0.412718 0.126441 0.273985
0.407339 0.188896 0.276024
0.469954 0.00147747 0.276262
0.475353 0.063897 0.273969
0.469989 0.126462 0.276273
0.475117 0.188869 0.273772
0.282518 0.00157211 0.313662
0.287731 0.0640478 0.311183
0.282389 0.126439 0.313476
0.287591 0.188931 0.311034
0.350276 0.00157183 0.3112
0.345063 0.0640484 0.313706
0.350093 0.126473 0.311195
0.344586 0.189009 0.313414
0.407464 0.00156417 0.313568
0.412774 0.0640292 0.311218
0.407454 0.126514 0.313489
0.412616 0.188961 0.311078
0.475277 0.00159531 0.311207
0.469931 0.0640594 0.313597
0.47514 0.126467 0.311244
0.469647 0.18893 0.313441
0.287712 0.00154638 0.348458
0.282369 0.0641723 0.350913
0.287389 0.126573 0.348519
0.281842 0.189103 0.350741
0.344951 0.00164022 0.350931
0.350122 0.064114 0.348454
0.344659 0.126602 0.350853
0.34991 0.189074 0.348336
0.412662 0.0015743 0.348424
0.407363 0.0641863 0.350902
0.412422 0.126552 0.348544
0.406922 0.188981 0.350758
0.469845 0.00160942 0.350965
0.475165 0.0640967 0.348416
0.469725 0.126532 0.350868
0.47483 0.188995 0.348343
0.282229 0.00161524 0.388298
0.287512 0.0641018 0.385803
0.282064 0.126616 0.388204
0.287225 0.189087 0.385707
0.350145 0.00168148 0.385835
0.344757 0.0641421 0.38822
0.349691 0.126623 0.385838
0.344192 0.189128 0.388127
0.407308 0.00161241 0.388297
0.412501 0.0641295 0.385758
0.406983 0.12659 0.38826
0.412223 0.18906 0.38579
0.475112 0.00164138 0.385784
0.469667 0.0641835 0.388262
0.474917 0.126573 0.385906
0.469235 0.189094 0.388169
0.287348 0.00163677 0.423241
0.282136 0.064186 0.425571
0.287157 0.126734 0.423152
0.281716 0.189251 0.425478
0.344622 0.00167545 0.4256
0.34984 0.0641184 0.423195
0.344459 0.126675 0.425518
0.349606 0.189182 0.423069
0.412432 0.00159641 0.423196
0.407079 0.0641516 0.425594
0.412172 0.126683 0.423128
0.406621 0.189231 0.425554
0.469699 0.00163485 0.425584
0.47476 0.0641073 0.423206
0.469529 0.126709 0.425553
0.474692 0.189183 0.423094
0.282073 0.00178233 0.462933
0.2872 0.0643679 0.460559
0.282139 0.126929 0.462907
0.28707 0.189374 0.460578
0.349853 0.00180412 0.460679
0.344728 0.0644039 0.462952
0.3495 0.126866 0.460521
0.344326 0.18938 0.462907
0.40702 0.00179077 0.462983
0.412203 0.0642558 0.460532
0.407156 0.126917 0.462992
0.41208 0.189325 0.460473
0.474884 0.00170653 0.460644
0.469746 0.0643263 0.462954
0.474404 0.126871 0.460554
0.469377 0.189394 0.462983
0.286795 0.127003 0.497925
0.349414 0.189446 0.497992
0.411774 0.127045 0.49788
0.474416 0.0645522 0.498009
0.474412 0.189428 0.497893
0.282786 0.0344768 0.256459
0.287207 0.0930093 0.256432
0.282654 0.159223 0.256339
0.286733 0.21801 0.256259
0.349673 0.0304168 0.256519
0.345104 0.0968227 0.256416
0.349342 0.15543 0.256399
0.345134 0.222008 0.256283
0.407748 0.0344775 0.25644
0.412134 0.0931443 0.256452
0.407576 0.159193 0.256385
0.411899 0.218057 0.256269
0.474534 0.030435 0.256475
0.470074 0.0969526 0.256478
0.474355 0.155457 0.256385
0.4701 0.221993 0.256284
0.286985 0.0305573 0.293754
0.282566 0.0970243 0.293724
0.286595 0.155638 0.293659
0.282684 0.222069 0.293533
0.345194 0.0347231 0.293765
0.349397 0.0930706 0.293753
0.345153 0.159443 0.293706
0.349103 0.217985 0.293538
0.411977 0.0305921 0.29373
0.40755 0.0970559 0.29373
0.411653 0.155685 0.293706
0.407563 0.222028 0.293561
0.470324 0.0345521 0.293763
0.474506 0.0932552 0.293735
0.47 0.159464 0.293676
0.473974 0.21807 0.293571
0.282665 0.0348063 0.331085
0.286842 0.0933134 0.331061
0.282484 0.15956 0.330948
0.286204 0.217911 0.330861
0.349352 0.0305622 0.331078
0.344978 0.0972327 0.331037
0.348836 0.15566 0.331008
0.344982 0.222185 0.330874
0.407707 0.0346775 0.331079
0.411768 0.093186 0.331065
0.407572 0.159551 0.331024
0.411278 0.217878 0.330831
0.474295 0.0305389 0.331041
0.469974 0.0972493 0.331046
0.473919 0.155573 0.331018
0.470046 0.222138 0.330909
0.286754 0.0305693 0.368397
0.282451 0.0971887 0.368387
0.286277 0.155721 0.368325
0.28244 0.222296 0.368168
0.3451 0.0348279 0.3684
0.349099 0.0932541 0.368347
0.344733 0.159774 0.368306
0.348362 0.218066 0.368204
0.411694 0.0305071 0.368366
0.407464 0.0972801 0.368371
0.411329 0.15566 0.368378
0.407504 0.222243 0.368232
0.470204 0.034946 0.368348
0.474191 0.0932499 0.368354
0.469891 0.15963 0.368382
0.473315 0.217873 0.368215
0.282391 0.0347352 0.405751
0.286657 0.0932479 0.405715
0.282092 0.159771 0.405666
0.285645 0.21817 0.405544
0.349078 0.0307078 0.405714
0.344698 0.0970653 0.40569
0.348677 0.155775 0.405664
0.344953 0.222336 0.405548
0.407471 0.0347923 0.405683
0.411569 0.0931809 0.405696
0.407078 0.15976 0.40568
0.410668 0.218141 0.405591
0.473995 0.030663 0.405704
0.469741 0.0972692 0.405688
0.473733 0.15578 0.405694
0.469896 0.222237 0.405561
0.286495 0.0307537 0.443092
0.282142 0.0973643 0.443058
0.286206 0.15593 0.443002
0.282451 0.222407 0.442962
0.344935 0.0347476 0.443092
0.348948 0.0932934 0.443048
0.344667 0.159929 0.443022
0.347934 0.218377 0.442944
0.411515 0.0306553 0.443083
0.407204 0.0973314 0.442998
0.411122 0.155715 0.443002
0.407584 0.222568 0.442921
0.469934 0.0347531 0.443073
0.474011 0.0933028 0.443039
0.469618 0.159905 0.442987
0.47296 0.218295 0.44297
0.282334 0.0348589 0.480499
0.286291 0.0935036 0.480406
0.282202 0.159962 0.480374
0.285247 0.218382 0.480396
0.349006 0.0311014 0.48048
0.34475 0.0975304 0.48041
0.348536 0.156087 0.480358
0.345349 0.222626 0.48042
0.407305 0.0348802 0.480484
0.411364 0.093468 0.480456
0.407259 0.160097 0.480391
0.410062 0.218298 0.48039
0.473982 0.0310311 0.480438
0.469719 0.0974276 0.4804
0.473502 0.15608 0.480362
0.47031 0.222714 0.48033
0.253706 0.0302858 0.276435
0.253662 0.0980651 0.273776
0.253564 0.155191 0.276311
0.253432 0.223166 0.273768
0.316194 0.0356076 0.273927
0.316166 0.0928169 0.276477
0.316052 0.160469 0.273811
0.315956 0.217702 0.276174
0.378786 0.0303536 0.27648
0.378611 0.0981334 0.273782
0.378522 0.155296 0.276366
0.378503 0.223104 0.273708
0.441181 0.0356748 0.27387
0.441169 0.0928944 0.276517
0.441062 0.160554 0.273845
0.440939 0.21772 0.276202
0.253594 0.0357381 0.311193
0.253561 0.0929657 0.313782
0.253425 0.16071 0.31121
0.253295 0.217691 0.31337
0.31612 0.030554 0.31371
0.31604 0.0982513 0.311127
0.315899 0.155421 0.313601
0.315802 0.223212 0.311046
0.378614 0.0357581 0.311228
0.378549 0.0930195 0.313725
0.378437 0.160653 0.311247
0.378261 0.21772 0.313406
0.441137 0.0304875 0.313678
0.441032 0.0982426 0.311081
0.440953 0.155424 0.313621
0.440828 0.223233 0.31111
0.253592 0.0305462 0.351008
0.253378 0.0983326 0.348497
0.253279 0.155487 0.35095
0.253082 0.223499 0.348468
0.31601 0.035853 0.348513
0.315912 0.0930722 0.351069
0.315763 0.160783 0.348525
0.315629 0.217789 0.35059
0.378556 0.0305443 0.351009
0.378394 0.0983364 0.348496
0.378287 0.155473 0.35096
0.378151 0.22327 0.348461
0.441055 0.0358442 0.348577
0.440963 0.0931196 0.351095
0.440762 0.160677 0.348564
0.440611 0.217757 0.350613
0.253455 0.0358503 0.385835
0.253307 0.0930509 0.38843
0.253086 0.160762 0.385856
0.252985 0.217821 0.387926
0.315892 0.0305252 0.388358
0.315793 0.0983089 0.38582
0.315591 0.155472 0.388232
0.315435 0.223352 0.385851
0.378438 0.0358838 0.385892
0.37828 0.0931128 0.38835
0.378097 0.160751 0.385834
0.377943 0.217742 0.387959
0.440962 0.0304369 0.388256
0.44079 0.0983498 0.385863
0.440655 0.155427 0.388287
0.440417 0.223482 0.385878
0.253282 0.0306406 0.425687
0.253179 0.0983617 0.423176
0.253047 0.155634 0.425636
0.252884 0.223447 0.423335
0.315803 0.0358166 0.423208
0.315651 0.0932522 0.42576
0.315484 0.160878 0.42322
0.315399 0.217897 0.42521
0.37834 0.030561 0.425669
0.378165 0.0983849 0.423136
0.377949 0.155573 0.425605
0.377839 0.223531 0.423318
0.440777 0.0358344 0.42315
0.440677 0.0931568 0.425647
0.440448 0.16089 0.42321
0.440374 0.21788 0.425172
0.253297 0.0360264 0.460511
0.253124 0.0935387 0.46307
0.253059 0.160851 0.460593
0.252913 0.21821 0.462593
0.315756 0.0308909 0.463073
0.315614 0.0984162 0.460582
0.315551 0.155906 0.462944
0.315366 0.223594 0.460869
0.378246 0.0360074 0.460622
0.378246 0.0935087 0.463095
0.377998 0.16085 0.460608
0.377875 0.218137 0.462495
0.440769 0.0307299 0.463068
0.440607 0.0982337 0.460531
0.440503 0.155925 0.462915
0.440317 0.22358 0.460869
0.412188 0.00195985 0.498099
0.252822 0.223339 0.498561
0.315479 0.160935 0.498127
0.440436 0.218257 0.499736
0.378119 0.0983976 0.497999
0.31563 0.0360424 0.498006
0.440685 0.0359514 0.498045
0.349556 0.0646043 0.498058
0.253053 0.0984029 0.497958
0.287212 0.00192309 0.498057
0.315373 0.218275 0.49981
0.440476 0.160853 0.498214
0.377931 0.22328 0.498662
0.282001 0.189446 0.500264
0.344796 0.127108 0.500215
0.40713 0.189428 0.500366
0.282077 0.00235147 0.537557
0.286622 0.0648203 0.53592
0.282643 0.126926 0.537804
0.286502 0.188848 0.535905
0.349261 0.00235135 0.53589
0.344987 0.0647797 0.537697
0.348907 0.126934 0.535943
0.344936 0.188831 0.537915
0.407241 0.00235561 0.537598
0.411508 0.0648283 0.535864
0.407677 0.126881 0.537876
0.411603 0.188861 0.535895
0.474369 0.00244198 0.535849
0.470036 0.0647881 0.537735
0.473982 0.126929 0.535771
0.470126 0.18882 0.53798
0.288282 0.00292011 0.573677
0.280998 0.0651046 0.575267
0.288807 0.126838 0.574005
0.281102 0.18825 0.575816
0.343324 0.00293433 0.574902
0.351137 0.0651035 0.573808
0.343625 0.126764 0.575547
0.351218 0.188282 0.57411
0.413378 0.00292022 0.57361
0.40605 0.0649947 0.575348
0.413857 0.126692 0.573881
0.406194 0.188221 0.575772
0.468502 0.00287751 0.574885
0.476097 0.0650408 0.573777
0.468554 0.126656 0.57552
0.476224 0.18827 0.57413
0.283742 0.00323244 0.613724
0.284631 0.0650959 0.613677
0.284104 0.126449 0.614699
0.284844 0.187844 0.614115
0.283812 0.249621 0.614455
0.347351 0.00336642 0.61314
0.346462 0.0650516 0.614287
0.347284 0.12639 0.613968
0.346606 0.18777 0.614626
0.347387 0.249477 0.613969
0.408685 0.00322922 0.613767
0.409691 0.0649988 0.613609
0.409184 0.126362 0.614639
0.409812 0.187716 0.614024
0.408912 0.249605 0.61442
0.472273 0.00328283 0.613211
0.471557 0.0649285 0.614242
0.472265 0.126317 0.61396
0.47167 0.187714 0.614656
0.472403 0.249489 0.613943
0.284461 0.00262696 0.652828
0.284401 0.0643031 0.653893
0.284382 0.12622 0.654165
0.284311 0.188102 0.654239
0.34683 0.00256956 0.653074
0.347028 0.0643388 0.653753
0.346865 0.126149 0.654332
0.346975 0.188056 0.654134
0.409381 0.00251083 0.652881
0.409367 0.0642582 0.653933
0.409475 0.126141 0.654148
0.409257 0.188093 0.654203
0.471768 0.00241747 0.653199
0.472084 0.064152 0.653782
0.471874 0.126099 0.654269
0.471955 0.188026 0.654134
0.284363 0.00115625 0.693663
0.28439 0.0635762 0.694213
0.284241 0.126021 0.694538
0.284262 0.188448 0.694498
0.346982 0.00115037 0.693674
0.346837 0.0635621 0.694318
0.346778 0.125962 0.694526
0.346829 0.1885 0.694526
0.409321 0.00112228 0.693759
0.409426 0.063483 0.694284
0.409388 0.126027 0.694597
0.409405 0.188411 0.694458
0.472092 0.0010797 0.693854
0.471888 0.0635318 0.694387
0.4719 0.125936 0.694574
0.471822 0.188444 0.694532
0.284577 8.25197e-04 0.734863
0.284654 0.0632294 0.73493
0.284524 0.125912 0.735027
0.284501 0.18856 0.73507
0.347226 6.6088e-04 0.734784
0.347065 0.0632375 0.734972
0.346949 0.125875 0.735032
0.347038 0.188502 0.735021
0.409289 6.24557e-04 0.734849
0.409617 0.0632294 0.735004
0.409546 0.125876 0.735
0.409542 0.18848 0.735076
0.472088 6.4666e-04 0.734835
0.471908 0.0632577 0.735012
0.472159 0.125908 0.735046
0.472042 0.188591 0.735093
0.286309 0.0316173 0.517923
0.282267 0.0975542 0.517914
0.285817 0.156105 0.517883
0.283178 0.222052 0.518021
0.344805 0.0348005 0.517936
0.348597 0.094079 0.517888
0.344879 0.159852 0.517927
0.347221 0.218139 0.517945
0.411195 0.031644 0.517949
0.407334 0.0975752 0.517893
0.410716 0.155973 0.517888
0.408416 0.222211 0.517978
0.4698 0.0349643 0.517889
0.473585 0.0939368 0.517873
0.470068 0.159926 0.517916
0.47212 0.218091 0.517959
0.282505 0.0348473 0.555772
0.285545 0.0944575 0.555895
0.283111 0.159117 0.555952
0.283924 0.21799 0.556034
0.348241 0.0323452 0.555711
0.345173 0.0971109 0.555852
0.347455 0.156331 0.555917
0.346508 0.220982 0.556033
0.407366 0.0348214 0.555694
0.410444 0.0943366 0.555833
0.408165 0.159259 0.555904
0.408836 0.218168 0.556056
0.473242 0.0322603 0.555658
0.470425 0.0971507 0.555822
0.472465 0.15628 0.555925
0.471584 0.221138 0.556047
0.285427 0.0338142 0.5938
0.283496 0.0969248 0.59412
0.284777 0.156305 0.594297
0.284871 0.219606 0.594305
0.345672 0.0354276 0.59377
0.347584 0.0952277 0.594063
0.34673 0.158042 0.594206
0.346569 0.21774 0.594255
0.410403 0.0335551 0.593746
0.408702 0.0969256 0.594016
0.40979 0.156114 0.594198
0.409895 0.219436 0.594256
0.470725 0.0352556 0.593722
0.472654 0.0950276 0.594002
0.471763 0.158019 0.594198
0.471566 0.21765 0.594313
0.28389 0.0344439 0.633004
0.28469 0.0952785 0.63377
0.284464 0.157405 0.633961
0.284079 0.218367 0.633622
0.347425 0.0339061 0.633002
0.346597 0.0958276 0.633734
0.347005 0.156834 0.633951
0.347138 0.218739 0.633631
0.409051 0.034485 0.633041
0.409681 0.0952408 0.633723
0.409337 0.157305 0.633955
0.409064 0.218226 0.633541
0.472365 0.0336938 0.633115
0.471626 0.0958032 0.633753
0.471901 0.156755 0.633906
0.472068 0.218731 0.633592
0.284459 0.0328378 0.673576
0.284213 0.0950886 0.674109
0.284324 0.157131 0.674208
0.284345 0.219385 0.674114
0.346922 0.0331321 0.673669
0.346963 0.0948822 0.674127
0.346807 0.157094 0.674333
0.346662 0.219253 0.674068
0.409454 0.0327852 0.673714
0.40939 0.0951436 0.67418
0.409338 0.156942 0.674239
0.409355 0.219315 0.674089
0.47193 0.0328406 0.673795
0.472045 0.0947446 0.674167
0.471904 0.1571 0.674276
0.471703 0.219145 0.674026
0.28467 0.0319742 0.714425
0.284571 0.0947731 0.714701
0.284393 0.157331 0.714772
0.284345 0.219906 0.714723
0.346968 0.0321175 0.714475
0.346939 0.0946275 0.714705
0.34693 0.157268 0.714756
0.346825 0.21982 0.714712
0.409452 0.0322019 0.714536
0.409479 0.0945388 0.714715
0.409405 0.157223 0.714767
0.409352 0.219874 0.714734
0.471905 0.0320275 0.714595
0.47209 0.0946207 0.714733
0.47201 0.157144 0.714815
0.47178 0.219934 0.714725
0.253209 0.0310418 0.50049
0.31559 0.0938059 0.500403
0.378199 0.0310309 0.500444
0.440659 0.0938679 0.500463
0.253069 0.0361951 0.535715
0.253054 0.0941463 0.537928
0.252945 0.159899 0.53614
0.252914 0.217767 0.537273
0.315513 0.0317439 0.537984
0.315591 0.0980381 0.535972
0.315403 0.156111 0.537816
0.315471 0.221951 0.536744
0.378035 0.0360403 0.535734
0.378045 0.0942556 0.537893
0.377957 0.159929 0.536115
0.377966 0.217695 0.537242
0.440522 0.0317745 0.53797
0.440552 0.0980148 0.535998
0.440529 0.156044 0.537745
0.440524 0.22186 0.536865
0.253065 0.0310738 0.575556
0.253164 0.100387 0.573975
0.253153 0.153547 0.575081
0.25311 0.222224 0.575138
0.315604 0.0386781 0.573579
0.315625 0.0925937 0.575473
0.315682 0.161297 0.574378
0.315562 0.214816 0.574586
0.378094 0.0310755 0.575526
0.378167 0.100206 0.573941
0.378193 0.15349 0.574968
0.378098 0.222194 0.575145
0.440654 0.0385321 0.57351
0.440696 0.0925175 0.575362
0.440697 0.161243 0.574337
0.440652 0.214752 0.574529
0.252975 0.0351109 0.613118
0.252955 0.0958844 0.614357
0.253087 0.157281 0.614217
0.253073 0.217791 0.613995
0.315446 0.0342712 0.613944
0.315416 0.096209 0.613791
0.31558 0.156743 0.614351
0.315579 0.218731 0.614287
0.377999 0.035223 0.61305
0.377962 0.09558 0.614265
0.378045 0.157242 0.614141
0.378069 0.217755 0.613976
0.4405 0.0342155 0.613879
0.440525 0.0961576 0.613798
0.440547 0.156663 0.614268
0.440554 0.218569 0.614294
0.253079 0.0336851 0.653374
0.253059 0.0953453 0.653922
0.253058 0.157012 0.6542
0.253037 0.218937 0.653901
0.315717 0.0337581 0.653142
0.315601 0.095319 0.654103
0.31561 0.157077 0.654159
0.315526 0.218758 0.653788
0.378114 0.0336651 0.653452
0.378105 0.095299 0.653856
0.37812 0.156952 0.654186
0.378034 0.218916 0.653936
0.440578 0.033683 0.653297
0.440652 0.0951225 0.654069
0.440579 0.15701 0.654134
0.440524 0.218745 0.653707
0.253193 0.0325449 0.693935
0.253054 0.0948344 0.694504
0.253078 0.157303 0.694579
0.252934 0.219509 0.694425
0.315579 0.0324416 0.693928
0.315522 0.094849 0.694409
0.315579 0.157228 0.694649
0.315523 0.219625 0.694452
0.378126 0.0325652 0.694064
0.378092 0.0948239 0.694469
0.378095 0.157109 0.694592
0.378068 0.219561 0.694428
0.440625 0.0323034 0.694144
0.440634 0.0948006 0.694504
0.440623 0.157172 0.694596
0.440573 0.2196 0.694449
0.253306 0.0321047 0.734897
0.253302 0.0944982 0.735147
0.253189 0.157212 0.735151
0.253198 0.219752 0.735151
0.315829 0.0319232 0.734953
0.315718 0.0945585 0.735142
0.31571 0.157199 0.735152
0.315681 0.219751 0.735072
0.378257 0.0321141 0.735003
0.378249 0.0945639 0.735095
0.378237 0.157225 0.735139
0.378238 0.219732 0.735106
0.440698 0.0319042 0.735054
0.440719 0.0945925 0.735146
0.440767 0.15721 0.735192
0.440758 0.219823 0.7351
0.252994 0.156179 0.500346
0.377996 0.156213 0.500297
0.471767 0.249879 0.653734
0.469799 0.127065 0.500165
0.40724 0.0645376 0.500275
0.282237 0.0645369 0.500231
0.344522 0.00196099 0.500161
0.468869 0.249941 0.575813
0.288454 0.249994 0.574114
0.409319 0.249956 0.653543
0.469618 0.00193529 0.50021
0.343738 0.249967 0.575684
0.284685 7.46588e-04 0.776192
0.284599 0.0633246 0.775966
0.284608 0.125961 0.77577
0.284691 0.188629 0.775801
0.347103 6.92881e-04 0.776145
0.347157 0.0633488 0.775995
0.347085 0.126003 0.775858
0.347228 0.188637 0.775854
0.409561 6.96614e-04 0.776183
0.409569 0.0634079 0.775972
0.409596 0.125985 0.775817
0.409692 0.188626 0.775901
0.471975 6.96152e-04 0.776387
0.47216 0.0632735 0.775981
0.472214 0.125988 0.775939
0.472309 0.188588 0.775998
0.284644 9.39983e-04 0.817255
0.284691 0.0635179 0.816696
0.284734 0.126163 0.816634
0.284754 0.188704 0.816828
0.347067 9.18839e-04 0.817192
0.34718 0.0636126 0.816787
0.347202 0.126204 0.816571
0.347245 0.188737 0.816908
0.409699 9.40903e-04 0.817234
0.40973 0.0635863 0.816824
0.40979 0.126162 0.816772
0.409767 0.188677 0.816852
0.472058 8.97897e-04 0.817173
0.472179 0.0635471 0.816868
0.472309 0.126222 0.816653
0.472286 0.18871 0.816996
0.284463 0.00105438 0.857708
0.284581 0.0635883 0.857329
0.284617 0.126124 0.857217
0.28467 0.188573 0.857481
0.346872 0.00112974 0.857743
0.347081 0.0636729 0.857362
0.347139 0.126107 0.857229
0.347179 0.188585 0.857507
0.409506 0.00107998 0.857767
0.409651 0.0636239 0.85751
0.409664 0.126129 0.857208
0.409707 0.188557 0.857586
0.471989 0.00108682 0.857708
0.472078 0.0637569 0.857343
0.472214 0.126161 0.857395
0.472287 0.188591 0.857589
0.284626 0.00140342 0.897956
0.284784 0.0638004 0.897762
0.284734 0.126029 0.897634
0.284809 0.188157 0.897959
0.347053 0.00144192 0.898047
0.347149 0.0637687 0.897708
0.34728 0.125966 0.897619
0.347249 0.188143 0.897907
0.409648 0.00148417 0.898039
0.409621 0.0638919 0.897666
0.409707 0.125968 0.897616
0.409655 0.188088 0.898046
0.472065 0.00152242 0.898156
0.472092 0.0637945 0.897688
0.472269 0.12598 0.89769
0.472298 0.188143 0.898038
0.285126 0.00162944 0.937586
0.284824 0.0638083 0.937025
0.284873 0.125829 0.937411
0.285286 0.187841 0.937373
0.347273 0.00167791 0.937379
0.347441 0.0638001 0.937428
0.347462 0.125818 0.937144
0.347278 0.187919 0.937575
0.410162 0.00177872 0.937492
0.409787 0.0638723 0.937015
0.409862 0.125808 0.937477
0.410131 0.187829 0.937348
0.472284 0.0017349 0.937326
0.472495 0.0638222 0.937416
0.47231 0.12584 0.937112
0.472223 0.187892 0.937636
0.285312 0.00136864 0.976014
0.284963 0.0636315 0.976597
0.285342 0.125755 0.975734
0.28491 0.187879 0.976773
0.347516 0.00136997 0.976838
0.347745 0.0636273 0.975842
0.347437 0.125689 0.976593
0.348049 0.187855 0.975977
0.410328 0.00142653 0.976029
0.410005 0.063659 0.976551
0.410291 0.125699 0.975829
0.409792 0.187848 0.97681
0.472598 0.00136391 0.97693
0.472677 0.0636853 0.975787
0.472323 0.125682 0.976614
0.472971 0.187793 0.976033
0.286283 0.0316064 0.99469
0.283894 0.0958603 0.994859
0.286312 0.155638 0.994935
0.283723 0.219499 0.995003
0.346462 0.0337998 0.994698
0.348744 0.0935595 0.994829
0.346323 0.157696 0.994925
0.349035 0.217581 0.995084
0.41116 0.0316679 0.99471
0.408788 0.0957001 0.994864
0.411214 0.155597 0.994961
0.4087 0.219535 0.995088
0.471541 0.0339481 0.994785
0.473775 0.093457 0.994858
0.471294 0.157634 0.994917
0.473981 0.2176 0.995086
0.28474 0.0320501 0.755669
0.284698 0.0944634 0.755512
0.284524 0.157243 0.755432
0.284742 0.219986 0.755525
0.347194 0.0318785 0.755671
0.346986 0.0945335 0.755547
0.347069 0.157233 0.755526
0.34699 0.220057 0.755501
0.409473 0.0319691 0.755713
0.409617 0.0944988 0.755563
0.409462 0.157397 0.755553
0.409608 0.219939 0.755525
0.47185 0.0317713 0.755718
0.472185 0.0946567 0.755552
0.472217 0.157311 0.755599
0.472091 0.220069 0.755659
0.284655 0.0320124 0.796612
0.284686 0.0947725 0.796346
0.284616 0.157556 0.796375
0.284761 0.220096 0.796584
0.347169 0.0321037 0.79667
0.347321 0.0948115 0.796367
0.347196 0.157716 0.796388
0.347436 0.220059 0.796623
0.409678 0.031999 0.796689
0.409701 0.0948041 0.796488
0.409821 0.157234 0.796429
0.409723 0.220089 0.796657
0.472294 0.0322067 0.796736
0.472149 0.0946538 0.796477
0.47236 0.157605 0.796486
0.472378 0.219881 0.796635
0.284582 0.0322774 0.837254
0.284598 0.0947312 0.836999
0.284623 0.157317 0.837093
0.284627 0.220113 0.837452
0.346941 0.0322923 0.837289
0.347002 0.0948719 0.837013
0.347163 0.157422 0.83706
0.347304 0.220104 0.837524
0.409561 0.0322901 0.837378
0.409592 0.0947085 0.83707
0.409719 0.157598 0.837126
0.409808 0.219882 0.837535
0.472003 0.0322702 0.837307
0.472217 0.095111 0.837113
0.47227 0.15731 0.837167
0.472417 0.220057 0.837561
0.284572 0.032455 0.877644
0.284759 0.0948667 0.877408
0.284631 0.157347 0.877439
0.28495 0.219528 0.878008
0.347158 0.0324761 0.877641
0.346879 0.0948779 0.877369
0.347195 0.157154 0.87747
0.3471 0.219614 0.878052
0.409487 0.0323402 0.877686
0.40958 0.095004 0.877356
0.409599 0.157344 0.877429
0.409959 0.219584 0.878046
0.472054 0.0325096 0.877681
0.471979 0.0949064 0.877428
0.472347 0.157406 0.877525
0.472241 0.219606 0.87814
0.284845 0.0322515 0.917319
0.284407 0.0950872 0.91724
0.285188 0.156706 0.917325
0.284527 0.219432 0.917782
0.347006 0.0328237 0.917406
0.347344 0.0945939 0.917242
0.346832 0.157123 0.917351
0.347738 0.219117 0.917756
0.409867 0.0324482 0.91735
0.409391 0.0951463 0.917187
0.410126 0.156709 0.917399
0.409368 0.219347 0.917764
0.472021 0.0328266 0.917417
0.472463 0.0945063 0.917251
0.471756 0.157185 0.917425
0.472799 0.219076 0.91779
0.284354 0.0327419 0.956293
0.285448 0.094182 0.956236
0.284284 0.157321 0.956323
0.285756 0.218877 0.956712
0.348044 0.0320239 0.956309
0.346841 0.0950826 0.956282
0.348078 0.156432 0.956363
0.346859 0.219852 0.9567
0.409466 0.0328759 0.956292
0.410458 0.0942095 0.956205
0.409272 0.15732 0.956415
0.41079 0.218908 0.956758
0.472953 0.032026 0.956333
0.47183 0.0950459 0.956244
0.473034 0.156435 0.956385
0.4718 0.219746 0.956763
0.253368 0.0320103 0.776059
0.253302 0.0947096 0.775932
0.25332 0.157304 0.775907
0.253387 0.219827 0.775924
0.315877 0.0320498 0.776144
0.315825 0.0947035 0.776027
0.3158 0.157303 0.775918
0.315952 0.219917 0.776013
0.378308 0.0320387 0.776167
0.378335 0.0947411 0.775983
0.378337 0.157301 0.775986
0.378382 0.219905 0.775927
0.440822 0.0320168 0.776198
0.440852 0.0946493 0.776068
0.44089 0.157313 0.776029
0.440881 0.219932 0.776055
0.253314 0.0321168 0.816983
0.253453 0.0947966 0.816713
0.253489 0.157525 0.816813
0.253535 0.220079 0.816986
0.315877 0.0321567 0.81704
0.315938 0.0948925 0.816711
0.316023 0.157509 0.816789
0.316092 0.220095 0.816962
0.37843 0.0321214 0.817113
0.378419 0.094937 0.816829
0.378517 0.157505 0.816746
0.378536 0.220041 0.817098
0.440927 0.0321248 0.817077
0.441038 0.0948802 0.816859
0.441065 0.15749 0.816843
0.441032 0.219987 0.817065
0.253289 0.0321015 0.857507
0.253416 0.094826 0.857332
0.25345 0.15735 0.857374
0.253444 0.219954 0.857837
0.315731 0.0322249 0.857565
0.315862 0.0947612 0.85728
0.315909 0.157347 0.857319
0.315943 0.21994 0.857798
0.378287 0.0322589 0.857607
0.378379 0.0948802 0.857308
0.378387 0.157446 0.857375
0.378474 0.21997 0.857872
0.440857 0.0322608 0.857638
0.440895 0.0949128 0.857341
0.440968 0.157394 0.857408
0.440993 0.219873 0.857836
0.253425 0.0325445 0.897829
0.253463 0.0948724 0.897481
0.25349 0.157111 0.897761
0.25362 0.219413 0.898156
0.315902 0.0325066 0.897827
0.315923 0.0948356 0.897726
0.315943 0.157123 0.897653
0.316043 0.21948 0.898271
0.378339 0.0325034 0.897895
0.378385 0.0948005 0.897467
0.378481 0.157075 0.897737
0.378579 0.219439 0.898159
0.44085 0.0325936 0.897869
0.44085 0.0948262 0.897676
0.440963 0.157123 0.897584
0.441001 0.219326 0.898352
0.253567 0.0323479 0.937034
0.253507 0.0947525 0.937306
0.253559 0.157136 0.937043
0.253753 0.218805 0.93792
0.315986 0.0326021 0.937413
0.316011 0.0946743 0.936997
0.316085 0.156848 0.937523
0.316204 0.219594 0.937352
0.378532 0.0323144 0.937013
0.378434 0.0946489 0.937329
0.378538 0.157051 0.937055
0.378696 0.219005 0.937927
0.440991 0.032689 0.937413
0.440955 0.0946141 0.936908
0.44102 0.156907 0.937639
0.441124 0.219646 0.937317
0.25393 0.0321319 0.976444
0.253879 0.0947245 0.975706
0.253847 0.156672 0.976652
0.253902 0.219926 0.975839
0.316344 0.0322662 0.975608
0.316265 0.0944386 0.976528
0.316354 0.157239 0.975692
0.316437 0.218886 0.976941
0.378899 0.0322373 0.976471
0.378813 0.0946866 0.97566
0.378828 0.156643 0.976731
0.378851 0.219949 0.975828
0.44135 0.0323146 0.975685
0.44127 0.0944621 0.97657
0.441311 0.15728 0.975765
0.441378 0.218928 0.97705
0.28324 0.250684 0.0147093
0.288028 0.313494 0.0128972
0.282267 0.376679 0.014
0.287419 0.439631 0.0120666
0.350449 0.250539 0.0130147
0.345364 0.313533 0.0146651
0.350352 0.37662 0.0124263
0.344596 0.439736 0.0136143
0.408153 0.250685 0.0147112
0.412978 0.313504 0.0129241
0.407277 0.376693 0.0140563
0.412348 0.439713 0.0120438
0.475355 0.250574 0.0129886
0.470329 0.313445 0.0147449
0.475399 0.376629 0.012388
0.469588 0.439678 0.0136371
0.288284 0.250906 0.0500673
0.282687 0.313681 0.0522513
0.287965 0.37639 0.0496611
0.281874 0.439226 0.0513331
0.345395 0.251026 0.0523386
0.350682 0.313667 0.0499148
0.344639 0.376569 0.0516815
0.349876 0.439346 0.0492365
0.413219 0.250992 0.0500947
0.407575 0.313704 0.0521834
0.412976 0.376462 0.0497104
0.406864 0.439293 0.0511892
0.470392 0.251028 0.0523248
0.475849 0.313698 0.0498576
0.469531 0.376486 0.0517466
0.474961 0.439309 0.0492705
0.282728 0.251199 0.0897493
0.288387 0.313815 0.0872394
0.282165 0.376587 0.0892434
0.287299 0.439177 0.0865608
0.350629 0.251204 0.0873466
0.344966 0.313811 0.0896422
0.350414 0.37648 0.0869173
0.344502 0.439191 0.0887071
0.407722 0.251195 0.0897539
0.41328 0.313733 0.087254
0.407106 0.376549 0.0891914
0.412466 0.439259 0.0865678
0.475629 0.251213 0.0873173
0.46993 0.31373 0.0896824
0.475224 0.3764 0.0869402
0.469317 0.43919 0.0886914
0.287871 0.251262 0.124541
0.28239 0.313844 0.127041
0.28771 0.3765 0.124237
0.281855 0.439235 0.126059
0.345159 0.251275 0.12699
0.350555 0.31388 0.12451
0.344537 0.376549 0.126579
0.349798 0.439161 0.12379
0.41279 0.251213 0.124561
0.407413 0.313821 0.127058
0.412735 0.376493 0.124268
0.406963 0.439215 0.126177
0.470122 0.251282 0.127023
0.475511 0.313779 0.124582
0.469439 0.376538 0.126534
0.474842 0.439198 0.123844
0.28237 0.25135 0.164244
0.287933 0.313883 0.161771
0.28165 0.376622 0.163877
0.287305 0.439167 0.161116
0.350285 0.251343 0.161792
0.344567 0.313896 0.164373
0.350224 0.376533 0.161523
0.344292 0.439155 0.163434
0.407422 0.251338 0.164252
0.413016 0.313872 0.161828
0.406782 0.37656 0.16395
0.412244 0.439129 0.161129
0.475357 0.251303 0.161824
0.469582 0.313866 0.164354
0.475186 0.376455 0.161531
0.469331 0.439199 0.163495
0.287676 0.251374 0.199068
0.281983 0.313967 0.201561
0.287651 0.376552 0.198851
0.281656 0.439167 0.200812
0.344804 0.251349 0.201506
0.35034 0.313941 0.199028
0.34418 0.376595 0.20121
0.349717 0.439238 0.198433
0.412669 0.251388 0.199063
0.407041 0.313884 0.201607
0.412582 0.376558 0.198819
0.406708 0.439166 0.20087
0.469868 0.251412 0.201533
0.475468 0.31397 0.199049
0.469183 0.37657 0.201157
0.474787 0.439161 0.198442
0.282117 0.251414 0.23875
0.287831 0.31394 0.236346
0.281651 0.376678 0.238448
0.287045 0.439215 0.235735
0.350204 0.251503 0.236326
0.344493 0.314078 0.23893
0.350015 0.3766 0.236097
0.344059 0.439189 0.238207
0.40709 0.25146 0.238767
0.412889 0.313948 0.236306
0.406632 0.376651 0.238591
0.412207 0.439216 0.235724
0.47522 0.251449 0.236329
0.469488 0.314073 0.238918
0.475025 0.376565 0.236136
0.469044 0.439194 0.238147
0.28334 0.283754 0.0324778
0.284767 0.343297 0.0324634
0.286709 0.409439 0.0314297
0.282619 0.4691 0.0314156
0.349455 0.280347 0.0324573
0.34756 0.346728 0.0324298
0.345451 0.406351 0.0314522
0.34944 0.472343 0.0313817
0.40834 0.283733 0.0324783
0.409771 0.343366 0.0324359
0.411785 0.409499 0.0314448
0.40763 0.469204 0.0313969
0.474543 0.280184 0.0324959
0.472467 0.346931 0.0324043
0.470386 0.406286 0.0314442
0.474325 0.472216 0.0313914
0.286831 0.280224 0.0697976
0.285252 0.34704 0.0698077
0.282718 0.40585 0.0688305
0.287009 0.472127 0.0688205
0.345923 0.28432 0.0698209
0.347037 0.343074 0.06982
0.34935 0.409611 0.0687948
0.34494 0.468658 0.0688234
0.411807 0.2803 0.0697897
0.410127 0.347037 0.0698068
0.407756 0.406054 0.0688201
0.412043 0.472127 0.0687876
0.470807 0.284367 0.069787
0.47197 0.342959 0.0698158
0.474304 0.409578 0.068772
0.46999 0.468626 0.0687801
0.283281 0.284509 0.107091
0.28425 0.342975 0.10714
0.28683 0.409676 0.106187
0.282547 0.468387 0.106186
0.349206 0.280483 0.107115
0.347714 0.347162 0.107158
0.345217 0.405802 0.106196
0.34955 0.472217 0.106166
0.408138 0.284478 0.107145
0.409318 0.34304 0.10717
0.411825 0.409759 0.1062
0.407578 0.468482 0.106197
0.474242 0.280386 0.107082
0.472779 0.346996 0.107115
0.470046 0.405849 0.106179
0.474514 0.472282 0.106151
0.28652 0.28034 0.144349
0.285172 0.347235 0.14444
0.282494 0.405857 0.143521
0.28696 0.472183 0.143558
0.345584 0.284572 0.144397
0.346526 0.342903 0.144446
0.34923 0.409749 0.143505
0.345035 0.468314 0.143564
0.411614 0.280323 0.144374
0.410201 0.347206 0.144474
0.407618 0.405722 0.143524
0.411861 0.472275 0.143591
0.470612 0.284509 0.144384
0.471342 0.34302 0.144461
0.474194 0.409747 0.143487
0.46998 0.468364 0.143547
0.282946 0.284565 0.181668
0.2838 0.342976 0.18173
0.286664 0.409825 0.180815
0.282562 0.468221 0.180887
0.349045 0.280299 0.181641
0.347695 0.347338 0.181711
0.344921 0.405695 0.180847
0.349293 0.472247 0.180872
0.407967 0.284606 0.181662
0.408817 0.342958 0.181755
0.411706 0.40979 0.180859
0.407493 0.468175 0.180934
0.473904 0.280366 0.181657
0.472758 0.347297 0.181699
0.469931 0.405738 0.18084
0.474303 0.472348 0.180846
0.286282 0.280457 0.218929
0.285449 0.347283 0.218966
0.282254 0.405807 0.218153
0.286656 0.472233 0.21818
0.345515 0.284651 0.218929
0.346002 0.342997 0.219025
0.349164 0.40986 0.218172
0.345113 0.468179 0.218227
0.411331 0.280439 0.218887
0.410497 0.347369 0.21896
0.407298 0.405636 0.218203
0.411717 0.47233 0.21819
0.47042 0.284744 0.218935
0.471114 0.343039 0.219018
0.474105 0.40982 0.218166
0.469937 0.468198 0.21821
0.254028 0.284999 0.0129088
0.253906 0.342761 0.0140471
0.253584 0.411151 0.0137346
0.253511 0.468856 0.0113045
0.316556 0.2802 0.0149529
0.316297 0.348149 0.0139186
0.316162 0.405579 0.0115999
0.315945 0.473883 0.0137107
0.378953 0.285061 0.012832
0.378822 0.342792 0.0140057
0.37866 0.411114 0.0137022
0.378501 0.468848 0.0113399
0.441489 0.280068 0.015029
0.441281 0.348063 0.0138483
0.441117 0.405622 0.0115641
0.440997 0.473831 0.0136736
0.254087 0.280033 0.052314
0.253734 0.348145 0.051464
0.253597 0.40501 0.0487953
0.253445 0.473527 0.0513547
0.316545 0.285447 0.0501625
0.316287 0.342431 0.0511077
0.316041 0.410871 0.0512248
0.315913 0.468275 0.0487024
0.378983 0.280012 0.052236
0.378751 0.348178 0.0514068
0.378659 0.405226 0.0488199
0.378429 0.473579 0.05142
0.441494 0.285509 0.0501
0.441314 0.342352 0.0511378
0.441103 0.410967 0.0512097
0.440985 0.468305 0.0486989
0.253952 0.285669 0.0874302
0.253753 0.342352 0.0883519
0.253518 0.410807 0.0885952
0.253424 0.468144 0.086091
0.316455 0.280033 0.0895426
0.316232 0.348297 0.0888465
0.316034 0.405226 0.0861246
0.315964 0.47345 0.088796
0.378925 0.285567 0.0874205
0.378771 0.342379 0.0883773
0.378573 0.410943 0.088559
0.378533 0.468193 0.0860133
0.441404 0.279934 0.0895732
0.441173 0.348209 0.0888748
0.441016 0.40514 0.0860962
0.441015 0.47364 0.0887486
0.253718 0.280077 0.126843
0.253606 0.348323 0.126238
0.253446 0.405156 0.123467
0.253474 0.473597 0.126157
0.316235 0.285612 0.124747
0.316071 0.342469 0.125671
0.31591 0.410833 0.125972
0.315971 0.468115 0.123472
0.378702 0.28011 0.126889
0.378585 0.348362 0.126223
0.378498 0.405233 0.123511
0.378463 0.473393 0.126089
0.441201 0.285511 0.124749
0.44108 0.342374 0.125579
0.440922 0.410877 0.125949
0.440948 0.468126 0.123462
0.253557 0.28567 0.162005
0.253447 0.34241 0.162794
0.253285 0.410961 0.163338
0.253476 0.468084 0.160909
0.316086 0.280136 0.164128
0.315935 0.348466 0.163521
0.31582 0.405099 0.160823
0.315962 0.473438 0.163464
0.378575 0.285822 0.161974
0.378426 0.342301 0.162811
0.378365 0.410922 0.163317
0.378446 0.468034 0.160874
0.441104 0.279985 0.164088
0.440901 0.348347 0.163596
0.440869 0.405088 0.160829
0.440899 0.473441 0.16348
0.253463 0.280106 0.201385
0.253335 0.348496 0.20096
0.253216 0.405117 0.198127
0.253243 0.473463 0.20075
0.315995 0.285659 0.199283
0.315862 0.342286 0.199958
0.315745 0.411028 0.200633
0.315815 0.468034 0.198265
0.378448 0.28004 0.201359
0.37836 0.348363 0.200913
0.37827 0.405117 0.198104
0.378348 0.473574 0.200763
0.441042 0.285748 0.199312
0.440909 0.342405 0.199945
0.440748 0.410906 0.200669
0.440881 0.468006 0.198203
0.253403 0.285842 0.236635
0.253342 0.342545 0.237119
0.253142 0.410928 0.237981
0.253223 0.467935 0.23562
0.315893 0.280197 0.238517
0.315739 0.348528 0.23823
0.315693 0.40524 0.235406
0.315779 0.473361 0.238116
0.378394 0.286023 0.236561
0.378407 0.342492 0.237014
0.378217 0.411015 0.238032
0.378296 0.467965 0.235615
0.440883 0.280165 0.238528
0.440856 0.348421 0.238242
0.440679 0.405106 0.235437
0.44085 0.473584 0.238087
0.287638 0.25146 0.273527
0.281851 0.313946 0.276183
0.287429 0.376487 0.273408
0.281721 0.439049 0.275433
0.344648 0.251414 0.276152
0.350215 0.31386 0.273501
0.344289 0.376456 0.275832
0.349475 0.43902 0.27298
0.412575 0.251474 0.273582
0.406976 0.31392 0.27618
0.412331 0.376406 0.273357
0.406614 0.439097 0.275514
0.469567 0.251448 0.276052
0.475144 0.313868 0.273534
0.469303 0.376478 0.275832
0.474412 0.439081 0.273035
0.282074 0.251397 0.313446
0.287504 0.313785 0.31081
0.281775 0.37635 0.31312
0.286707 0.438892 0.310272
0.349952 0.251499 0.310854
0.344471 0.313821 0.313596
0.34969 0.376298 0.310699
0.344083 0.438863 0.312773
0.406871 0.251328 0.313436
0.412493 0.313794 0.310872
0.406701 0.376326 0.313085
0.411743 0.438857 0.31027
0.47509 0.251456 0.310869
0.469346 0.313761 0.313595
0.474641 0.376292 0.310681
0.469077 0.438884 0.312799
0.287476 0.251494 0.348174
0.281796 0.313786 0.350888
0.287094 0.376272 0.348059
0.281423 0.438833 0.349964
0.34428 0.251427 0.350822
0.349983 0.313789 0.34825
0.344101 0.376349 0.350397
0.349267 0.438858 0.347672
0.412386 0.251404 0.348132
0.406709 0.313791 0.350949
0.412155 0.376288 0.34809
0.406466 0.438846 0.349939
0.469355 0.251437 0.350852
0.474898 0.313822 0.348232
0.469079 0.376314 0.350511
0.474222 0.438838 0.347585
0.281544 0.251496 0.388177
0.28726 0.31388 0.385683
0.281256 0.376405 0.387747
0.286768 0.438843 0.38491
0.349808 0.251542 0.385684
0.344047 0.313854 0.388204
0.349515 0.376303 0.385401
0.343659 0.438835 0.387282
0.406531 0.251516 0.388215
0.41235 0.313882 0.385685
0.406306 0.376405 0.387796
0.411722 0.438842 0.385004
0.474708 0.251545 0.385624
0.469143 0.313927 0.388259
0.474459 0.376314 0.385356
0.468646 0.438886 0.387289
0.287235 0.251591 0.423093
0.281518 0.313979 0.425569
0.287022 0.37628 0.422891
0.281235 0.438739 0.424659
0.343927 0.251647 0.425524
0.349893 0.313884 0.423216
0.343843 0.376341 0.42509
0.349042 0.438752 0.422302
0.412201 0.25164 0.422994
0.406643 0.313927 0.42565
0.411905 0.376329 0.422774
0.406202 0.438703 0.424712
0.46901 0.251631 0.425533
0.474768 0.313927 0.423113
0.468834 0.376392 0.425148
0.474039 0.438817 0.422277
0.281557 0.25174 0.463026
0.287414 0.314033 0.460719
0.281275 0.376395 0.462543
0.286536 0.438679 0.459743
0.349793 0.251783 0.460573
0.344069 0.313986 0.463055
0.349404 0.376212 0.460403
0.343469 0.438627 0.46189
0.406541 0.251725 0.463027
0.412408 0.313986 0.460697
0.406175 0.376338 0.462535
0.411411 0.438632 0.459765
0.474705 0.251739 0.460495
0.469042 0.313984 0.463064
0.474449 0.376242 0.460394
0.468533 0.438631 0.462011
0.287056 0.251673 0.498087
0.286891 0.376217 0.498019
0.349135 0.438559 0.497509
0.412075 0.251716 0.498027
0.411941 0.376089 0.497941
0.474132 0.438504 0.49745
0.282974 0.284795 0.256194
0.283363 0.342959 0.256278
0.286528 0.409689 0.255464
0.282402 0.46814 0.255534
0.348584 0.280315 0.256165
0.347995 0.347321 0.256235
0.344762 0.405638 0.255476
0.349176 0.47229 0.255567
0.407942 0.28472 0.256168
0.408379 0.342842 0.256315
0.411611 0.409844 0.255507
0.407532 0.468082 0.255541
0.473556 0.280399 0.256176
0.472907 0.34737 0.256304
0.469826 0.405669 0.255503
0.47411 0.472211 0.255534
0.285783 0.280194 0.293451
0.285374 0.34723 0.293563
0.282247 0.405538 0.292775
0.286546 0.472073 0.292807
0.34557 0.28497 0.293463
0.345736 0.342738 0.29361
0.348991 0.409731 0.292747
0.344957 0.467852 0.292814
0.4108 0.280333 0.293462
0.410296 0.347222 0.293559
0.407205 0.405432 0.292735
0.41151 0.472232 0.292835
0.470467 0.28484 0.293441
0.470779 0.342774 0.293666
0.473932 0.409717 0.292758
0.469891 0.46795 0.29286
0.283227 0.284874 0.330794
0.283084 0.342698 0.330941
0.286486 0.409452 0.330045
0.282256 0.467776 0.3301
0.347867 0.28025 0.330823
0.347927 0.347123 0.330952
0.344653 0.40546 0.33008
0.348956 0.471958 0.33009
0.408122 0.284787 0.330799
0.408061 0.342777 0.330999
0.411584 0.409405 0.330033
0.407334 0.467922 0.330103
0.472772 0.280256 0.330827
0.472817 0.347298 0.330921
0.469537 0.405428 0.330082
0.473924 0.471985 0.330125
0.284963 0.280391 0.368195
0.285486 0.347072 0.368302
0.281903 0.405482 0.367376
0.286332 0.471929 0.367395
0.345684 0.284834 0.368176
0.345231 0.342817 0.368332
0.348972 0.409455 0.367416
0.344858 0.467963 0.367406
0.409866 0.280282 0.368152
0.410495 0.347097 0.368321
0.406914 0.405588 0.367412
0.411378 0.471834 0.367409
0.470717 0.284897 0.368157
0.470278 0.342713 0.368364
0.474112 0.40945 0.367413
0.469849 0.467949 0.367419
0.283398 0.284817 0.405531
0.282507 0.343022 0.405718
0.286436 0.409461 0.404756
0.282237 0.467753 0.404751
0.346958 0.280636 0.405575
0.348204 0.34691 0.405722
0.34435 0.405559 0.404787
0.348797 0.471694 0.404718
0.408413 0.284943 0.405542
0.407424 0.342927 0.405742
0.411533 0.409423 0.404804
0.407314 0.467876 0.404782
0.472014 0.280641 0.40557
0.473255 0.347093 0.405718
0.469293 0.405449 0.404782
0.47374 0.47175 0.404753
0.284065 0.2809 0.443038
0.286159 0.346961 0.443171
0.281674 0.405583 0.442185
0.286182 0.471704 0.442097
0.346285 0.284808 0.442974
0.344515 0.34305 0.443221
0.349031 0.409203 0.442169
0.344746 0.467888 0.442093
0.408901 0.280702 0.443031
0.411182 0.346985 0.443221
0.406734 0.405406 0.442191
0.411115 0.471684 0.442162
0.471296 0.284876 0.442965
0.469526 0.343058 0.443212
0.474056 0.409314 0.442165
0.469752 0.467813 0.442131
0.284391 0.284864 0.480506
0.282062 0.343143 0.480772
0.286468 0.409295 0.479664
0.282367 0.467589 0.479592
0.346051 0.280895 0.480547
0.348782 0.34651 0.480736
0.344317 0.405628 0.479665
0.348427 0.471206 0.479547
0.409391 0.284918 0.480444
0.406915 0.343088 0.480756
0.411404 0.40916 0.479679
0.407281 0.467541 0.479604
0.470972 0.280742 0.480529
0.473921 0.34664 0.480756
0.469495 0.405492 0.479656
0.473571 0.471325 0.479596
0.253261 0.280077 0.275694
0.253143 0.348324 0.275547
0.253153 0.405304 0.272776
0.253161 0.473223 0.275407
0.315829 0.285863 0.273918
0.315773 0.342364 0.274357
0.315648 0.410699 0.275268
0.315716 0.468141 0.272866
0.37828 0.280156 0.275765
0.378191 0.348146 0.275638
0.378142 0.405115 0.272725
0.378179 0.473393 0.275332
0.440803 0.285663 0.273949
0.440787 0.342401 0.274446
0.440633 0.410664 0.275291
0.440729 0.468035 0.272991
0.253205 0.285541 0.31141
0.253206 0.342294 0.311699
0.25299 0.410398 0.312505
0.25311 0.467942 0.310143
0.315669 0.280062 0.312917
0.315689 0.34811 0.312952
0.315627 0.405109 0.309987
0.315625 0.472955 0.31265
0.378186 0.285622 0.31133
0.378171 0.342423 0.311742
0.37806 0.41047 0.312558
0.378137 0.467965 0.310184
0.440662 0.27996 0.31288
0.440585 0.348028 0.312968
0.440565 0.405083 0.309942
0.440631 0.472997 0.312676
0.253043 0.280001 0.350026
0.253099 0.348137 0.350416
0.253026 0.405057 0.347216
0.253008 0.47313 0.349929
0.315534 0.285722 0.348882
0.315588 0.342388 0.348989
0.315471 0.4105 0.349893
0.315545 0.467746 0.347477
0.378019 0.279917 0.350099
0.378057 0.348154 0.350465
0.37796 0.405014 0.347285
0.378047 0.473048 0.349958
0.440508 0.285757 0.348912
0.440573 0.342345 0.348998
0.440522 0.410563 0.35
0.440565 0.467833 0.347516
0.252914 0.285861 0.386389
0.25293 0.342385 0.386272
0.252887 0.410695 0.387289
0.252931 0.467576 0.384871
0.315364 0.280006 0.38735
0.315411 0.348189 0.387871
0.31537 0.404949 0.384603
0.315494 0.473238 0.387215
0.377923 0.285893 0.38641
0.377891 0.342376 0.386232
0.377871 0.410718 0.387347
0.377994 0.467618 0.384883
0.440367 0.279998 0.387298
0.440402 0.348198 0.387963
0.44034 0.405027 0.384618
0.440471 0.473244 0.387253
0.252821 0.280081 0.424513
0.252917 0.348143 0.425544
0.252846 0.404999 0.42195
0.252915 0.472807 0.424593
0.315272 0.285979 0.424003
0.315435 0.342258 0.423438
0.315339 0.410538 0.424802
0.315409 0.46764 0.422175
0.377837 0.279991 0.424458
0.377934 0.348069 0.425571
0.377838 0.404996 0.421954
0.377876 0.472824 0.424562
0.440307 0.285885 0.42408
0.440391 0.342527 0.423421
0.440312 0.410595 0.424825
0.440377 0.467722 0.422252
0.252836 0.28593 0.46185
0.25299 0.342306 0.4607
0.252769 0.410494 0.462339
0.25276 0.467535 0.459644
0.31533 0.280107 0.461707
0.315468 0.348031 0.46321
0.315251 0.404785 0.459443
0.315264 0.47288 0.461983
0.377774 0.286 0.461749
0.377962 0.342361 0.460678
0.377727 0.410525 0.462277
0.377767 0.467409 0.459737
0.440326 0.280107 0.461633
0.440448 0.347977 0.463265
0.440291 0.404939 0.459532
0.440256 0.472699 0.461996
0.252809 0.404892 0.497044
0.315352 0.467293 0.497315
0.377905 0.404785 0.497097
0.440332 0.467183 0.497294
0.281136 0.438571 0.499677
0.315353 0.410275 0.499627
0.315533 0.342362 0.498294
0.406159 0.438484 0.499658
0.349705 0.313828 0.498382
0.252796 0.472691 0.499253
0.474765 0.313873 0.498311
0.440299 0.410206 0.499566
0.377875 0.472699 0.499315
0.440527 0.342324 0.498217
0.377917 0.280138 0.498831
0.252909 0.280071 0.49887
0.44046 0.285519 0.499743
0.315393 0.285545 0.499762
0.34399 0.376188 0.499909
0.4689 0.376184 0.499932
0.281779 0.313888 0.500477
0.344352 0.251607 0.500408
0.406807 0.313852 0.50051
0.469509 0.251643 0.500498
0.282337 0.250763 0.538076
0.287068 0.31287 0.536136
0.281582 0.375503 0.537553
0.286074 0.43831 0.534728
0.349301 0.250778 0.535966
0.344434 0.312943 0.537902
0.349406 0.375437 0.535823
0.344259 0.43825 0.536743
0.407365 0.250769 0.538056
0.412017 0.3129 0.536175
0.406704 0.3755 0.537541
0.411203 0.438286 0.534829
0.474373 0.250754 0.535933
0.46951 0.31296 0.538042
0.474323 0.37547 0.535877
0.469039 0.438239 0.536741
0.281465 0.312192 0.575218
0.285869 0.375283 0.572576
0.283584 0.43849 0.573618
0.350166 0.312108 0.573936
0.344853 0.375317 0.573913
0.347485 0.438254 0.572446
0.406509 0.312144 0.575266
0.410983 0.375196 0.572671
0.408703 0.438423 0.573522
0.475199 0.312058 0.574049
0.469819 0.375292 0.573968
0.472404 0.438361 0.57247
0.284978 0.311922 0.613441
0.283897 0.375399 0.612208
0.284266 0.438888 0.611044
0.346222 0.312049 0.613786
0.346938 0.375318 0.61151
0.347038 0.438873 0.611547
0.409922 0.312026 0.613401
0.408965 0.375406 0.612183
0.409267 0.438819 0.611149
0.47128 0.312067 0.613923
0.472128 0.375284 0.611542
0.472015 0.438755 0.611608
0.284256 0.312054 0.653204
0.284438 0.37564 0.65
0.284605 0.438542 0.650756
0.346853 0.312033 0.65306
0.346817 0.375597 0.650494
0.347003 0.438624 0.650389
0.409293 0.311933 0.653069
0.409388 0.37556 0.650065
0.409575 0.438594 0.650549
0.471946 0.311861 0.652989
0.472118 0.375603 0.650487
0.472117 0.438615 0.650443
0.284211 0.25082 0.694337
0.284318 0.313338 0.693802
0.284644 0.375658 0.692334
0.284495 0.438428 0.690891
0.346862 0.250871 0.694281
0.346217 0.31316 0.693852
0.34645 0.375863 0.690752
0.347081 0.4383 0.690885
0.409292 0.250934 0.694314
0.409258 0.313107 0.693735
0.409314 0.37579 0.690036
0.409448 0.438192 0.690643
0.471792 0.250906 0.694225
0.47227 0.31317 0.693588
0.472952 0.375618 0.69091
0.471942 0.438332 0.690767
0.284506 0.251178 0.734983
0.28498 0.313695 0.734993
0.285555 0.375988 0.734325
0.284361 0.438634 0.731714
0.347016 0.251034 0.734915
0.34718 0.313555 0.734907
0.348275 0.375991 0.734187
0.347633 0.438652 0.731912
0.409542 0.251022 0.73499
0.409181 0.313253 0.735194
0.409453 0.376176 0.732056
0.409774 0.438579 0.731932
0.47198 0.251211 0.735065
0.472317 0.313499 0.735086
0.471911 0.375898 0.733493
0.471589 0.438517 0.731709
0.282936 0.280494 0.518144
0.286362 0.34626 0.518376
0.282413 0.405301 0.517227
0.285664 0.471683 0.516995
0.347779 0.284021 0.518095
0.344576 0.342965 0.518315
0.348609 0.408524 0.517213
0.345341 0.467926 0.517082
0.408012 0.280602 0.518168
0.411405 0.346195 0.518322
0.407511 0.405262 0.517264
0.41081 0.47144 0.517059
0.472766 0.284186 0.518127
0.469583 0.342932 0.518334
0.47351 0.408642 0.51721
0.470188 0.467758 0.5171
0.285535 0.282854 0.555983
0.282565 0.342421 0.555877
0.285468 0.408819 0.554634
0.283376 0.468299 0.554686
0.345273 0.280107 0.556048
0.348406 0.344946 0.555834
0.345792 0.405939 0.554799
0.347848 0.470913 0.554584
0.410648 0.282783 0.556022
0.407663 0.34243 0.555846
0.410552 0.408717 0.554675
0.408269 0.468398 0.554689
0.470256 0.279918 0.556085
0.473278 0.344861 0.555864
0.470696 0.40602 0.554867
0.472927 0.4709 0.554622
0.283198 0.279553 0.594139
0.285276 0.343416 0.593715
0.283776 0.405484 0.592567
0.284905 0.470481 0.592723
0.347773 0.28102 0.594095
0.345707 0.342223 0.593668
0.347437 0.406599 0.592549
0.346438 0.469357 0.592715
0.408436 0.279687 0.594189
0.410194 0.343426 0.593703
0.408896 0.405381 0.592601
0.409957 0.470324 0.59271
0.472954 0.28107 0.594126
0.470889 0.342174 0.59371
0.472431 0.40655 0.592539
0.471388 0.469251 0.592798
0.284825 0.280814 0.633067
0.28388 0.342665 0.632431
0.28465 0.406835 0.630584
0.284362 0.469427 0.631478
0.346287 0.280473 0.633031
0.347175 0.343188 0.632409
0.346473 0.406086 0.630669
0.347287 0.470109 0.631497
0.409643 0.280892 0.632969
0.40877 0.342646 0.632423
0.409678 0.406628 0.630658
0.409333 0.46959 0.631434
0.471312 0.280324 0.633022
0.472296 0.343302 0.632497
0.471766 0.406077 0.630762
0.472303 0.46994 0.631533
0.284244 0.281113 0.673653
0.28471 0.344161 0.672826
0.284276 0.405289 0.67012
0.284696 0.469832 0.6712
0.346882 0.281103 0.673658
0.345925 0.343537 0.67287
0.346797 0.406051 0.669909
0.346712 0.469398 0.671086
0.409219 0.28103 0.67356
0.409277 0.343443 0.672423
0.409303 0.405536 0.669868
0.409696 0.469838 0.671128
0.471907 0.281021 0.673478
0.472087 0.343624 0.672438
0.472229 0.405952 0.669942
0.472062 0.469588 0.671015
0.284479 0.282443 0.714573
0.284151 0.346436 0.714637
0.284932 0.406877 0.711159
0.284535 0.469335 0.711654
0.346554 0.282427 0.714587
0.346364 0.345622 0.714377
0.347864 0.406038 0.710977
0.347367 0.469764 0.711628
0.40948 0.282436 0.71457
0.409034 0.343682 0.71433
0.409597 0.405331 0.710418
0.409494 0.46939 0.711412
0.472188 0.282403 0.714601
0.473061 0.345116 0.714161
0.471495 0.405995 0.710681
0.471994 0.469526 0.71147
0.253028 0.347953 0.500937
0.378018 0.347892 0.500921
0.252943 0.284045 0.537867
0.253051 0.34142 0.53592
0.252925 0.40904 0.536677
0.252825 0.467303 0.535016
0.315568 0.279203 0.536256
0.315536 0.346677 0.53845
0.315509 0.404212 0.534986
0.315332 0.471388 0.536427
0.378017 0.28403 0.537934
0.378108 0.341484 0.535987
0.377962 0.409013 0.536713
0.377869 0.467338 0.535007
0.44058 0.279205 0.536265
0.440561 0.346645 0.538388
0.440452 0.40416 0.535003
0.440355 0.471535 0.536562
0.253094 0.276617 0.573952
0.252984 0.345091 0.575448
0.252971 0.405166 0.572728
0.252999 0.469755 0.573528
0.31551 0.283543 0.575689
0.315524 0.340195 0.573636
0.315464 0.407323 0.573627
0.315599 0.469072 0.57281
0.378152 0.2767 0.574
0.378027 0.345056 0.575331
0.378073 0.405055 0.572779
0.378098 0.469643 0.573499
0.440611 0.283579 0.575865
0.440564 0.3401 0.573714
0.440517 0.407294 0.573736
0.440587 0.469041 0.572733
0.252998 0.280653 0.614218
0.253049 0.341814 0.612567
0.253042 0.406519 0.611465
0.253163 0.46975 0.611551
0.315494 0.279318 0.61325
0.315506 0.342892 0.613388
0.315606 0.406325 0.61106
0.315803 0.46938 0.611995
0.377879 0.280565 0.614007
0.377952 0.342008 0.612617
0.378144 0.406246 0.611605
0.378301 0.469865 0.611476
0.440551 0.279387 0.613272
0.440545 0.343049 0.61343
0.4407 0.406131 0.61127
0.440797 0.469252 0.612005
0.25305 0.280658 0.653218
0.253204 0.342779 0.65235
0.253271 0.406723 0.649959
0.253304 0.469645 0.651148
0.315533 0.280726 0.653435
0.315543 0.342475 0.651855
0.315666 0.406658 0.650026
0.31579 0.469686 0.650889
0.378058 0.280689 0.653078
0.377994 0.342607 0.652231
0.378144 0.406703 0.649701
0.378338 0.469733 0.651063
0.440531 0.280626 0.653353
0.440557 0.342457 0.651858
0.440671 0.406617 0.650024
0.440756 0.469707 0.650866
0.253113 0.281758 0.69408
0.253195 0.344572 0.693489
0.253305 0.406557 0.690682
0.253243 0.469433 0.691223
0.315414 0.281706 0.694088
0.315378 0.344777 0.694018
0.31576 0.406663 0.690585
0.315802 0.469434 0.691371
0.378018 0.281983 0.694057
0.377976 0.343631 0.692588
0.378155 0.406654 0.69005
0.378196 0.469562 0.691157
0.440654 0.281972 0.693984
0.4406 0.343637 0.692392
0.440702 0.406482 0.68991
0.440781 0.469576 0.691146
0.253261 0.282284 0.734982
0.253064 0.34403 0.734619
0.252928 0.407958 0.732036
0.252949 0.46962 0.732144
0.315766 0.282159 0.73504
0.315972 0.34512 0.735134
0.315909 0.407869 0.733062
0.315828 0.469566 0.732097
0.378169 0.282066 0.734966
0.378222 0.345099 0.734991
0.378737 0.407044 0.731641
0.378379 0.469971 0.732132
0.44079 0.282308 0.735082
0.440822 0.343815 0.733756
0.440577 0.406965 0.731057
0.44074 0.469933 0.731969
0.284366 0.25002 0.653677
0.346768 0.250028 0.653749
0.413636 0.250042 0.574183
0.284755 0.251175 0.77598
0.284634 0.313302 0.776199
0.283134 0.376077 0.773563
0.283942 0.438368 0.773062
0.347276 0.251165 0.775987
0.347685 0.313469 0.776104
0.348329 0.375718 0.775581
0.346992 0.438656 0.772894
0.409662 0.251038 0.77602
0.409653 0.313364 0.775982
0.410516 0.375798 0.775698
0.409859 0.438931 0.772977
0.472313 0.25112 0.776114
0.471816 0.313437 0.776498
0.46979 0.376077 0.774673
0.471799 0.438731 0.77339
0.284855 0.251215 0.817152
0.284057 0.313424 0.817682
0.283504 0.375918 0.815021
0.284551 0.438265 0.814414
0.347346 0.251197 0.81722
0.3474 0.313387 0.817846
0.345973 0.375929 0.814779
0.346582 0.43813 0.814486
0.409817 0.25115 0.817263
0.410145 0.313584 0.817835
0.410946 0.375777 0.81741
0.409362 0.438621 0.814506
0.472346 0.251054 0.817184
0.472261 0.313411 0.817733
0.472766 0.375859 0.817338
0.472437 0.438845 0.814596
0.284626 0.251031 0.858072
0.2848 0.313682 0.859069
0.285707 0.376307 0.859089
0.285236 0.43865 0.855881
0.347221 0.251049 0.858214
0.347206 0.313355 0.859272
0.34705 0.376476 0.857692
0.347027 0.438664 0.856054
0.409789 0.251004 0.858233
0.40978 0.31362 0.859261
0.408597 0.376266 0.858937
0.409245 0.438617 0.856156
0.47231 0.251003 0.858227
0.472208 0.313708 0.85916
0.472311 0.376046 0.860019
0.472065 0.438866 0.855966
0.284898 0.313206 0.899622
0.284984 0.376396 0.899764
0.284667 0.440106 0.897061
0.347387 0.313269 0.899389
0.347297 0.376471 0.90009
0.34728 0.440026 0.896908
0.409686 0.313258 0.899475
0.409436 0.376417 0.899824
0.409451 0.440067 0.897075
0.472365 0.313138 0.899578
0.472026 0.376363 0.900018
0.472113 0.439939 0.896986
0.285919 0.312837 0.938468
0.283985 0.376785 0.93839
0.285446 0.440283 0.936277
0.346888 0.312882 0.938809
0.34836 0.376671 0.938018
0.346514 0.440348 0.936679
0.410833 0.312887 0.938584
0.408819 0.37672 0.938486
0.410444 0.440255 0.936232
0.471834 0.312883 0.93879
0.473322 0.376689 0.938106
0.4715 0.440251 0.936666
0.472243 0.250499 0.898695
0.283773 0.313397 0.97736
0.287348 0.376803 0.976152
0.28135 0.440255 0.975885
0.346969 0.25033 0.97729
0.348864 0.313321 0.976446
0.345238 0.376888 0.977182
0.350366 0.440225 0.974923
0.284896 0.250502 0.898537
0.408827 0.313399 0.977346
0.412325 0.376784 0.976109
0.406367 0.440287 0.975896
0.471849 0.250345 0.977307
0.473872 0.313319 0.976428
0.470277 0.37688 0.977159
0.475482 0.440192 0.974958
0.286667 0.280448 0.995118
0.284656 0.345962 0.995056
0.283429 0.407519 0.994077
0.286491 0.472163 0.993752
0.346024 0.282731 0.995075
0.347564 0.343555 0.99511
0.348829 0.409589 0.994065
0.345622 0.470075 0.993793
0.411738 0.280632 0.995111
0.409728 0.346034 0.995062
0.408329 0.407417 0.99406
0.411475 0.472362 0.993698
0.470855 0.282782 0.995107
0.472607 0.343435 0.995146
0.47379 0.409603 0.994046
0.470729 0.469985 0.99379
0.284934 0.282484 0.755579
0.285673 0.34455 0.755488
0.283099 0.407351 0.752409
0.284194 0.469365 0.75243
0.347367 0.282346 0.755547
0.347581 0.346044 0.755766
0.347965 0.407424 0.752609
0.347034 0.469904 0.752494
0.409416 0.282352 0.755589
0.40928 0.345496 0.755461
0.410245 0.406295 0.752363
0.409787 0.470053 0.75251
0.472201 0.282695 0.755837
0.472187 0.34499 0.755902
0.470616 0.406963 0.752213
0.471899 0.469513 0.752423
0.284823 0.28257 0.796938
0.283713 0.344166 0.796709
0.284226 0.405738 0.793247
0.284181 0.469553 0.793499
0.34743 0.282612 0.796977
0.348537 0.344187 0.796923
0.345845 0.407283 0.793501
0.346831 0.4693 0.793568
0.409834 0.282402 0.797066
0.409937 0.345938 0.797535
0.410391 0.407966 0.79374
0.409407 0.469616 0.793697
0.472141 0.282357 0.797015
0.471318 0.345178 0.797276
0.472537 0.406661 0.793878
0.472229 0.469978 0.793956
0.284481 0.28269 0.838174
0.283932 0.346077 0.839147
0.285429 0.406304 0.834982
0.28472 0.469437 0.83487
0.347071 0.28259 0.838255
0.346914 0.344906 0.83911
0.347239 0.405148 0.834917
0.347165 0.469525 0.834867
0.410107 0.282612 0.838335
0.410633 0.345694 0.839321
0.408273 0.40718 0.835387
0.409116 0.469288 0.835041
0.472254 0.28239 0.838293
0.47246 0.346562 0.839377
0.47262 0.408112 0.835538
0.472085 0.469658 0.834977
0.284806 0.282576 0.878897
0.284973 0.346075 0.880222
0.285304 0.40867 0.877383
0.284656 0.470653 0.876175
0.347342 0.282113 0.878899
0.347136 0.346585 0.880042
0.346967 0.408021 0.877286
0.34727 0.470851 0.876135
0.409565 0.282253 0.878878
0.409726 0.346258 0.880135
0.409504 0.408274 0.877465
0.409564 0.470706 0.876225
0.472307 0.282187 0.878958
0.472417 0.346167 0.880355
0.472088 0.408798 0.87734
0.47204 0.470816 0.876218
0.285486 0.281893 0.918558
0.284984 0.345594 0.919376
0.284328 0.409083 0.917708
0.285005 0.471842 0.916989
0.346949 0.282186 0.918522
0.347516 0.345241 0.919494
0.347847 0.409521 0.917687
0.346651 0.471207 0.917005
0.410332 0.282068 0.918534
0.409646 0.345571 0.919406
0.409194 0.409113 0.917719
0.410101 0.471854 0.917018
0.471976 0.281919 0.91854
0.472428 0.345389 0.91945
0.472729 0.409242 0.917805
0.471564 0.471383 0.917091
0.284355 0.282223 0.95725
0.285292 0.345295 0.95741
0.285975 0.409916 0.956293
0.283486 0.471613 0.955823
0.348478 0.281369 0.957229
0.347114 0.346321 0.95744
0.346335 0.40897 0.956326
0.348411 0.472861 0.955755
0.409216 0.282059 0.957242
0.410316 0.345339 0.957442
0.410863 0.409926 0.95633
0.408481 0.471538 0.955783
0.473503 0.281386 0.957249
0.472032 0.346254 0.957451
0.471409 0.409076 0.956374
0.473387 0.472662 0.955765
0.253394 0.282302 0.776103
0.253027 0.343934 0.774913
0.252711 0.407053 0.77278
0.253057 0.469852 0.773044
0.316015 0.282354 0.776074
0.315949 0.344006 0.775707
0.315703 0.407779 0.773208
0.315587 0.469596 0.773124
0.378474 0.282075 0.776101
0.378799 0.344743 0.776394
0.378528 0.40793 0.774203
0.378357 0.469782 0.773156
0.440847 0.282063 0.776173
0.440594 0.344405 0.776384
0.440773 0.407447 0.772937
0.440896 0.470312 0.773357
0.253267 0.282298 0.817388
0.253132 0.344927 0.817889
0.253455 0.406895 0.814239
0.253341 0.469669 0.814291
0.315952 0.282605 0.817465
0.315793 0.343878 0.81636
0.315652 0.406928 0.813984
0.315752 0.46969 0.814346
0.37859 0.282493 0.817528
0.378536 0.344205 0.817639
0.378362 0.407658 0.814918
0.378166 0.469564 0.814351
0.441123 0.282329 0.817528
0.441199 0.344817 0.818508
0.440907 0.408262 0.81586
0.440773 0.469876 0.81455
0.253501 0.282635 0.858572
0.253614 0.345522 0.860028
0.253546 0.408376 0.857557
0.253476 0.469833 0.855714
0.31596 0.282535 0.8586
0.315995 0.345464 0.859533
0.316125 0.407453 0.856066
0.315903 0.470154 0.855624
0.378565 0.282541 0.85861
0.378437 0.345452 0.859519
0.37814 0.407547 0.856407
0.378313 0.4701 0.855712
0.441069 0.282481 0.85875
0.441099 0.345446 0.860074
0.440824 0.408172 0.857391
0.440781 0.470009 0.855705
0.253706 0.282046 0.899192
0.253621 0.345204 0.900297
0.253557 0.409332 0.897893
0.253328 0.471397 0.896895
0.316137 0.282026 0.898935
0.316164 0.345378 0.900055
0.316043 0.409684 0.898297
0.315886 0.47127 0.896537
0.378605 0.28202 0.899123
0.378524 0.345322 0.900061
0.378401 0.409417 0.897824
0.378363 0.471476 0.896897
0.44103 0.282035 0.898987
0.441015 0.345269 0.900216
0.440932 0.409467 0.898278
0.440865 0.471236 0.89667
0.253841 0.282593 0.937813
0.253806 0.344914 0.938672
0.253646 0.410555 0.937554
0.253556 0.471807 0.935868
0.31633 0.281345 0.938619
0.316217 0.346537 0.938488
0.31616 0.408963 0.936655
0.315979 0.473112 0.936745
0.378763 0.282676 0.937879
0.378703 0.344785 0.938853
0.378572 0.410644 0.937577
0.3785 0.47183 0.935811
0.441217 0.281351 0.938632
0.441153 0.34675 0.938438
0.441094 0.408852 0.936657
0.440945 0.473017 0.936796
0.253832 0.281322 0.977403
0.253728 0.347452 0.976486
0.25367 0.406745 0.97457
0.253472 0.475851 0.975983
0.316366 0.283274 0.975919
0.316274 0.344126 0.976916
0.316059 0.412427 0.976114
0.316016 0.468929 0.973985
0.378854 0.281268 0.977456
0.378664 0.347387 0.97654
0.378619 0.406824 0.974653
0.378394 0.475894 0.97595
0.441289 0.283369 0.97596
0.441219 0.344015 0.976934
0.441105 0.412273 0.976243
0.440998 0.46887 0.974004
0.34735 0.250464 0.898691
0.409864 0.250523 0.898615
0.410777 0.250205 0.976537
0.285757 0.250218 0.976492
0.284651 0.250087 0.937968
0.409671 0.250105 0.937896
0.34817 0.250111 0.937672
0.473129 0.250073 0.937761
0.282344 0.502344 0.0134987
0.286493 0.564713 0.0115631
0.282667 0.626838 0.0133674
0.28649 0.688727 0.011231
0.349366 0.502409 0.0117125
0.344904 0.564797 0.0134174
0.34898 0.62684 0.0113384
0.345049 0.688719 0.0132931
0.407251 0.502397 0.0134693
0.411631 0.564693 0.0114977
0.407527 0.626893 0.0133339
0.411596 0.688752 0.011124
0.474433 0.502384 0.0117105
0.469967 0.564759 0.0133947
0.473925 0.626842 0.0112912
0.470175 0.68873 0.0132724
0.286972 0.501981 0.0491913
0.28218 0.564623 0.0512483
0.286972 0.627069 0.0490735
0.282204 0.689413 0.0513224
0.344496 0.502034 0.0511815
0.349282 0.564603 0.0490054
0.344813 0.627078 0.0513563
0.349673 0.689369 0.0488947
0.411913 0.502018 0.0491562
0.40712 0.564605 0.0512086
0.411919 0.627093 0.0490967
0.407235 0.689422 0.0513152
0.469494 0.502046 0.0510711
0.474387 0.564587 0.049044
0.469687 0.627138 0.0512318
0.474708 0.689444 0.0490209
0.282019 0.501831 0.0886126
0.286891 0.564498 0.0864067
0.282319 0.626952 0.0887748
0.287464 0.689505 0.0863096
0.349596 0.501847 0.0864502
0.344595 0.564358 0.0886494
0.349722 0.626961 0.0863612
0.344766 0.689425 0.0887922
0.407057 0.501868 0.0885874
0.412023 0.564414 0.0862909
0.407195 0.626866 0.0888173
0.412443 0.689497 0.0862974
0.474714 0.501904 0.0863922
0.469507 0.564408 0.088647
0.474598 0.626978 0.0863366
0.469682 0.689447 0.0887283
0.287233 0.50179 0.123731
0.282099 0.564273 0.126074
0.287344 0.626844 0.123672
0.282165 0.689282 0.126129
0.34451 0.501721 0.126065
0.349693 0.564319 0.123713
0.344659 0.626858 0.126091
0.350207 0.689312 0.123687
0.412186 0.501829 0.123782
0.406987 0.564277 0.126108
0.412399 0.626823 0.123611
0.407191 0.689251 0.126083
0.469439 0.501785 0.12601
0.474663 0.564355 0.1237
0.469652 0.626802 0.126078
0.475184 0.689288 0.12372
0.281942 0.501764 0.163426
0.287167 0.564219 0.161072
0.28214 0.626679 0.163352
0.287715 0.689133 0.161082
0.349617 0.501712 0.161062
0.34454 0.564183 0.163524
0.349911 0.626685 0.161063
0.344634 0.689142 0.163501
0.406881 0.501737 0.163521
0.412188 0.564274 0.161089
0.407057 0.62671 0.163332
0.412727 0.689166 0.161067
0.474643 0.501794 0.161065
0.469445 0.564238 0.163435
0.474847 0.626717 0.161011
0.469623 0.689172 0.163478
0.287122 0.501733 0.19837
0.281885 0.564238 0.200733
0.287216 0.626723 0.198439
0.28189 0.689116 0.200918
0.344259 0.501675 0.200772
0.349676 0.56424 0.198378
0.344526 0.626728 0.200776
0.350091 0.689129 0.198468
0.412148 0.501747 0.198421
0.406832 0.564246 0.200812
0.412263 0.626703 0.198397
0.407004 0.689158 0.200811
0.46924 0.501702 0.200803
0.474654 0.564189 0.19839
0.469319 0.626694 0.200739
0.475 0.689145 0.198491
0.281645 0.501603 0.238117
0.287126 0.564198 0.235685
0.281734 0.626584 0.238095
0.287362 0.689019 0.235842
0.349433 0.501718 0.235676
0.344096 0.564149 0.238101
0.349611 0.626617 0.235683
0.344347 0.689035 0.23819
0.406619 0.50172 0.23812
0.411892 0.564212 0.235664
0.406761 0.626581 0.238082
0.412297 0.68901 0.235807
0.474601 0.501734 0.235731
0.469155 0.564169 0.238123
0.474592 0.626615 0.23569
0.469312 0.688959 0.23816
0.286869 0.53486 0.0313861
0.282884 0.593981 0.0313586
0.28652 0.659883 0.0313537
0.284858 0.718105 0.0312748
0.345144 0.531656 0.0313567
0.349241 0.597551 0.0313338
0.346082 0.655972 0.0313284
0.348291 0.722074 0.0312025
0.411825 0.534929 0.0313279
0.407914 0.594015 0.0312981
0.411589 0.659827 0.031322
0.40976 0.718069 0.03121
0.470212 0.531638 0.031325
0.47421 0.59751 0.031308
0.471028 0.656107 0.0312713
0.473304 0.722023 0.0311832
0.282609 0.531302 0.0688496
0.286977 0.597515 0.0688646
0.283251 0.656037 0.0688994
0.286431 0.72274 0.0688521
0.349483 0.534843 0.0687864
0.345298 0.593644 0.0688459
0.349488 0.66016 0.0688679
0.346799 0.7183 0.068826
0.407574 0.531247 0.0687816
0.411939 0.59758 0.0688266
0.408211 0.656076 0.0688958
0.411458 0.722693 0.0688124
0.474426 0.534769 0.0687636
0.470404 0.593654 0.0687999
0.474419 0.660093 0.0688401
0.471645 0.718445 0.068836
0.286985 0.53483 0.106177
0.282738 0.593482 0.106247
0.287177 0.65999 0.106254
0.28397 0.718427 0.106288
0.345154 0.531023 0.106217
0.349693 0.597418 0.106238
0.345624 0.655918 0.10623
0.349308 0.722633 0.106275
0.41196 0.534774 0.106167
0.407779 0.593294 0.106209
0.41219 0.660006 0.106235
0.408869 0.718428 0.106262
0.470178 0.530966 0.106213
0.474592 0.597405 0.106196
0.470607 0.655937 0.106243
0.474333 0.722522 0.10628
0.282709 0.530878 0.143568
0.287181 0.597357 0.143566
0.283162 0.655776 0.143549
0.28688 0.722443 0.143663
0.349449 0.534961 0.143568
0.345257 0.593353 0.143563
0.349774 0.659885 0.143591
0.346307 0.718244 0.143644
0.407767 0.5308 0.143581
0.412108 0.597372 0.143527
0.408036 0.655835 0.143569
0.41199 0.722365 0.143672
0.474467 0.534818 0.143555
0.470334 0.593359 0.143528
0.474786 0.659893 0.143581
0.471184 0.718238 0.14367
0.28695 0.534875 0.180928
0.282786 0.593379 0.180889
0.287125 0.659767 0.180924
0.283614 0.718035 0.181016
0.345193 0.530733 0.180926
0.349598 0.59735 0.180942
0.345487 0.65587 0.180915
0.349335 0.722326 0.181018
0.411868 0.534914 0.18095
0.407835 0.593515 0.180895
0.412216 0.659748 0.18089
0.408524 0.718153 0.181008
0.470169 0.530679 0.18091
0.474431 0.597335 0.180897
0.470512 0.655849 0.180928
0.474519 0.722288 0.181019
0.28269 0.530787 0.218225
0.286995 0.597287 0.218214
0.282952 0.655744 0.218275
0.286787 0.722235 0.218374
0.349285 0.534808 0.218208
0.345065 0.593326 0.21822
0.349485 0.659762 0.218276
0.345903 0.718008 0.218382
0.407671 0.530738 0.218252
0.411927 0.59738 0.218256
0.407972 0.655697 0.218247
0.411835 0.722212 0.218363
0.474324 0.534725 0.218242
0.470132 0.593314 0.218235
0.47446 0.659633 0.21825
0.470841 0.718028 0.218392
0.253493 0.536105 0.0136136
0.253505 0.594202 0.011263
0.253578 0.659736 0.0129814
0.253732 0.717521 0.0121595
0.315974 0.531822 0.0112405
0.315945 0.598102 0.0133199
0.316108 0.655954 0.011582
0.316221 0.721703 0.0122342
0.378439 0.536184 0.0135158
0.378432 0.594069 0.0112694
0.378632 0.659943 0.0129194
0.378789 0.717439 0.0120366
0.440995 0.531702 0.0112503
0.440956 0.598108 0.0132737
0.44107 0.655954 0.0115579
0.441249 0.7218 0.0122578
0.253432 0.531238 0.0487947
0.253512 0.598482 0.0513105
0.25376 0.656055 0.0490079
0.25382 0.723352 0.0505514
0.315938 0.536076 0.0513605
0.316019 0.593899 0.0488532
0.316237 0.661021 0.0510682
0.316412 0.718126 0.0495438
0.378422 0.531202 0.0487013
0.378499 0.598522 0.0511782
0.378678 0.656181 0.0489838
0.37886 0.723329 0.0505022
0.440924 0.536024 0.0512154
0.440993 0.593851 0.0487975
0.441228 0.660984 0.0511228
0.441374 0.718164 0.0494762
0.253504 0.535888 0.0887603
0.253575 0.593643 0.0861878
0.253786 0.660942 0.0886701
0.253899 0.718169 0.0868281
0.315964 0.530986 0.0860899
0.316161 0.598367 0.0887293
0.316267 0.655991 0.0863314
0.316514 0.723681 0.0883513
0.378469 0.535909 0.0887753
0.378605 0.593501 0.0861743
0.378799 0.660919 0.0886487
0.37894 0.718179 0.0867652
0.440989 0.530952 0.0861624
0.441099 0.598377 0.0886706
0.441276 0.655846 0.086289
0.441473 0.723737 0.0883696
0.253541 0.530663 0.12356
0.253692 0.598464 0.126175
0.253834 0.655674 0.123687
0.254003 0.723582 0.125851
0.31605 0.535891 0.126119
0.316199 0.59332 0.123492
0.316405 0.661029 0.126077
0.316507 0.717857 0.124063
0.378524 0.530727 0.123557
0.378684 0.59855 0.12611
0.378788 0.655677 0.123645
0.379072 0.723633 0.125908
0.441047 0.536049 0.126071
0.441197 0.593321 0.123498
0.441293 0.660976 0.126114
0.441482 0.717797 0.124009
0.25352 0.535893 0.163459
0.253591 0.593257 0.160874
0.253825 0.660879 0.163411
0.253924 0.717754 0.161378
0.316022 0.530673 0.160936
0.316136 0.598411 0.163464
0.31631 0.655528 0.160943
0.316483 0.723505 0.163279
0.378497 0.535986 0.163448
0.378589 0.593162 0.160831
0.378823 0.660884 0.163461
0.378978 0.717789 0.16131
0.440976 0.530687 0.160948
0.441096 0.598372 0.163415
0.44124 0.655515 0.160852
0.441469 0.723563 0.163357
0.253437 0.530685 0.198272
0.253492 0.598381 0.200802
0.253632 0.655596 0.198349
0.253726 0.723384 0.200689
0.315978 0.535878 0.200789
0.316041 0.59322 0.198226
0.316177 0.660927 0.200803
0.316296 0.717739 0.198684
0.37844 0.530575 0.198309
0.378575 0.598377 0.200839
0.378681 0.655632 0.198301
0.378799 0.72345 0.200741
0.440894 0.535927 0.200771
0.441055 0.593123 0.198256
0.441178 0.660989 0.200783
0.441307 0.717804 0.19858
0.253352 0.535961 0.238103
0.253406 0.59306 0.235501
0.253464 0.660897 0.238129
0.253602 0.717715 0.235939
0.315844 0.530603 0.23559
0.315906 0.598454 0.238168
0.316042 0.655444 0.235664
0.316134 0.723356 0.238093
0.378281 0.535877 0.238088
0.378338 0.59314 0.235563
0.378555 0.66083 0.23807
0.378672 0.717783 0.235902
0.440838 0.53062 0.235657
0.440877 0.598308 0.238159
0.441017 0.65546 0.235674
0.441127 0.723185 0.238177
0.286857 0.501609 0.272962
0.281715 0.564044 0.275381
0.286941 0.626508 0.273004
0.281868 0.688963 0.275515
0.344079 0.501584 0.275482
0.349444 0.564085 0.27304
0.344239 0.626532 0.275351
0.349682 0.688961 0.273169
0.411865 0.501553 0.272926
0.406623 0.564061 0.275419
0.41203 0.626523 0.273055
0.406789 0.688939 0.275505
0.469035 0.501596 0.275429
0.474369 0.564093 0.273034
0.469272 0.626525 0.275315
0.474675 0.688961 0.273174
0.281657 0.501397 0.312729
0.28675 0.563954 0.310272
0.281762 0.626397 0.312695
0.287136 0.688934 0.310476
0.349132 0.501427 0.310241
0.344249 0.563926 0.312667
0.349461 0.626423 0.310327
0.344378 0.688906 0.312786
0.406725 0.501429 0.312724
0.411847 0.56393 0.310289
0.40676 0.62642 0.312776
0.412088 0.688862 0.310449
0.474117 0.501468 0.310229
0.469261 0.563967 0.312728
0.474419 0.626418 0.310357
0.469387 0.688898 0.312773
0.286739 0.501383 0.347517
0.281546 0.563894 0.349957
0.286787 0.626352 0.347559
0.281806 0.688828 0.350056
0.343933 0.501409 0.349914
0.349215 0.563859 0.347568
0.344149 0.626368 0.350015
0.34947 0.68893 0.347714
0.411673 0.50136 0.347537
0.406708 0.563913 0.349979
0.411798 0.626401 0.347612
0.406761 0.688867 0.350045
0.469077 0.501418 0.349966
0.474198 0.563872 0.347559
0.469097 0.62635 0.350038
0.474486 0.688847 0.347744
0.281274 0.501237 0.387204
0.286696 0.563779 0.384854
0.281588 0.626279 0.387312
0.286974 0.688783 0.384929
0.349197 0.501287 0.384877
0.343978 0.56378 0.387173
0.349336 0.626227 0.384933
0.344217 0.688789 0.387364
0.406275 0.501266 0.387203
0.411778 0.563799 0.384879
0.406675 0.626254 0.387259
0.411915 0.68878 0.385024
0.474191 0.501334 0.384904
0.469092 0.563712 0.387248
0.474271 0.626228 0.384957
0.469276 0.688753 0.387423
0.286507 0.501157 0.422161
0.281647 0.563604 0.424565
0.286594 0.626106 0.42205
0.281674 0.688582 0.424689
0.3439 0.501098 0.424421
0.348997 0.563593 0.422179
0.344266 0.626078 0.424521
0.349287 0.688668 0.422228
0.411349 0.501091 0.422167
0.406709 0.5636 0.4245
0.411607 0.626097 0.422143
0.40674 0.688611 0.424679
0.468948 0.501131 0.424485
0.473965 0.563604 0.422246
0.469151 0.626026 0.424592
0.47432 0.688641 0.422365
0.281156 0.500957 0.461958
0.286522 0.563454 0.459411
0.281565 0.625859 0.46183
0.286843 0.688471 0.459529
0.348939 0.500956 0.459704
0.343915 0.56331 0.461675
0.349111 0.625922 0.459387
0.344039 0.688498 0.461873
0.406206 0.501001 0.461966
0.411425 0.563389 0.459376
0.406446 0.625852 0.461769
0.411784 0.688464 0.459505
0.473897 0.500934 0.459697
0.468965 0.563332 0.46174
0.474087 0.6259 0.459497
0.469056 0.688468 0.461831
0.286378 0.500936 0.49691
0.28659 0.62577 0.496663
0.348948 0.563308 0.496834
0.349176 0.68833 0.496862
0.411545 0.500884 0.496974
0.411534 0.625793 0.496751
0.473865 0.563341 0.496847
0.474211 0.688364 0.496857
0.286751 0.534745 0.255488
0.282381 0.593219 0.25555
0.28687 0.659561 0.255593
0.282957 0.717994 0.255743
0.345116 0.53064 0.255569
0.349312 0.597151 0.255565
0.345329 0.655681 0.255588
0.349365 0.722125 0.255714
0.411617 0.534872 0.255554
0.407451 0.593284 0.255556
0.411997 0.659588 0.255602
0.408019 0.717997 0.255702
0.470051 0.530757 0.255563
0.474386 0.597265 0.255543
0.470312 0.655682 0.255617
0.474355 0.722059 0.25571
0.282386 0.53049 0.292824
0.286884 0.5971 0.292842
0.282534 0.655558 0.29289
0.286852 0.722052 0.29301
0.349128 0.534667 0.292838
0.344825 0.593167 0.292834
0.349432 0.659411 0.29293
0.345236 0.718072 0.292998
0.407321 0.530539 0.292839
0.411855 0.597135 0.292874
0.407637 0.655462 0.292894
0.411914 0.721973 0.293022
0.474213 0.534693 0.292847
0.469907 0.593299 0.29286
0.474379 0.659436 0.292923
0.470231 0.718028 0.293008
0.286677 0.534594 0.330127
0.282317 0.592964 0.330117
0.286902 0.659313 0.330187
0.282638 0.717899 0.330302
0.344676 0.530468 0.330103
0.349362 0.596979 0.330142
0.344913 0.655409 0.330186
0.349426 0.722101 0.330292
0.411655 0.534566 0.330151
0.407133 0.592948 0.330152
0.411816 0.659427 0.33022
0.40767 0.717977 0.330277
0.469791 0.5305 0.330111
0.474287 0.597026 0.330152
0.470022 0.655446 0.330187
0.474409 0.722039 0.330259
0.282223 0.530357 0.367388
0.2867 0.596998 0.367402
0.282444 0.655288 0.367451
0.286789 0.721999 0.367579
0.349109 0.534294 0.367406
0.344708 0.592938 0.367408
0.349253 0.659378 0.367518
0.345041 0.717894 0.367594
0.407208 0.530359 0.367434
0.41179 0.59694 0.367414
0.407516 0.655412 0.367476
0.411864 0.721934 0.367572
0.474091 0.534427 0.367405
0.469749 0.59295 0.367417
0.474369 0.659365 0.36752
0.469982 0.717831 0.367599
0.286537 0.534192 0.404656
0.282178 0.592701 0.404688
0.286589 0.659492 0.40475
0.282531 0.717676 0.404822
0.344683 0.530376 0.404681
0.349247 0.596649 0.404681
0.344943 0.655349 0.40471
0.349246 0.721768 0.404835
0.41151 0.534205 0.404706
0.407247 0.592798 0.404701
0.411715 0.659269 0.40476
0.407478 0.717762 0.404849
0.469664 0.530307 0.404731
0.474144 0.596663 0.404726
0.469994 0.655228 0.404767
0.47421 0.721848 0.404861
0.282314 0.53004 0.44201
0.286559 0.596669 0.441933
0.282544 0.655042 0.441981
0.286626 0.721692 0.442085
0.348889 0.533826 0.442015
0.344773 0.592627 0.441961
0.349074 0.659154 0.441958
0.344922 0.717729 0.442088
0.407256 0.530018 0.442011
0.411547 0.59655 0.441966
0.407468 0.655054 0.442006
0.411665 0.721601 0.442089
0.47389 0.533881 0.442064
0.469931 0.592615 0.442
0.47407 0.659053 0.441993
0.469913 0.717712 0.442124
0.28622 0.533895 0.479355
0.282366 0.592425 0.479222
0.286526 0.658912 0.479226
0.282402 0.71752 0.479365
0.344913 0.530053 0.479418
0.349033 0.596103 0.479223
0.344999 0.655088 0.47923
0.349177 0.721526 0.479363
0.411343 0.533946 0.479406
0.407299 0.592325 0.479228
0.411525 0.658871 0.479258
0.407423 0.717604 0.47941
0.469809 0.529966 0.479418
0.47393 0.596233 0.47928
0.469914 0.655091 0.47924
0.474076 0.721403 0.479387
0.253207 0.530631 0.27281
0.253283 0.598206 0.275478
0.253359 0.655427 0.272948
0.253466 0.723164 0.27555
0.315741 0.535781 0.275401
0.315815 0.593042 0.272831
0.31593 0.660634 0.275467
0.316017 0.717835 0.273131
0.378246 0.53055 0.272927
0.378333 0.598283 0.275467
0.378429 0.65538 0.272975
0.378575 0.723254 0.275518
0.440723 0.53576 0.275384
0.440738 0.593029 0.272849
0.440905 0.66069 0.275512
0.441105 0.717796 0.273117
0.253177 0.535553 0.31271
0.253234 0.592947 0.310081
0.2534 0.660542 0.312859
0.253473 0.717894 0.310341
0.315662 0.530385 0.310134
0.315808 0.598051 0.312777
0.315884 0.655336 0.310141
0.316009 0.723147 0.312885
0.378157 0.535531 0.312768
0.378276 0.592934 0.31008
0.378358 0.660431 0.31288
0.378511 0.717822 0.310359
0.440708 0.530605 0.310068
0.440759 0.598051 0.312827
0.440883 0.655382 0.31019
0.441014 0.723092 0.312831
0.253091 0.530385 0.347385
0.253158 0.598034 0.350003
0.253294 0.655395 0.347441
0.25344 0.723117 0.350139
0.315636 0.535572 0.350042
0.315691 0.592965 0.347371
0.315817 0.660564 0.350096
0.31591 0.717872 0.347591
0.378093 0.530458 0.347366
0.378214 0.597993 0.350107
0.37827 0.655341 0.347479
0.378445 0.723069 0.350173
0.440559 0.535598 0.350106
0.44068 0.592989 0.347341
0.440837 0.660544 0.350055
0.440945 0.717768 0.347554
0.253066 0.535443 0.38729
0.253126 0.592839 0.384645
0.253265 0.660498 0.38724
0.253361 0.717705 0.384805
0.315523 0.530272 0.384704
0.315657 0.597938 0.387341
0.315752 0.655284 0.384771
0.315787 0.723114 0.3874
0.378082 0.535483 0.387348
0.378148 0.592815 0.38469
0.378297 0.660425 0.387307
0.378352 0.717774 0.384868
0.44054 0.530249 0.384699
0.440696 0.597879 0.387336
0.440815 0.655314 0.384804
0.440841 0.723071 0.387454
0.252963 0.530268 0.422054
0.253124 0.597548 0.424526
0.253222 0.655174 0.422029
0.253294 0.722892 0.424609
0.315517 0.535222 0.424512
0.315627 0.592761 0.421978
0.315739 0.660194 0.424463
0.315762 0.717641 0.422104
0.377965 0.530262 0.422074
0.378175 0.597615 0.424555
0.37827 0.655235 0.421986
0.378269 0.722809 0.424669
0.440508 0.535077 0.424592
0.440631 0.592619 0.421994
0.440787 0.660218 0.42455
0.440776 0.717563 0.422108
0.252878 0.535109 0.461797
0.253033 0.592397 0.459283
0.253189 0.660071 0.461676
0.25318 0.717446 0.459352
0.315415 0.529859 0.45949
0.315584 0.597444 0.461747
0.315667 0.655 0.459244
0.31567 0.722821 0.461902
0.37793 0.534976 0.461878
0.378007 0.592416 0.459231
0.378168 0.660132 0.461758
0.378201 0.717488 0.45935
0.440391 0.529926 0.45945
0.440567 0.59745 0.461766
0.440631 0.654949 0.459273
0.440623 0.722701 0.461925
0.252801 0.529767 0.49695
0.253084 0.654813 0.496668
0.315503 0.592325 0.496602
0.315545 0.71739 0.496704
0.377885 0.529718 0.49697
0.378072 0.654911 0.496629
0.44047 0.592318 0.496697
0.440583 0.717432 0.496787
0.315382 0.534949 0.499086
0.253105 0.722573 0.499258
0.252995 0.597423 0.498996
0.378021 0.59756 0.499031
0.343676 0.500884 0.499275
0.440376 0.535067 0.49916
0.315615 0.659989 0.498978
0.378115 0.722657 0.499236
0.343785 0.625688 0.498872
0.468804 0.625755 0.498949
0.406223 0.563347 0.499139
0.440612 0.659994 0.498969
0.281304 0.56331 0.499066
0.468605 0.500886 0.499354
0.406401 0.688275 0.499138
0.281392 0.688234 0.499174
0.472535 0.749979 0.611064
0.281733 0.500879 0.536688
0.285891 0.563234 0.534465
0.281914 0.625382 0.536146
0.286138 0.687782 0.534344
0.348347 0.50092 0.534776
0.344317 0.563288 0.536272
0.34851 0.625471 0.534419
0.344381 0.687707 0.53611
0.406735 0.500863 0.536668
0.410794 0.563211 0.534409
0.407045 0.62543 0.536251
0.411135 0.687935 0.534326
0.473318 0.500849 0.534779
0.469389 0.563238 0.536284
0.473437 0.625508 0.534425
0.469394 0.687838 0.53626
0.284546 0.501081 0.572376
0.284348 0.563257 0.573542
0.284906 0.625324 0.572583
0.284117 0.687466 0.573192
0.346611 0.501119 0.573275
0.347166 0.56323 0.572666
0.346888 0.625335 0.573424
0.347526 0.687551 0.572323
0.409574 0.501047 0.572389
0.409339 0.563276 0.573529
0.409858 0.625375 0.572499
0.40909 0.687548 0.573185
0.471705 0.500987 0.57334
0.472152 0.563206 0.572784
0.471832 0.625429 0.573409
0.47246 0.687702 0.572328
0.284634 0.501371 0.612213
0.284598 0.563517 0.611811
0.284584 0.62549 0.612142
0.284884 0.687505 0.61142
0.346796 0.501427 0.611859
0.347207 0.563471 0.612134
0.347368 0.625529 0.611863
0.346745 0.687542 0.611678
0.40984 0.501383 0.612007
0.409559 0.563527 0.611829
0.409627 0.625464 0.612108
0.410028 0.687546 0.611412
0.471837 0.50135 0.611903
0.472241 0.563555 0.612194
0.472316 0.625517 0.611761
0.471688 0.687547 0.611623
0.284526 0.501196 0.651212
0.284793 0.563589 0.651698
0.284778 0.625807 0.651535
0.284537 0.687972 0.651211
0.347073 0.501204 0.651339
0.34712 0.563637 0.651589
0.34724 0.625782 0.651601
0.347131 0.687934 0.651148
0.409716 0.501266 0.651202
0.409643 0.563646 0.651697
0.409702 0.625803 0.651557
0.409522 0.687969 0.651171
0.472097 0.501284 0.651245
0.472098 0.563777 0.651621
0.47203 0.625952 0.6516
0.472106 0.687985 0.651098
0.284619 0.50097 0.69174
0.284519 0.563596 0.691987
0.28446 0.626109 0.692001
0.284397 0.688553 0.69169
0.346992 0.501051 0.691532
0.346987 0.563608 0.69194
0.346998 0.626146 0.691933
0.347024 0.688595 0.691646
0.409504 0.501077 0.691604
0.409484 0.563661 0.691953
0.4094 0.626183 0.691921
0.409419 0.688614 0.691675
0.472138 0.501148 0.69161
0.472083 0.563703 0.691907
0.472007 0.626208 0.692055
0.472037 0.688638 0.691646
0.284267 0.500968 0.732271
0.284336 0.563583 0.732508
0.284442 0.626088 0.732658
0.284285 0.688714 0.732223
0.347026 0.501104 0.73225
0.346744 0.563627 0.732552
0.346826 0.626169 0.732581
0.346903 0.688835 0.732347
0.409594 0.501243 0.732299
0.409474 0.563712 0.732467
0.409218 0.626263 0.732609
0.409171 0.688864 0.732267
0.472052 0.501148 0.732288
0.471817 0.563742 0.732517
0.471799 0.626337 0.732534
0.471684 0.688906 0.732392
0.282756 0.530105 0.516782
0.286281 0.596172 0.516553
0.28281 0.654768 0.516565
0.286326 0.721121 0.516693
0.348435 0.533673 0.516773
0.345091 0.592545 0.5166
0.348815 0.65824 0.516575
0.344993 0.717428 0.516686
0.407722 0.530094 0.516804
0.411154 0.596205 0.516629
0.407762 0.654878 0.516596
0.411491 0.721124 0.516744
0.473529 0.533682 0.516785
0.469992 0.592563 0.516645
0.473755 0.658368 0.51662
0.469999 0.717428 0.516734
0.285487 0.533615 0.554492
0.28342 0.593047 0.554399
0.28574 0.657305 0.554302
0.283047 0.717176 0.554164
0.345914 0.53133 0.554606
0.348271 0.59542 0.554414
0.345923 0.655095 0.554308
0.348477 0.719435 0.554203
0.410406 0.533644 0.554504
0.408361 0.592996 0.554415
0.410772 0.65753 0.554284
0.407988 0.717248 0.554208
0.470892 0.531158 0.554597
0.473288 0.595315 0.554427
0.471077 0.655169 0.554291
0.473563 0.719672 0.554264
0.284035 0.531437 0.593011
0.285482 0.594906 0.592965
0.284272 0.655983 0.592774
0.285254 0.719664 0.59233
0.347472 0.532437 0.592985
0.346791 0.593917 0.592966
0.347895 0.656901 0.592783
0.346243 0.718539 0.5923
0.40918 0.531602 0.59299
0.410298 0.594849 0.592978
0.409102 0.655982 0.592742
0.410288 0.719585 0.592395
0.472534 0.532406 0.593041
0.471647 0.594056 0.59303
0.472772 0.65704 0.592745
0.471133 0.718733 0.592429
0.284924 0.532659 0.63193
0.284559 0.594178 0.632004
0.285121 0.656953 0.631783
0.284173 0.718611 0.631304
0.347041 0.532091 0.632009
0.347618 0.594781 0.631991
0.346779 0.656489 0.631825
0.34758 0.718984 0.631242
0.409939 0.532604 0.631893
0.409568 0.594348 0.632033
0.410156 0.656944 0.631809
0.409056 0.718726 0.631271
0.472011 0.532226 0.632003
0.47271 0.594936 0.632029
0.471741 0.656564 0.631736
0.472644 0.718979 0.631113
0.284594 0.532285 0.671717
0.284762 0.59485 0.671883
0.284543 0.657196 0.671701
0.284623 0.7195 0.671048
0.347054 0.532508 0.671637
0.346976 0.594696 0.671884
0.347073 0.6572 0.671708
0.346805 0.719429 0.671093
0.409445 0.532305 0.671652
0.40968 0.594899 0.671925
0.409492 0.657248 0.671685
0.40963 0.719625 0.671049
0.472102 0.53248 0.671624
0.471902 0.594915 0.67195
0.472043 0.657244 0.671724
0.471954 0.719503 0.67101
0.284493 0.532279 0.71211
0.284456 0.594953 0.712223
0.284326 0.657374 0.712135
0.284345 0.720292 0.711515
0.347086 0.532416 0.712022
0.346871 0.594848 0.712232
0.346964 0.657671 0.712083
0.346928 0.720228 0.711547
0.409544 0.532481 0.71203
0.4094 0.595036 0.712181
0.409221 0.657437 0.712069
0.409293 0.720388 0.711531
0.471839 0.532547 0.712019
0.471953 0.594954 0.712234
0.471893 0.657715 0.71215
0.471774 0.720178 0.711628
0.252923 0.534044 0.536238
0.253056 0.592464 0.534483
0.25313 0.659009 0.536162
0.253074 0.717433 0.534259
0.315424 0.529973 0.534805
0.315538 0.596585 0.536274
0.315544 0.654932 0.534472
0.315614 0.721956 0.536357
0.377922 0.533978 0.536293
0.377989 0.592596 0.534518
0.37811 0.659017 0.536225
0.378046 0.717524 0.534206
0.440427 0.530024 0.534801
0.440506 0.596475 0.536346
0.440497 0.655044 0.53448
0.440652 0.721957 0.536417
0.253139 0.53184 0.572887
0.2533 0.594457 0.573621
0.253351 0.656245 0.572525
0.25331 0.719843 0.573308
0.31559 0.532021 0.573675
0.3158 0.594087 0.572672
0.31589 0.657013 0.573454
0.3157 0.718537 0.572082
0.378159 0.531799 0.572863
0.378292 0.594422 0.573527
0.378326 0.656263 0.572487
0.378284 0.719996 0.573434
0.440651 0.531995 0.573613
0.440822 0.594147 0.572692
0.440838 0.657115 0.573409
0.440722 0.71858 0.572142
0.253376 0.532033 0.612269
0.253535 0.594347 0.611865
0.253443 0.656913 0.612075
0.253353 0.71854 0.611162
0.315888 0.532269 0.611953
0.316033 0.594382 0.612296
0.315956 0.656383 0.611614
0.315831 0.719419 0.611749
0.378444 0.532059 0.61227
0.378532 0.59433 0.611821
0.378437 0.656957 0.612185
0.378298 0.718498 0.611091
0.440959 0.532267 0.61189
0.441015 0.59436 0.612288
0.440889 0.656448 0.611585
0.440772 0.719618 0.611743
0.253393 0.532289 0.651483
0.253402 0.59465 0.651751
0.253391 0.656918 0.65147
0.253262 0.719194 0.650979
0.315823 0.532217 0.651505
0.315933 0.594647 0.651631
0.315839 0.656922 0.651551
0.315757 0.719198 0.650731
0.378304 0.532295 0.651426
0.378408 0.594676 0.651746
0.378377 0.656893 0.651392
0.378248 0.719194 0.65095
0.440848 0.532353 0.65144
0.440909 0.59472 0.651613
0.440818 0.65705 0.651534
0.440715 0.719121 0.650681
0.253291 0.532154 0.691833
0.253271 0.594732 0.691933
0.253223 0.657299 0.691768
0.253258 0.719938 0.691172
0.315763 0.532224 0.69177
0.315741 0.594763 0.691941
0.315674 0.657385 0.691883
0.315707 0.719884 0.691256
0.378232 0.532183 0.691741
0.378161 0.594874 0.691911
0.378208 0.657435 0.69172
0.378203 0.720056 0.691134
0.440773 0.532246 0.691699
0.440713 0.594931 0.691951
0.44069 0.657479 0.691858
0.440719 0.719985 0.691243
0.25308 0.532241 0.732349
0.253111 0.594819 0.732573
0.253038 0.657376 0.732429
0.253151 0.720162 0.732028
0.315611 0.532193 0.732373
0.315526 0.594763 0.732544
0.315631 0.657605 0.732397
0.315573 0.720088 0.732103
0.378237 0.532444 0.732375
0.378092 0.594841 0.732496
0.378045 0.657592 0.732384
0.378065 0.720414 0.732035
0.440749 0.532396 0.732393
0.440615 0.595124 0.732505
0.440521 0.657696 0.732363
0.440559 0.720269 0.732034
0.408949 0.749805 0.611309
0.347517 0.749769 0.611029
0.284013 0.74969 0.611299
0.28422 0.500917 0.773189
0.284408 0.563443 0.773411
0.284525 0.62615 0.773467
0.284308 0.688741 0.773416
0.346856 0.500867 0.77322
0.346838 0.563458 0.773433
0.346861 0.62612 0.773526
0.346844 0.688712 0.773364
0.409477 0.501148 0.773323
0.409384 0.563511 0.773411
0.409426 0.626165 0.773466
0.409312 0.688655 0.773445
0.472091 0.501199 0.773396
0.472058 0.563576 0.7734
0.471944 0.626131 0.773502
0.471882 0.688647 0.773406
0.284412 0.50081 0.814458
0.284481 0.563285 0.814288
0.284436 0.625853 0.81426
0.284364 0.688511 0.814335
0.346933 0.500778 0.814447
0.346945 0.563326 0.814322
0.346886 0.625913 0.814347
0.346868 0.688532 0.814444
0.409303 0.500791 0.814502
0.40939 0.563337 0.814364
0.409424 0.625899 0.814327
0.409435 0.688396 0.814526
0.471992 0.501114 0.814536
0.471937 0.563375 0.814344
0.471956 0.6259 0.81433
0.472057 0.688311 0.814485
0.284571 0.500986 0.855347
0.284538 0.563336 0.855039
0.284501 0.625807 0.854853
0.284573 0.68824 0.854945
0.34717 0.501006 0.855317
0.347012 0.563372 0.855111
0.346882 0.625778 0.854813
0.346994 0.688177 0.855052
0.409438 0.500954 0.855397
0.40966 0.563392 0.855075
0.409446 0.625773 0.855016
0.409495 0.688197 0.855112
0.47207 0.500917 0.85534
0.471899 0.563414 0.85522
0.472031 0.625764 0.854982
0.471883 0.688107 0.855225
0.284524 0.501885 0.896063
0.284303 0.56378 0.895438
0.284359 0.625728 0.895088
0.284453 0.687726 0.895291
0.3469 0.501901 0.896272
0.346923 0.563676 0.895356
0.346825 0.625712 0.895231
0.346986 0.687772 0.895285
0.409486 0.501875 0.89605
0.40924 0.563745 0.895476
0.409393 0.62571 0.895121
0.409239 0.687737 0.895444
0.471957 0.5019 0.896337
0.471988 0.56375 0.895424
0.471797 0.625754 0.895314
0.472021 0.687733 0.895268
0.284067 0.502836 0.93599
0.284813 0.564534 0.934963
0.284016 0.625986 0.935203
0.284732 0.687408 0.934706
0.284087 0.74928 0.935478
0.34747 0.502775 0.93542
0.346591 0.564603 0.935602
0.347089 0.625979 0.934572
0.346493 0.687399 0.935368
0.409149 0.502838 0.935975
0.409656 0.564453 0.934923
0.40896 0.626004 0.93534
0.409726 0.687483 0.934648
0.40902 0.74933 0.935411
0.47247 0.502797 0.935525
0.471625 0.564594 0.9356
0.47199 0.625992 0.934549
0.471395 0.687447 0.935322
0.47247 0.749482 0.934965
0.288042 0.502718 0.974385
0.280294 0.56479 0.97544
0.287711 0.62645 0.973636
0.280339 0.688052 0.975082
0.343163 0.502792 0.97554
0.350336 0.564806 0.973934
0.342587 0.626423 0.975202
0.350258 0.687973 0.9734
0.412997 0.502738 0.974363
0.405408 0.564775 0.975374
0.412835 0.62643 0.973569
0.40521 0.688067 0.975084
0.468102 0.50277 0.97554
0.475291 0.564758 0.973864
0.467676 0.626518 0.975223
0.47539 0.688044 0.973437
0.283066 0.532076 0.993593
0.286245 0.596883 0.993393
0.284194 0.656199 0.993264
0.284882 0.720891 0.993148
0.348954 0.534674 0.993514
0.345905 0.594216 0.993361
0.348306 0.65897 0.993273
0.347849 0.717878 0.993139
0.408104 0.532205 0.993547
0.411332 0.596971 0.993335
0.409158 0.656036 0.993273
0.409909 0.720972 0.993067
0.47403 0.534768 0.993496
0.471024 0.594202 0.993351
0.473276 0.659054 0.993245
0.472781 0.718082 0.99309
0.284201 0.5323 0.752721
0.284224 0.59477 0.753009
0.284349 0.65779 0.752823
0.284239 0.720109 0.752564
0.346876 0.532191 0.752768
0.346847 0.59487 0.752906
0.34681 0.65751 0.752779
0.346962 0.720189 0.752516
0.409505 0.53251 0.752814
0.409315 0.594786 0.752866
0.409206 0.657706 0.752797
0.409271 0.720217 0.752507
0.471972 0.532518 0.752771
0.471854 0.595212 0.752857
0.471742 0.657739 0.75277
0.471649 0.720432 0.752563
0.284473 0.531941 0.793687
0.28449 0.59464 0.793763
0.28441 0.65735 0.79382
0.284415 0.720033 0.793779
0.346883 0.53194 0.793708
0.346944 0.594539 0.793829
0.347076 0.657591 0.793832
0.346909 0.719819 0.793877
0.409374 0.532036 0.79381
0.409443 0.594673 0.793799
0.409489 0.657379 0.793866
0.40965 0.719817 0.793892
0.472099 0.532365 0.793809
0.472038 0.594711 0.793801
0.472064 0.657478 0.793827
0.471814 0.719589 0.793961
0.284718 0.532062 0.834755
0.284426 0.594445 0.834576
0.284494 0.657072 0.834576
0.284474 0.719549 0.834862
0.346891 0.532042 0.83481
0.346788 0.5945 0.834623
0.347025 0.657176 0.834648
0.346904 0.719713 0.834918
0.409501 0.53217 0.834797
0.409395 0.594537 0.834709
0.40945 0.656953 0.83475
0.409413 0.71954 0.835044
0.47185 0.532297 0.834894
0.471975 0.594595 0.834646
0.471956 0.657071 0.834801
0.471929 0.719217 0.834996
0.284539 0.532539 0.875534
0.284328 0.594623 0.875221
0.284453 0.656737 0.875148
0.284527 0.71882 0.875544
0.346775 0.532339 0.875542
0.346837 0.59474 0.875228
0.346847 0.656749 0.875206
0.346981 0.719095 0.875527
0.409542 0.532502 0.875526
0.409324 0.594592 0.875324
0.409399 0.656909 0.875312
0.409556 0.718893 0.875646
0.471804 0.53233 0.875572
0.472004 0.594789 0.875394
0.471791 0.656718 0.875408
0.471953 0.719169 0.875649
0.28404 0.533339 0.916087
0.284665 0.595231 0.915516
0.284408 0.656333 0.915451
0.284206 0.718313 0.915776
0.347441 0.533797 0.916168
0.346573 0.594737 0.915476
0.346869 0.656968 0.915451
0.347129 0.717987 0.915904
0.408848 0.533264 0.916083
0.40964 0.595286 0.915537
0.409194 0.656286 0.915479
0.409149 0.718388 0.915825
0.472413 0.534023 0.916188
0.471549 0.594665 0.915564
0.471826 0.656977 0.915486
0.47222 0.717904 0.915922
0.285675 0.534878 0.955454
0.283402 0.594705 0.955171
0.284538 0.657781 0.95505
0.285187 0.717431 0.954969
0.345872 0.533287 0.955452
0.347632 0.596481 0.955168
0.34667 0.655764 0.955042
0.346358 0.719258 0.955012
0.410542 0.534928 0.955452
0.408504 0.594487 0.955166
0.40956 0.657875 0.955037
0.410104 0.717513 0.954971
0.470865 0.533203 0.955456
0.47277 0.596581 0.955136
0.471625 0.655925 0.954991
0.471316 0.719283 0.955039
0.253141 0.532208 0.773293
0.253163 0.59485 0.773377
0.253208 0.657316 0.773298
0.253178 0.719961 0.773261
0.315674 0.532175 0.773251
0.315745 0.594744 0.773325
0.315712 0.657493 0.773335
0.315598 0.719975 0.773311
0.378155 0.532246 0.773326
0.378245 0.594862 0.773349
0.378176 0.657439 0.773353
0.378184 0.719973 0.773436
0.440774 0.532444 0.773441
0.44072 0.594808 0.773376
0.44069 0.657522 0.773389
0.440686 0.719827 0.773332
0.25329 0.532165 0.814365
0.253189 0.594584 0.814153
0.253227 0.65724 0.814231
0.253148 0.719657 0.814362
0.315792 0.532065 0.81426
0.315701 0.594605 0.814205
0.3157 0.657231 0.814198
0.315603 0.719715 0.814426
0.378197 0.532133 0.814405
0.37823 0.594635 0.814237
0.37824 0.657183 0.814246
0.378283 0.719551 0.814531
0.440667 0.532218 0.814361
0.440733 0.594626 0.814247
0.440761 0.657162 0.814329
0.440753 0.719443 0.814571
0.253419 0.532231 0.855128
0.253374 0.594675 0.854781
0.25327 0.657059 0.854808
0.253274 0.719206 0.855128
0.31582 0.53222 0.85517
0.315734 0.59463 0.854853
0.315755 0.656938 0.854734
0.315789 0.719322 0.855198
0.378338 0.532409 0.855152
0.378248 0.594613 0.854898
0.378206 0.656869 0.854928
0.378275 0.71911 0.855253
0.440808 0.532199 0.855085
0.440773 0.594637 0.855014
0.440745 0.656814 0.854999
0.440718 0.719341 0.855328
0.253255 0.533021 0.895706
0.253214 0.594868 0.895367
0.253232 0.65657 0.895238
0.253304 0.718554 0.895561
0.315754 0.533121 0.895981
0.315655 0.594769 0.895185
0.315715 0.656689 0.895227
0.315769 0.718467 0.895628
0.378169 0.53298 0.895701
0.378097 0.594909 0.895353
0.378128 0.656556 0.895215
0.37823 0.718651 0.895615
0.44069 0.533178 0.89605
0.440624 0.594721 0.89534
0.440645 0.656705 0.895307
0.440797 0.718317 0.895791
0.253304 0.5345 0.936062
0.253288 0.595188 0.934819
0.253223 0.656743 0.935062
0.253352 0.717368 0.935499
0.315824 0.533749 0.935194
0.315769 0.595702 0.935418
0.315716 0.656172 0.935055
0.315851 0.718324 0.935009
0.378289 0.53452 0.936036
0.378206 0.595208 0.934825
0.378227 0.656791 0.935091
0.378344 0.71746 0.935479
0.440885 0.533766 0.935224
0.440711 0.595696 0.935474
0.440683 0.656197 0.934996
0.440841 0.718412 0.935023
0.253322 0.530899 0.973797
0.253212 0.599854 0.975289
0.253283 0.653315 0.974301
0.253427 0.72187 0.973934
0.315762 0.538343 0.97576
0.3157 0.592184 0.973787
0.31577 0.660855 0.974773
0.315913 0.714568 0.974766
0.378337 0.53085 0.973798
0.378208 0.599819 0.975282
0.378285 0.653206 0.974279
0.378444 0.721879 0.973898
0.440734 0.538266 0.975692
0.440708 0.592284 0.973719
0.440808 0.661039 0.974786
0.440928 0.7146 0.97466
0.347483 0.749425 0.934939
0.284666 0.74974 0.895713
0.287781 0.749893 0.973491
0.346852 0.749765 0.895939
0.40964 0.749767 0.895778
0.471877 0.749783 0.896003
0.412805 0.749886 0.973426
0.468083 0.749954 0.974976
0.343213 0.749875 0.975097
0.282348 0.75063 0.0132389
0.28742 0.812883 0.0112169
0.282555 0.875461 0.0133614
0.287873 0.938335 0.0124621
0.349417 0.750654 0.0111346
0.344674 0.81283 0.0130732
0.350341 0.875529 0.0117505
0.345798 0.938355 0.0143661
0.407343 0.750696 0.013177
0.412497 0.812876 0.0113267
0.407467 0.875498 0.0133948
0.412849 0.938377 0.0125122
0.474537 0.750694 0.0111537
0.469683 0.812841 0.0130967
0.475169 0.875548 0.0116832
0.470774 0.938404 0.0144001
0.28747 0.751597 0.0487551
0.282139 0.813836 0.0508832
0.288014 0.876265 0.0493168
0.282891 0.938654 0.0516995
0.344701 0.751638 0.0511983
0.350013 0.813914 0.0486761
0.345084 0.876241 0.0511974
0.350911 0.938666 0.0495986
0.412494 0.751651 0.0488238
0.407223 0.813923 0.0508954
0.412977 0.876273 0.0493627
0.407909 0.938634 0.0516638
0.469627 0.7517 0.0511468
0.474991 0.813927 0.0487642
0.470021 0.876278 0.0512328
0.475862 0.938625 0.0495345
0.282071 0.75179 0.0886642
0.287862 0.814004 0.0861227
0.282599 0.876333 0.0888311
0.288567 0.93876 0.0872104
0.350392 0.751829 0.0861761
0.344505 0.814047 0.0884616
0.350682 0.876415 0.0867208
0.34546 0.938734 0.0894273
0.407073 0.751859 0.0886147
0.412812 0.814069 0.0862228
0.407481 0.876366 0.0887106
0.41355 0.938789 0.0872591
0.475363 0.751836 0.0862592
0.46949 0.814098 0.0884773
0.475643 0.876531 0.0867547
0.470503 0.938791 0.089433
0.287933 0.751667 0.123713
0.282005 0.813963 0.126005
0.288163 0.87635 0.124083
0.282972 0.938762 0.126905
0.344512 0.751651 0.126165
0.350465 0.813975 0.123615
0.345036 0.87636 0.126365
0.351012 0.938746 0.124565
0.412993 0.751645 0.12369
0.407086 0.813975 0.125977
0.413272 0.876334 0.12416
0.407892 0.938821 0.126807
0.469617 0.751678 0.126172
0.47548 0.813948 0.123586
0.469934 0.876322 0.126357
0.475858 0.938784 0.124568
0.282086 0.751545 0.163589
0.287959 0.813854 0.160966
0.282459 0.876294 0.163714
0.288431 0.938815 0.162003
0.350374 0.751549 0.161056
0.344623 0.813867 0.16346
0.350825 0.876373 0.161525
0.345175 0.938888 0.16429
0.407057 0.751605 0.163528
0.413007 0.813892 0.160951
0.407513 0.876344 0.163726
0.41341 0.938875 0.162036
0.475404 0.751525 0.160993
0.469496 0.813884 0.163498
0.475726 0.876391 0.161515
0.470189 0.938883 0.164294
0.287681 0.751449 0.198429
0.282013 0.813819 0.200937
0.288141 0.876315 0.198823
0.282796 0.938783 0.201612
0.344422 0.751457 0.201032
0.350309 0.813775 0.198336
0.344859 0.876189 0.201116
0.350637 0.938836 0.199262
0.412711 0.751518 0.198435
0.406902 0.813762 0.200957
0.413002 0.876239 0.198861
0.407684 0.938795 0.201588
0.469497 0.751554 0.20104
0.475354 0.813839 0.198386
0.469835 0.876207 0.201209
0.475713 0.938801 0.199298
0.281792 0.751437 0.238421
0.287609 0.813788 0.235699
0.282253 0.876288 0.238573
0.287913 0.938791 0.236495
0.349989 0.751403 0.235847
0.344337 0.813735 0.238362
0.350311 0.876288 0.236191
0.345201 0.938801 0.238984
0.406788 0.751518 0.238382
0.41272 0.813719 0.235732
0.407296 0.876206 0.238492
0.412919 0.938759 0.236582
0.474944 0.751346 0.235825
0.469275 0.813701 0.238384
0.47541 0.876327 0.236194
0.470201 0.938809 0.23891
0.284005 0.784077 0.0310783
0.287295 0.842983 0.0309239
0.283439 0.908615 0.0319678
0.286782 0.968002 0.0320955
0.348916 0.78043 0.0309949
0.345575 0.84619 0.0308916
0.349473 0.905494 0.0319448
0.346314 0.971542 0.0321697
0.409069 0.784054 0.03109
0.412137 0.843071 0.0309073
0.40841 0.908666 0.0319729
0.411823 0.968004 0.0320944
0.473764 0.780535 0.0310433
0.470628 0.846269 0.0308837
0.474447 0.905395 0.0319805
0.4713 0.97168 0.0321653
0.285888 0.780719 0.0686709
0.283064 0.846779 0.0684662
0.287562 0.905656 0.069554
0.283659 0.971384 0.0696518
0.347349 0.784953 0.0686792
0.350002 0.843188 0.068457
0.345546 0.909199 0.0695274
0.349643 0.967636 0.0695985
0.410771 0.780897 0.0686806
0.408078 0.846675 0.0684634
0.412508 0.905766 0.0695072
0.408692 0.971362 0.0696165
0.472369 0.784826 0.0687497
0.474886 0.843296 0.0684853
0.470609 0.909316 0.0695565
0.474706 0.96772 0.0696117
0.285587 0.784941 0.106222
0.287314 0.843025 0.105963
0.283015 0.909294 0.107022
0.287362 0.967827 0.107131
0.347879 0.78086 0.106194
0.345875 0.846958 0.106013
0.350235 0.905631 0.10704
0.345936 0.97157 0.107101
0.410563 0.784868 0.106219
0.412406 0.843199 0.106021
0.408051 0.909187 0.107009
0.412242 0.967944 0.107124
0.472794 0.780892 0.106188
0.47096 0.846928 0.106041
0.475191 0.905607 0.107044
0.471023 0.971659 0.107115
0.284921 0.780634 0.143648
0.283807 0.847008 0.143499
0.287692 0.905553 0.144418
0.283291 0.971699 0.144472
0.348491 0.784857 0.143633
0.349521 0.843033 0.143464
0.345659 0.909448 0.144462
0.349736 0.967872 0.144482
0.409868 0.780736 0.143611
0.408827 0.847024 0.143469
0.412659 0.905676 0.144446
0.408396 0.971699 0.144517
0.47354 0.784959 0.143642
0.474542 0.842996 0.143464
0.470564 0.909455 0.144448
0.474815 0.96788 0.144494
0.286133 0.784894 0.181039
0.286707 0.842866 0.180821
0.282955 0.909316 0.181832
0.287313 0.967872 0.181872
0.34704 0.780408 0.181066
0.346541 0.846981 0.180876
0.350022 0.905573 0.18181
0.34566 0.97181 0.181819
0.411119 0.784908 0.181057
0.411724 0.842852 0.180849
0.408062 0.909255 0.181861
0.412258 0.967929 0.181892
0.472016 0.780393 0.181018
0.47154 0.847019 0.180937
0.47498 0.905495 0.181845
0.47065 0.971917 0.18186
0.284174 0.780251 0.218434
0.284207 0.847048 0.218276
0.287474 0.905275 0.219204
0.283002 0.971965 0.219189
0.348712 0.784811 0.218448
0.348861 0.842806 0.218273
0.345451 0.909348 0.219176
0.349738 0.967754 0.219182
0.40907 0.780336 0.21842
0.409103 0.846896 0.218347
0.412443 0.905389 0.219187
0.408059 0.971786 0.219195
0.473743 0.784779 0.218458
0.47391 0.842676 0.218321
0.470513 0.909343 0.219172
0.474757 0.967927 0.219174
0.253749 0.783991 0.011268
0.253749 0.841373 0.0133264
0.254087 0.909023 0.0125275
0.254098 0.967469 0.0142288
0.316179 0.778976 0.0129844
0.316312 0.846743 0.0108557
0.316559 0.904267 0.0142265
0.316675 0.971597 0.0127998
0.378752 0.784037 0.0113065
0.378746 0.841361 0.0132086
0.379102 0.909081 0.012536
0.37916 0.967471 0.0142355
0.441247 0.779014 0.0128757
0.441294 0.846764 0.0109448
0.441498 0.904296 0.0142964
0.441684 0.971598 0.0127501
0.253913 0.780184 0.0504773
0.253939 0.847828 0.0483091
0.254123 0.904794 0.0520165
0.254235 0.972744 0.0499779
0.316425 0.785515 0.0493597
0.31638 0.842496 0.0509489
0.316618 0.91038 0.0495823
0.316736 0.967333 0.0518856
0.378904 0.780171 0.0504008
0.378897 0.847864 0.0483396
0.37906 0.904913 0.0520612
0.37926 0.972788 0.0499318
0.441393 0.785577 0.0494428
0.441361 0.842476 0.0509078
0.441601 0.910413 0.0495851
0.441752 0.967238 0.0518791
0.254016 0.785911 0.0874143
0.254004 0.842424 0.0884369
0.254261 0.9107 0.0869619
0.254303 0.967485 0.0894613
0.316548 0.78011 0.0875377
0.3165 0.848102 0.0859477
0.31676 0.905024 0.089712
0.316838 0.972937 0.0872613
0.379054 0.786047 0.0874038
0.378958 0.842439 0.0885013
0.37925 0.910639 0.0869898
0.379291 0.967463 0.0894442
0.441494 0.780183 0.0874656
0.441504 0.848144 0.0860067
0.441694 0.905019 0.089682
0.441765 0.972942 0.0872912
0.254081 0.780048 0.124745
0.254045 0.848111 0.123673
0.254207 0.905 0.12717
0.25419 0.972932 0.124659
0.316582 0.78611 0.125166
0.316566 0.842392 0.125745
0.316741 0.910655 0.124466
0.316721 0.967655 0.127001
0.379097 0.779968 0.12473
0.379067 0.848112 0.123651
0.379251 0.904931 0.127185
0.379178 0.973047 0.124722
0.441599 0.786033 0.125189
0.441571 0.84232 0.125756
0.441654 0.910625 0.124426
0.441707 0.967762 0.126997
0.254016 0.785891 0.162758
0.254012 0.842293 0.162973
0.254128 0.9107 0.161863
0.254125 0.967588 0.164442
0.316549 0.780023 0.161931
0.316599 0.848231 0.16125
0.316656 0.904922 0.164513
0.316594 0.973103 0.161965
0.379042 0.786014 0.16279
0.379078 0.842304 0.162972
0.379128 0.910686 0.161937
0.379096 0.967636 0.164401
0.441502 0.779979 0.161908
0.441587 0.848264 0.161306
0.441697 0.904968 0.164549
0.441631 0.973223 0.162024
0.253958 0.779953 0.199179
0.254018 0.848069 0.198822
0.254095 0.904882 0.201967
0.254044 0.973002 0.199328
0.316356 0.785839 0.200298
0.316463 0.842169 0.200171
0.3166 0.910519 0.199276
0.316513 0.967737 0.201812
0.378856 0.779917 0.19915
0.378983 0.848066 0.198803
0.379028 0.904969 0.201989
0.379007 0.973073 0.199308
0.441353 0.785985 0.200376
0.441419 0.842212 0.200311
0.44155 0.910466 0.199298
0.441519 0.967671 0.201817
0.253802 0.78574 0.237854
0.253855 0.842235 0.237494
0.253967 0.910452 0.236693
0.253905 0.967809 0.239113
0.316219 0.779936 0.236426
0.316396 0.848128 0.236315
0.316485 0.905076 0.23927
0.31638 0.973002 0.23662
0.378727 0.785763 0.237863
0.378843 0.842148 0.237515
0.378958 0.910397 0.236713
0.378904 0.967819 0.239118
0.44126 0.779893 0.236375
0.441415 0.848106 0.236296
0.441463 0.904944 0.239239
0.441417 0.972978 0.236706
0.287332 0.751437 0.27313
0.281774 0.813847 0.275681
0.28778 0.876416 0.273418
0.282466 0.938891 0.276335
0.344281 0.751401 0.275682
0.350134 0.813828 0.273003
0.344581 0.876333 0.275906
0.350369 0.938925 0.273895
0.412526 0.751461 0.2732
0.406694 0.813854 0.275708
0.412856 0.876445 0.273428
0.407525 0.938887 0.276304
0.469329 0.751436 0.275677
0.475102 0.813851 0.273061
0.469681 0.876297 0.275865
0.475456 0.938954 0.273824
0.281884 0.751463 0.312992
0.287533 0.813979 0.310329
0.282054 0.876453 0.313246
0.287768 0.939042 0.31108
0.34983 0.75147 0.310526
0.34423 0.813972 0.312991
0.350308 0.876484 0.31072
0.344858 0.939062 0.313584
0.406946 0.751454 0.312927
0.412601 0.813991 0.31037
0.407023 0.876486 0.31317
0.412842 0.939052 0.311146
0.474843 0.751456 0.310509
0.469251 0.813921 0.312927
0.475256 0.876496 0.310742
0.469877 0.939117 0.313566
0.287106 0.751457 0.347828
0.281572 0.813881 0.350326
0.287826 0.876489 0.348088
0.282165 0.939077 0.350859
0.344329 0.751425 0.350275
0.349987 0.813831 0.347651
0.344418 0.876382 0.350469
0.350246 0.939002 0.34848
0.412274 0.751386 0.347799
0.406653 0.813879 0.350297
0.412745 0.876465 0.348086
0.407304 0.939052 0.350864
0.469326 0.751368 0.350276
0.475033 0.813894 0.34767
0.469518 0.876401 0.350418
0.475285 0.939072 0.348441
0.281726 0.751328 0.387578
0.287485 0.813867 0.385014
0.281723 0.876452 0.38777
0.287675 0.939113 0.385862
0.349695 0.75136 0.385154
0.344023 0.813793 0.387597
0.350159 0.876468 0.385369
0.344582 0.939098 0.388136
0.406772 0.751319 0.38758
0.412339 0.81385 0.384909
0.406788 0.876442 0.387775
0.412666 0.939079 0.38574
0.474614 0.751401 0.385124
0.468988 0.813832 0.387598
0.475235 0.876445 0.385394
0.469711 0.93901 0.388179
0.287024 0.751169 0.422348
0.281476 0.813785 0.424864
0.287485 0.876444 0.422819
0.281878 0.939097 0.425498
0.34414 0.751211 0.424788
0.349806 0.813835 0.422296
0.344179 0.876406 0.425123
0.350025 0.939007 0.42315
0.411969 0.751283 0.42235
0.40645 0.81382 0.424773
0.412549 0.876509 0.422756
0.406993 0.939068 0.425491
0.469152 0.751182 0.424875
0.474707 0.813743 0.422295
0.469227 0.876422 0.425179
0.47506 0.939079 0.423103
0.281522 0.751194 0.462095
0.287165 0.813767 0.459604
0.281416 0.876442 0.462452
0.287488 0.939108 0.460637
0.34945 0.751084 0.459674
0.343817 0.813644 0.462064
0.349864 0.876493 0.460146
0.344478 0.939138 0.46284
0.406484 0.751074 0.462072
0.4121 0.813714 0.459735
0.406532 0.876384 0.462431
0.412353 0.939071 0.46062
0.474402 0.751134 0.459676
0.468796 0.813698 0.462142
0.474827 0.876468 0.460172
0.469286 0.939144 0.462799
0.286795 0.750991 0.49689
0.287356 0.876444 0.497603
0.349502 0.813616 0.49721
0.411759 0.750993 0.497013
0.412245 0.876459 0.497638
0.474466 0.813649 0.497253
0.344035 0.876358 0.499596
0.286367 0.784897 0.255816
0.28622 0.842777 0.255634
0.283103 0.909562 0.256497
0.287093 0.967728 0.256516
0.34621 0.780333 0.255792
0.346822 0.847094 0.255652
0.349758 0.905415 0.256542
0.345545 0.972044 0.25649
0.411429 0.784867 0.255793
0.411202 0.842758 0.255638
0.407984 0.909539 0.256492
0.412052 0.967884 0.256466
0.47121 0.780246 0.255826
0.471802 0.847065 0.255687
0.474733 0.905455 0.256517
0.470469 0.972072 0.256472
0.283465 0.780296 0.293127
0.284034 0.847285 0.292986
0.287187 0.905476 0.293839
0.282885 0.972155 0.293755
0.348952 0.784779 0.293065
0.348655 0.842786 0.292955
0.345433 0.909711 0.293847
0.349649 0.967985 0.293795
0.40847 0.780429 0.29309
0.409118 0.847222 0.293032
0.41221 0.905531 0.293769
0.407836 0.972101 0.293795
0.474072 0.784708 0.293096
0.473681 0.84288 0.292949
0.470444 0.909695 0.293802
0.474548 0.968112 0.293793
0.286549 0.78477 0.330389
0.286105 0.842884 0.330297
0.282865 0.909683 0.331166
0.28697 0.968056 0.331092
0.34583 0.780446 0.33041
0.346585 0.847283 0.330346
0.349599 0.905545 0.331122
0.345237 0.972212 0.331095
0.411612 0.784721 0.330368
0.410908 0.842931 0.330273
0.407903 0.909625 0.331129
0.411979 0.967953 0.331085
0.470702 0.780379 0.330418
0.47161 0.84728 0.330311
0.474636 0.905591 0.331119
0.470266 0.972296 0.331104
0.283057 0.780433 0.367749
0.284215 0.847196 0.367646
0.287014 0.905588 0.368474
0.282662 0.972238 0.36844
0.349068 0.784701 0.367699
0.348366 0.842844 0.367599
0.345273 0.909622 0.368485
0.349366 0.96818 0.36841
0.408185 0.78034 0.367695
0.409225 0.847284 0.367629
0.41201 0.905485 0.368425
0.407652 0.972289 0.368408
0.474076 0.784688 0.367654
0.473349 0.842816 0.367586
0.470314 0.909632 0.368437
0.474477 0.968056 0.368422
0.286419 0.78449 0.405004
0.285455 0.84305 0.404898
0.282725 0.909623 0.405827
0.286675 0.968115 0.405796
0.345464 0.780408 0.404999
0.346686 0.84725 0.404927
0.349339 0.905601 0.405763
0.345054 0.972127 0.405763
0.411503 0.784614 0.404952
0.410554 0.842935 0.404858
0.407695 0.90976 0.40581
0.411914 0.968137 0.405773
0.470479 0.780256 0.405035
0.471703 0.847198 0.404932
0.4744 0.905567 0.4058
0.470077 0.972248 0.40573
0.282899 0.780251 0.442261
0.284257 0.847044 0.442224
0.286713 0.905676 0.443168
0.282351 0.972182 0.443147
0.348865 0.784445 0.44227
0.347719 0.843061 0.442191
0.345092 0.909662 0.443131
0.34924 0.968262 0.443148
0.407923 0.780385 0.442273
0.409227 0.847005 0.442232
0.41169 0.905711 0.443137
0.407429 0.972244 0.443165
0.473897 0.7845 0.44232
0.472797 0.84284 0.442165
0.470201 0.909656 0.44315
0.474157 0.968146 0.443095
0.286223 0.784481 0.47956
0.28499 0.842947 0.47953
0.282525 0.909618 0.480577
0.286825 0.968417 0.48052
0.345277 0.780278 0.479586
0.346801 0.846806 0.479533
0.349082 0.905934 0.480503
0.344769 0.972021 0.480533
0.411227 0.784358 0.479588
0.409927 0.84298 0.479576
0.407608 0.909589 0.48058
0.411738 0.968467 0.480525
0.470255 0.780364 0.479637
0.471793 0.846913 0.47956
0.474167 0.905835 0.480524
0.46965 0.972113 0.480516
0.253687 0.780048 0.273631
0.253782 0.848163 0.273646
0.253875 0.904997 0.276532
0.253754 0.973137 0.273998
0.316179 0.785764 0.275296
0.316278 0.842288 0.27485
0.316384 0.910718 0.274081
0.316261 0.967796 0.276425
0.378669 0.779922 0.273567
0.378813 0.848296 0.273704
0.378827 0.905079 0.276588
0.37885 0.973175 0.273945
0.441206 0.785894 0.275328
0.441239 0.842358 0.274881
0.441404 0.910572 0.27398
0.441314 0.967776 0.276376
0.253664 0.78578 0.312715
0.253723 0.842451 0.312267
0.253768 0.9108 0.311389
0.253719 0.96795 0.31376
0.316131 0.780241 0.310814
0.316234 0.848327 0.31104
0.316299 0.905106 0.313836
0.316235 0.973255 0.311186
0.37862 0.785842 0.31266
0.378665 0.842406 0.312222
0.378815 0.91078 0.311301
0.378729 0.967884 0.313773
0.441155 0.780158 0.310728
0.44128 0.848361 0.311005
0.441318 0.905098 0.313816
0.44122 0.973349 0.311212
0.253556 0.780151 0.348026
0.253721 0.848412 0.348374
0.253645 0.905079 0.351177
0.253649 0.973413 0.348556
0.316038 0.78575 0.350079
0.316152 0.842364 0.349435
0.316172 0.910799 0.348691
0.316136 0.967888 0.351077
0.378618 0.780146 0.348031
0.378714 0.848278 0.348407
0.378701 0.905048 0.351157
0.378643 0.973251 0.348513
0.441064 0.785758 0.350045
0.441161 0.842368 0.349391
0.441218 0.910713 0.348619
0.441088 0.967896 0.351028
0.253479 0.78582 0.387386
0.253527 0.842222 0.386627
0.253592 0.910876 0.385986
0.253512 0.967968 0.38842
0.315927 0.780043 0.385284
0.316087 0.848348 0.385761
0.316051 0.904994 0.38852
0.316046 0.973524 0.385899
0.378465 0.78565 0.387363
0.378566 0.842357 0.386627
0.378619 0.910811 0.385961
0.378547 0.967976 0.38842
0.440999 0.780108 0.385271
0.441049 0.848353 0.385759
0.441095 0.905065 0.388468
0.441055 0.973328 0.385857
0.253313 0.779968 0.422559
0.253447 0.848358 0.423162
0.253454 0.905151 0.425822
0.253355 0.97342 0.423206
0.315811 0.785642 0.424695
0.315864 0.842307 0.42374
0.31597 0.910843 0.423377
0.315939 0.967922 0.425817
0.378329 0.779998 0.422515
0.37845 0.848365 0.423128
0.378431 0.905024 0.425773
0.378366 0.973411 0.423217
0.440873 0.78562 0.424664
0.440921 0.842354 0.423781
0.441004 0.910869 0.423384
0.440929 0.967981 0.425767
0.253126 0.785534 0.461966
0.25319 0.842221 0.46096
0.25332 0.91099 0.460758
0.253292 0.967941 0.463204
0.315688 0.77993 0.459813
0.315817 0.848314 0.46052
0.315818 0.904976 0.46319
0.315843 0.973567 0.460562
0.378182 0.785596 0.461947
0.37822 0.842368 0.461041
0.378364 0.910785 0.460745
0.378316 0.968033 0.463222
0.4407 0.779944 0.459866
0.440755 0.848145 0.460499
0.440843 0.905019 0.463166
0.440806 0.973503 0.460568
0.253085 0.779993 0.497162
0.253226 0.848191 0.49807
0.378106 0.779977 0.497093
0.378226 0.848191 0.498019
0.378248 0.973481 0.498011
0.349856 0.939167 0.498056
0.315757 0.910779 0.498191
0.281409 0.813596 0.499526
0.406317 0.813651 0.49946
0.440762 0.91091 0.498129
0.468983 0.75094 0.499342
0.315716 0.84235 0.498244
0.253256 0.973585 0.497919
0.474886 0.939258 0.498078
0.440706 0.842321 0.498288
0.343973 0.750898 0.499323
0.315685 0.785309 0.499279
0.440654 0.785403 0.499281
0.468948 0.876393 0.499611
0.281812 0.939233 0.500158
0.406848 0.939262 0.500125
0.281708 0.75049 0.536494
0.28664 0.813549 0.534629
0.281419 0.876635 0.537043
0.287158 0.939676 0.535671
0.34904 0.75062 0.534636
0.344044 0.813556 0.536486
0.349666 0.876689 0.535356
0.34435 0.939632 0.53738
0.406719 0.750573 0.53652
0.411705 0.813526 0.534622
0.406482 0.876632 0.536985
0.412115 0.939696 0.535683
0.473988 0.750696 0.534664
0.468953 0.813586 0.536554
0.474639 0.876783 0.535375
0.469309 0.939698 0.537351
0.282998 0.81325 0.572923
0.286592 0.876808 0.572171
0.281181 0.940323 0.574368
0.348238 0.813369 0.571915
0.344439 0.876802 0.573336
0.350193 0.940392 0.573362
0.410274 0.750321 0.57187
0.40812 0.813428 0.572938
0.411596 0.876916 0.57221
0.406059 0.940321 0.574392
0.473242 0.813574 0.572053
0.469486 0.876947 0.57332
0.475182 0.940418 0.573336
0.285004 0.812525 0.610303
0.283129 0.876721 0.611341
0.285 0.940448 0.612558
0.346099 0.812655 0.610743
0.347718 0.876786 0.61076
0.345932 0.94042 0.613088
0.41008 0.812873 0.61048
0.408393 0.876887 0.611369
0.409928 0.940562 0.612503
0.47119 0.812992 0.610818
0.472836 0.876983 0.610954
0.470824 0.9406 0.613021
0.284525 0.812775 0.649317
0.284623 0.876295 0.649022
0.284178 0.940497 0.651782
0.347025 0.750184 0.650409
0.347153 0.812831 0.649334
0.34703 0.876464 0.649496
0.346948 0.940697 0.651643
0.409535 0.750201 0.650385
0.409384 0.812948 0.649422
0.409614 0.876705 0.649151
0.409209 0.940588 0.651989
0.471865 0.75022 0.650232
0.472062 0.813043 0.649385
0.471703 0.876863 0.64954
0.471759 0.940723 0.651947
0.284543 0.751145 0.690798
0.28447 0.813831 0.689792
0.284511 0.876396 0.688433
0.284326 0.939175 0.692392
0.34695 0.751133 0.690906
0.347001 0.813976 0.68973
0.346805 0.876441 0.688263
0.346928 0.939167 0.692553
0.409432 0.751142 0.690833
0.409352 0.813742 0.689598
0.410574 0.876746 0.689857
0.409631 0.938947 0.6927
0.471911 0.751122 0.690983
0.472117 0.813732 0.689386
0.470822 0.876722 0.689782
0.471723 0.938862 0.692937
0.284385 0.751295 0.731942
0.284435 0.813577 0.730984
0.284866 0.87607 0.732871
0.284718 0.938515 0.734946
0.346779 0.751339 0.731823
0.346897 0.813894 0.731199
0.346162 0.875967 0.731437
0.34647 0.938452 0.735054
0.409466 0.751558 0.731904
0.408916 0.813998 0.731062
0.409191 0.875981 0.733026
0.409884 0.938198 0.734909
0.471591 0.751453 0.731949
0.472242 0.813679 0.731347
0.472446 0.876154 0.73467
0.471818 0.93817 0.734992
0.282697 0.779978 0.516853
0.284486 0.846819 0.516935
0.286344 0.906187 0.517911
0.282316 0.972277 0.517899
0.348793 0.783758 0.516943
0.347177 0.843389 0.516932
0.345041 0.909409 0.517891
0.348957 0.969015 0.517909
0.407666 0.780173 0.516903
0.409453 0.8468 0.516939
0.41134 0.906188 0.51789
0.407365 0.972385 0.517944
0.473722 0.78376 0.516983
0.472233 0.843382 0.516958
0.470078 0.909414 0.517906
0.473982 0.969053 0.517922
0.285973 0.782933 0.55423
0.284324 0.843473 0.554248
0.282979 0.90962 0.555326
0.285973 0.970095 0.555521
0.345389 0.780476 0.554189
0.347244 0.846071 0.554331
0.348345 0.907375 0.555312
0.345101 0.972322 0.55556
0.41097 0.78314 0.554314
0.409367 0.843593 0.554242
0.407845 0.909591 0.55529
0.410854 0.970026 0.555539
0.470445 0.780635 0.554289
0.47225 0.846101 0.554377
0.473377 0.907458 0.555301
0.470189 0.972417 0.555533
0.283401 0.781029 0.591908
0.284694 0.846267 0.591885
0.28529 0.908995 0.592932
0.283025 0.973006 0.593543
0.347912 0.782067 0.591965
0.346746 0.845297 0.591879
0.34569 0.910194 0.592948
0.347861 0.971772 0.59352
0.408496 0.781415 0.592007
0.409766 0.846465 0.591977
0.410331 0.909135 0.59294
0.408036 0.973087 0.593491
0.472897 0.782413 0.592145
0.471734 0.845516 0.591983
0.470664 0.910173 0.592994
0.472837 0.971743 0.593464
0.285013 0.781534 0.630451
0.284352 0.84503 0.629593
0.283636 0.909477 0.63135
0.284775 0.972016 0.63202
0.346644 0.781428 0.630431
0.346971 0.845613 0.629708
0.34738 0.909162 0.631399
0.346415 0.972741 0.632044
0.409894 0.781901 0.630425
0.409317 0.845332 0.629774
0.408762 0.909769 0.631327
0.409791 0.971898 0.632068
0.471598 0.781752 0.630421
0.472105 0.845809 0.629943
0.472466 0.909376 0.631372
0.471192 0.972552 0.632158
0.284498 0.782132 0.670084
0.284421 0.845395 0.66859
0.284347 0.908847 0.670656
0.284254 0.971217 0.672414
0.347088 0.782273 0.670029
0.346988 0.845457 0.668641
0.346661 0.909332 0.670665
0.346931 0.971148 0.672502
0.409469 0.782083 0.670013
0.409618 0.846158 0.668615
0.409543 0.908735 0.671083
0.409094 0.971167 0.67276
0.472083 0.782024 0.669895
0.471293 0.846091 0.668561
0.471256 0.908953 0.671161
0.47193 0.970995 0.672889
0.284666 0.782951 0.710661
0.284435 0.847375 0.70927
0.284658 0.907926 0.7139
0.28438 0.969803 0.714217
0.346586 0.782976 0.710672
0.346805 0.84771 0.70904
0.345856 0.908557 0.713739
0.347288 0.969467 0.714222
0.409578 0.783207 0.710613
0.408473 0.846232 0.709218
0.410829 0.906603 0.713793
0.409239 0.969618 0.714252
0.471661 0.783325 0.710658
0.473539 0.846319 0.709023
0.471267 0.906185 0.71425
0.472263 0.969457 0.714391
0.253224 0.904976 0.500471
0.284485 0.750219 0.650351
0.315772 0.968132 0.500621
0.378231 0.905058 0.500506
0.440754 0.968291 0.500609
0.253117 0.785004 0.53635
0.253143 0.842742 0.535282
0.253154 0.911161 0.535682
0.253134 0.968787 0.537982
0.315549 0.780225 0.53433
0.315655 0.848158 0.535451
0.315628 0.905585 0.537771
0.315628 0.973809 0.535588
0.378135 0.785083 0.536434
0.378167 0.842783 0.535399
0.378118 0.911118 0.535676
0.378156 0.968855 0.537915
0.440542 0.780183 0.534424
0.440707 0.848235 0.535505
0.440632 0.905718 0.537769
0.440653 0.973791 0.53563
0.253164 0.781102 0.571849
0.253236 0.847422 0.572833
0.25313 0.906861 0.57463
0.2531 0.976022 0.573342
0.315748 0.78328 0.573357
0.31573 0.844026 0.572581
0.315573 0.912385 0.573183
0.315499 0.96912 0.575303
0.378195 0.781165 0.571856
0.378285 0.847474 0.572814
0.378029 0.906824 0.574718
0.378055 0.976101 0.573295
0.4408 0.783471 0.573424
0.440699 0.844177 0.572551
0.440588 0.912386 0.573174
0.440518 0.96908 0.575237
0.253162 0.782391 0.611303
0.253113 0.844808 0.610452
0.252957 0.91072 0.611688
0.252838 0.972211 0.613294
0.315704 0.781125 0.610413
0.315598 0.84659 0.610733
0.315435 0.908831 0.612659
0.315404 0.973625 0.612379
0.378212 0.782655 0.611265
0.378145 0.844964 0.610573
0.377946 0.910664 0.611708
0.377908 0.972235 0.613286
0.440706 0.781375 0.610517
0.440687 0.846816 0.610908
0.440444 0.909095 0.612647
0.440369 0.973652 0.61237
0.253198 0.781665 0.649851
0.253161 0.844801 0.648681
0.253007 0.909523 0.650921
0.253085 0.97213 0.652026
0.315727 0.781578 0.649957
0.315669 0.844968 0.648735
0.315438 0.909977 0.650459
0.315552 0.971864 0.652364
0.378243 0.781636 0.649707
0.378157 0.845449 0.648932
0.378076 0.909717 0.650959
0.378081 0.972082 0.652094
0.440714 0.781778 0.64984
0.440536 0.845383 0.648788
0.44047 0.910151 0.650662
0.440472 0.971938 0.652549
0.253266 0.782587 0.690361
0.253239 0.845484 0.688802
0.25324 0.908683 0.691013
0.253076 0.970422 0.693009
0.3158 0.782674 0.690274
0.315652 0.845518 0.688734
0.31559 0.908753 0.691038
0.315631 0.970452 0.692985
0.37819 0.782639 0.690331
0.378179 0.845727 0.688532
0.378044 0.908568 0.691115
0.378116 0.970168 0.69323
0.440701 0.782677 0.690213
0.440722 0.845435 0.6891
0.440703 0.908118 0.692468
0.440625 0.970462 0.69327
0.253212 0.782693 0.73154
0.253268 0.845095 0.730871
0.253648 0.906984 0.734818
0.253371 0.969796 0.734862
0.315729 0.782737 0.731437
0.315697 0.845195 0.730927
0.315509 0.906928 0.735068
0.315718 0.969771 0.734903
0.378094 0.782687 0.731551
0.377915 0.845372 0.730337
0.378117 0.908055 0.733204
0.378224 0.969191 0.734996
0.440576 0.783218 0.731455
0.440721 0.844356 0.73286
0.440756 0.906849 0.735407
0.440711 0.969703 0.734856
0.471172 0.750223 0.572905
0.285179 0.750174 0.571763
0.346189 0.750073 0.572687
0.284253 0.751237 0.773188
0.284547 0.813294 0.773139
0.284557 0.875946 0.777592
0.284626 0.93808 0.776617
0.346754 0.751062 0.7733
0.347181 0.813273 0.773148
0.347508 0.875984 0.776274
0.346798 0.938226 0.776553
0.40943 0.750939 0.773303
0.408961 0.813108 0.773407
0.408178 0.875832 0.775849
0.409584 0.938287 0.776735
0.471723 0.750943 0.773417
0.471609 0.813162 0.773509
0.471787 0.875884 0.777131
0.47169 0.938109 0.776658
0.284265 0.750979 0.814546
0.284456 0.813082 0.814894
0.282655 0.875931 0.816642
0.284112 0.93828 0.817976
0.346914 0.750861 0.814605
0.346918 0.812944 0.814812
0.347919 0.875957 0.817579
0.347374 0.938355 0.817981
0.409504 0.750724 0.81474
0.40953 0.812847 0.814975
0.409459 0.875947 0.818104
0.409656 0.938223 0.817862
0.471962 0.750715 0.814695
0.471972 0.812887 0.814855
0.471692 0.876127 0.818009
0.472 0.938143 0.817771
0.284516 0.750595 0.855467
0.284711 0.813108 0.855941
0.285218 0.87577 0.858518
0.284153 0.938425 0.858316
0.347076 0.750623 0.855446
0.346658 0.813049 0.856256
0.345862 0.875715 0.858406
0.346998 0.938396 0.85872
0.409315 0.750568 0.855511
0.409402 0.812916 0.856138
0.409563 0.875901 0.859487
0.409413 0.938397 0.858601
0.472064 0.750543 0.855497
0.471875 0.812892 0.856282
0.472121 0.875938 0.859487
0.47207 0.938478 0.8586
0.284503 0.811953 0.896542
0.284595 0.875855 0.89902
0.284673 0.93881 0.898878
0.347246 0.811989 0.896367
0.347125 0.875822 0.899425
0.347093 0.938822 0.898683
0.409503 0.812014 0.896548
0.409456 0.875935 0.898992
0.409448 0.938927 0.898884
0.472206 0.812062 0.896517
0.472127 0.876014 0.899227
0.472196 0.938999 0.898817
0.285247 0.81202 0.935464
0.284889 0.875349 0.937946
0.284975 0.939178 0.937855
0.346878 0.811968 0.93587
0.347845 0.875501 0.937133
0.347587 0.939139 0.938225
0.410383 0.812191 0.935426
0.40952 0.875438 0.937781
0.409901 0.939206 0.937847
0.471754 0.812146 0.935916
0.473041 0.875613 0.937217
0.472626 0.939155 0.938263
0.281568 0.811986 0.975369
0.286767 0.875352 0.975338
0.284704 0.938488 0.97678
0.350187 0.812168 0.974041
0.346095 0.875278 0.976749
0.348194 0.938627 0.975815
0.406664 0.812075 0.975253
0.411837 0.87541 0.975337
0.409707 0.93859 0.976869
0.474967 0.812174 0.974004
0.471003 0.875343 0.976665
0.473316 0.938672 0.97575
0.286486 0.779836 0.993213
0.283365 0.844952 0.993444
0.286357 0.906097 0.994428
0.28414 0.971107 0.994663
0.346186 0.782704 0.993222
0.34914 0.842315 0.993417
0.346362 0.908765 0.994577
0.348603 0.968696 0.994583
0.411348 0.780071 0.993133
0.408468 0.844926 0.99343
0.411297 0.906123 0.99445
0.409118 0.971149 0.994687
0.471177 0.78271 0.993194
0.474032 0.842455 0.993403
0.471309 0.908749 0.994582
0.473819 0.9687 0.994598
0.28462 0.782995 0.75207
0.284525 0.844504 0.751715
0.284314 0.904216 0.756712
0.284714 0.969402 0.755911
0.346803 0.782526 0.75211
0.348004 0.846205 0.751665
0.346161 0.90572 0.756104
0.346824 0.969013 0.755876
0.409286 0.783008 0.752095
0.407709 0.845166 0.751985
0.41015 0.906299 0.756374
0.409505 0.969002 0.755952
0.471474 0.782816 0.752253
0.473181 0.84374 0.752435
0.471659 0.905158 0.756648
0.471874 0.969477 0.756041
0.28383 0.782266 0.79381
0.284073 0.843229 0.794614
0.284632 0.906391 0.79774
0.284817 0.969142 0.797282
0.347004 0.782071 0.793836
0.3476 0.843849 0.794209
0.347519 0.905711 0.797914
0.347049 0.969107 0.797227
0.409476 0.78167 0.793942
0.409101 0.844038 0.79428
0.40906 0.905658 0.797669
0.409497 0.969314 0.797272
0.471903 0.781842 0.794016
0.471364 0.84352 0.794638
0.47174 0.906047 0.797517
0.471946 0.969181 0.797194
0.284528 0.781827 0.835275
0.28579 0.845405 0.835318
0.283433 0.905855 0.838414
0.284211 0.969623 0.837724
0.346982 0.782132 0.835351
0.346048 0.844612 0.835667
0.347444 0.90671 0.83875
0.346993 0.969424 0.837999
0.409321 0.781771 0.83541
0.409513 0.843753 0.835879
0.409713 0.905839 0.838947
0.409528 0.969509 0.837924
0.472131 0.781734 0.835333
0.472065 0.843684 0.835582
0.471762 0.905906 0.838939
0.472237 0.969312 0.837919
0.284305 0.781123 0.876087
0.284836 0.843676 0.876997
0.284404 0.906337 0.879355
0.284545 0.969695 0.878198
0.347119 0.78071 0.876198
0.346655 0.843894 0.877151
0.346943 0.905832 0.879279
0.346822 0.970044 0.878161
0.409462 0.780972 0.876229
0.409834 0.84342 0.877077
0.409148 0.906438 0.879464
0.409638 0.969782 0.878257
0.472084 0.780776 0.876308
0.472168 0.843548 0.877311
0.472483 0.906524 0.879465
0.471929 0.970147 0.87822
0.285188 0.780076 0.916385
0.284391 0.843308 0.916967
0.28516 0.906493 0.918765
0.284444 0.970368 0.917868
0.346589 0.780627 0.916387
0.347683 0.842622 0.916876
0.346787 0.907091 0.918753
0.347393 0.969846 0.917909
0.410181 0.78021 0.916381
0.409393 0.843426 0.916911
0.410073 0.906548 0.918694
0.4095 0.970494 0.917865
0.471741 0.780563 0.916408
0.472738 0.843075 0.916878
0.471952 0.906978 0.918806
0.472475 0.970045 0.917913
0.283423 0.780922 0.955161
0.286019 0.842023 0.955687
0.284448 0.906695 0.95678
0.285614 0.969681 0.956603
0.34831 0.779614 0.955108
0.346472 0.843502 0.95562
0.348225 0.905683 0.95673
0.347081 0.97047 0.956628
0.408608 0.781098 0.95507
0.410936 0.842273 0.955641
0.409469 0.906704 0.95679
0.410601 0.969749 0.956638
0.473366 0.779695 0.955098
0.471424 0.843498 0.955682
0.47304 0.905617 0.9568
0.472032 0.970514 0.956651
0.253201 0.782493 0.773042
0.253446 0.843842 0.774293
0.253496 0.906512 0.77757
0.253476 0.969484 0.77645
0.31571 0.782273 0.773287
0.315841 0.844294 0.774418
0.315912 0.906559 0.777217
0.315771 0.969451 0.776422
0.378206 0.781806 0.773282
0.378074 0.844881 0.773055
0.378104 0.907162 0.776626
0.378206 0.9694 0.776431
0.440602 0.782196 0.773308
0.440403 0.844221 0.77442
0.440499 0.906584 0.777265
0.440681 0.969452 0.776551
0.253124 0.782078 0.814724
0.252906 0.843607 0.815978
0.252664 0.906954 0.818032
0.253136 0.969548 0.817417
0.315711 0.781778 0.814743
0.315926 0.844016 0.815148
0.315818 0.907741 0.817564
0.315812 0.969234 0.817668
0.378333 0.781661 0.814869
0.378273 0.843512 0.816076
0.378569 0.906969 0.818624
0.378356 0.969564 0.817597
0.440793 0.781669 0.814861
0.440667 0.843905 0.815884
0.440826 0.906855 0.818194
0.440853 0.969389 0.817662
0.253349 0.781763 0.85558
0.253324 0.843603 0.856973
0.253158 0.906534 0.85929
0.253125 0.969607 0.85811
0.315733 0.781409 0.8558
0.315701 0.844303 0.856141
0.315464 0.906947 0.858774
0.315655 0.969408 0.858068
0.378205 0.781693 0.855861
0.378172 0.843715 0.857192
0.378229 0.906505 0.859271
0.378243 0.969698 0.85823
0.440841 0.781316 0.855818
0.440973 0.843583 0.857125
0.440815 0.906912 0.859526
0.440764 0.969582 0.858132
0.253387 0.780474 0.896393
0.25343 0.842691 0.897333
0.253427 0.906838 0.899632
0.253371 0.969922 0.898329
0.315863 0.780754 0.895995
0.31592 0.842596 0.897548
0.315922 0.906946 0.89933
0.315808 0.96999 0.898445
0.37839 0.780414 0.896413
0.378418 0.842735 0.897267
0.378275 0.907034 0.899646
0.378324 0.969987 0.898245
0.44086 0.780662 0.896159
0.440968 0.8427 0.897545
0.440834 0.907101 0.899329
0.440823 0.970003 0.89845
0.253535 0.780295 0.935225
0.253741 0.842017 0.936843
0.253745 0.9063 0.93773
0.253601 0.970062 0.937833
0.315932 0.779294 0.936134
0.31623 0.842802 0.936005
0.316174 0.90643 0.938321
0.316138 0.969821 0.937461
0.37864 0.780383 0.935247
0.378704 0.841993 0.936739
0.378682 0.90655 0.937707
0.378617 0.970109 0.937806
0.440997 0.77932 0.936113
0.441232 0.843077 0.93599
0.44114 0.906485 0.938292
0.441121 0.969847 0.937428
0.253502 0.77675 0.975342
0.253762 0.844876 0.97391
0.253825 0.905471 0.976616
0.253942 0.969799 0.975768
0.316085 0.783396 0.973452
0.316194 0.840226 0.975598
0.316393 0.907188 0.975623
0.316425 0.969446 0.976589
0.378533 0.776784 0.9752
0.378788 0.845005 0.973946
0.378908 0.905609 0.976627
0.378925 0.969773 0.975814
0.441112 0.783428 0.973447
0.441159 0.840281 0.9756
0.441449 0.907354 0.975641
0.441422 0.969501 0.976668
0.533853 0.00112338 0.0145304
0.537798 0.0635786 0.0130423
0.533819 0.125714 0.0148308
0.537712 0.187965 0.0132859
0.600152 0.00113489 0.0127024
0.596451 0.0635512 0.0149193
0.600371 0.125687 0.0131113
0.5961 0.188034 0.0149653
0.658894 0.00109004 0.0145633
0.662653 0.0635145 0.0130049
0.658906 0.125781 0.0149198
0.662908 0.187966 0.0132685
0.725226 0.00110271 0.0126823
0.721439 0.0635419 0.0149409
0.725233 0.125636 0.0131404
0.721192 0.187983 0.0149627
0.538472 0.00102103 0.0498934
0.533259 0.0634729 0.0523477
0.538293 0.125899 0.0504513
0.533094 0.188399 0.0524745
0.595689 0.00101057 0.0522385
0.600821 0.0634678 0.0501571
0.595806 0.125944 0.0525746
0.600756 0.188364 0.0502727
0.663447 0.00105439 0.049819
0.658361 0.0635353 0.0524517
0.663355 0.125856 0.0503572
0.658169 0.188399 0.0525227
0.720808 0.00102419 0.0522668
0.725852 0.0634755 0.0502493
0.72083 0.125888 0.0526375
0.725732 0.188363 0.0502788
0.533116 0.00106208 0.0895213
0.538361 0.0634928 0.0875332
0.533012 0.125984 0.08978
0.538061 0.188547 0.0875431
0.601004 0.00107746 0.087273
0.595601 0.0635435 0.0897676
0.600698 0.125984 0.08751
0.595504 0.188559 0.0898431
0.658009 0.00105582 0.0896335
0.663354 0.0635026 0.087504
0.65809 0.126027 0.0898657
0.663128 0.188572 0.0874669
0.725944 0.00108634 0.0873062
0.720681 0.0634916 0.0898077
0.725787 0.126 0.0874958
0.720529 0.188647 0.089797
0.538188 0.0012172 0.124716
0.533031 0.0636424 0.127078
0.538061 0.126126 0.124735
0.532802 0.188674 0.127109
0.595497 0.00124089 0.127074
0.6005 0.0636485 0.124782
0.595428 0.126087 0.127135
0.600422 0.18859 0.124687
0.663246 0.00125161 0.124715
0.658097 0.0636078 0.12708
0.662851 0.126129 0.124708
0.657876 0.188692 0.127061
0.720564 0.00123506 0.127072
0.725515 0.0636736 0.12482
0.7205 0.126126 0.127094
0.725352 0.188696 0.124718
0.533008 0.00129608 0.164459
0.538014 0.0637299 0.16207
0.532677 0.126167 0.164396
0.537836 0.188713 0.161991
0.600673 0.00131137 0.162041
0.595338 0.0637979 0.16442
0.600394 0.126261 0.161977
0.595082 0.188829 0.164276
0.65792 0.00131671 0.164479
0.663075 0.063798 0.162087
0.657769 0.126267 0.164458
0.662884 0.188746 0.16203
0.725672 0.00126501 0.162027
0.720252 0.0637773 0.164366
0.725374 0.126282 0.161999
0.720079 0.188838 0.164367
0.538184 0.00132937 0.199387
0.532735 0.0638202 0.201713
0.537928 0.126234 0.199283
0.532578 0.188784 0.201552
0.595342 0.00133893 0.201698
0.600587 0.0638364 0.19929
0.59515 0.126324 0.201687
0.60026 0.188845 0.199268
0.663142 0.00136243 0.199374
0.657774 0.0638292 0.201718
0.663016 0.126329 0.199339
0.657511 0.188882 0.201568
0.720346 0.00135227 0.201675
0.725434 0.0638715 0.199252
0.720212 0.126356 0.201672
0.725255 0.188866 0.199254
0.532721 0.00137806 0.239051
0.537828 0.0638391 0.236622
0.532547 0.126346 0.238948
0.537707 0.188904 0.236521
0.600481 0.00137619 0.23653
0.595144 0.0638906 0.23893
0.600216 0.12635 0.236603
0.594856 0.188871 0.238795
0.657775 0.00136016 0.239086
0.662807 0.0638308 0.236604
0.657539 0.12634 0.238942
0.662666 0.188932 0.236599
0.725349 0.00134795 0.236522
0.720211 0.0639468 0.23893
0.725318 0.126365 0.236626
0.719814 0.188937 0.238815
0.533633 0.0339308 0.0324602
0.537101 0.0928649 0.0327022
0.533198 0.15836 0.0326949
0.537226 0.217599 0.0326773
0.599301 0.0303944 0.0324457
0.595913 0.0963559 0.0326811
0.599672 0.155134 0.032692
0.595844 0.221081 0.0326801
0.658783 0.0340125 0.0324816
0.662066 0.0927181 0.0326484
0.658463 0.158606 0.0327308
0.662281 0.217455 0.032651
0.724302 0.0302641 0.0324744
0.720981 0.0962661 0.0326994
0.724622 0.154974 0.0327693
0.720795 0.221119 0.0326407
0.537243 0.0302093 0.0698465
0.533144 0.0962002 0.0700248
0.537445 0.155254 0.0700806
0.53313 0.221429 0.069964
0.595945 0.0339434 0.0698608
0.599956 0.0926065 0.0700266
0.5956 0.159003 0.0700516
0.59978 0.217699 0.0699907
0.662242 0.0300653 0.0698868
0.658243 0.0963621 0.0700621
0.662306 0.155179 0.0700991
0.658131 0.221593 0.0699361
0.72103 0.0338764 0.0698757
0.724919 0.0925733 0.0700457
0.720698 0.158927 0.0700621
0.724901 0.217734 0.0700057
0.533265 0.0339907 0.107216
0.537416 0.0926916 0.107324
0.533015 0.159045 0.107319
0.537202 0.217788 0.107241
0.599861 0.0301234 0.107237
0.59557 0.0965649 0.10731
0.599674 0.155107 0.107343
0.595461 0.221703 0.107239
0.658181 0.0340363 0.107221
0.662363 0.0927353 0.107305
0.658033 0.159198 0.107283
0.662244 0.217861 0.107225
0.724836 0.0302475 0.107267
0.720581 0.0965469 0.107273
0.724752 0.155226 0.10731
0.720487 0.22173 0.107198
0.537258 0.0302419 0.144556
0.532793 0.0966193 0.144602
0.537114 0.1553 0.144606
0.532949 0.221932 0.144514
0.595622 0.0341869 0.144552
0.59992 0.0927286 0.144581
0.595373 0.159314 0.144543
0.599577 0.217812 0.144465
0.662332 0.0303024 0.144581
0.657936 0.0967275 0.144581
0.662023 0.155292 0.14457
0.657858 0.221825 0.144488
0.720594 0.0342254 0.144593
0.724908 0.092858 0.144591
0.720331 0.159309 0.144558
0.724568 0.217794 0.144494
0.532927 0.0343157 0.181882
0.537333 0.0928635 0.181882
0.532733 0.159245 0.181846
0.537123 0.217889 0.18177
0.59989 0.0303118 0.181887
0.595244 0.0969149 0.181886
0.599469 0.155425 0.18181
0.595372 0.221887 0.181765
0.657885 0.0343437 0.181873
0.662304 0.0929124 0.181863
0.657722 0.159318 0.181869
0.662002 0.217957 0.181751
0.724893 0.030397 0.181865
0.720271 0.0968791 0.181872
0.724558 0.155287 0.181839
0.720259 0.221991 0.181748
0.5371 0.0303946 0.219177
0.532628 0.0969621 0.219126
0.537087 0.155438 0.219093
0.532688 0.221942 0.21905
0.59536 0.0343833 0.219144
0.599892 0.0929716 0.219127
0.595147 0.159301 0.219099
0.59948 0.218007 0.219025
0.662268 0.0303343 0.219206
0.657727 0.0968793 0.219151
0.662073 0.155584 0.219173
0.657613 0.221846 0.219046
0.720282 0.0344853 0.219156
0.724899 0.0930219 0.219155
0.720274 0.1594 0.219086
0.724404 0.218063 0.219018
0.504164 0.0342409 0.0129465
0.504129 0.0927833 0.0147953
0.504136 0.159186 0.0129845
0.504103 0.217647 0.0150708
0.566746 0.0303983 0.0144504
0.566659 0.0967142 0.0130254
0.566663 0.155174 0.0149312
0.56655 0.221961 0.0129693
0.629158 0.0341117 0.0130866
0.629203 0.0928896 0.0148341
0.629157 0.159268 0.0130545
0.629161 0.217614 0.0151135
0.691679 0.0303617 0.0144436
0.691671 0.0966435 0.0130239
0.691766 0.155195 0.0148678
0.691625 0.221907 0.0129381
0.504249 0.0298503 0.0522311
0.504164 0.0975436 0.0501651
0.504159 0.155008 0.0527314
0.504077 0.222683 0.0501598
0.566687 0.0350974 0.0501616
0.566741 0.0925736 0.0525957
0.566646 0.160134 0.0501826
0.566686 0.217556 0.0526369
0.629262 0.0299366 0.0522348
0.629236 0.097549 0.0502278
0.629201 0.155056 0.052649
0.629147 0.222622 0.0501721
0.691769 0.0350744 0.0502467
0.691749 0.0925428 0.0525539
0.691671 0.159977 0.050335
0.691723 0.217499 0.0526761
0.504237 0.0351878 0.0874379
0.504114 0.0924412 0.0899836
0.504016 0.160191 0.0875053
0.503994 0.217625 0.0899313
0.566771 0.0299348 0.0897592
0.566612 0.097689 0.0875172
0.566536 0.155121 0.090056
0.566546 0.222714 0.087418
0.629213 0.035228 0.0874296
0.62912 0.092483 0.0900267
0.62903 0.160182 0.0875237
0.628989 0.21769 0.0899962
0.691734 0.0298726 0.08972
0.691643 0.0976873 0.0874887
0.691585 0.155072 0.0900276
0.691509 0.222801 0.0873718
0.504026 0.0302929 0.127184
0.50397 0.0976803 0.124695
0.503861 0.155214 0.127335
0.503895 0.222829 0.124734
0.566599 0.0352393 0.124705
0.56645 0.0927163 0.127343
0.566338 0.1603 0.124804
0.566319 0.217662 0.127219
0.62908 0.0301827 0.127159
0.628932 0.0977449 0.124693
0.628856 0.155199 0.127322
0.628839 0.222751 0.124693
0.691576 0.0352814 0.124696
0.691513 0.0928063 0.1273
0.691348 0.16024 0.124788
0.691293 0.217724 0.127178
0.504037 0.0354497 0.162002
0.503861 0.0927699 0.164692
0.503788 0.160332 0.162011
0.503736 0.217748 0.164491
0.566508 0.0303419 0.164619
0.566368 0.0979383 0.161922
0.566241 0.155223 0.164571
0.566257 0.223006 0.161965
0.628978 0.0355108 0.161959
0.628906 0.092756 0.164663
0.628728 0.160446 0.162033
0.628689 0.217761 0.164442
0.691511 0.0302393 0.16464
0.691388 0.0979599 0.161943
0.691229 0.155275 0.164556
0.691207 0.223075 0.161924
0.503892 0.0302347 0.201901
0.503844 0.0980575 0.1992
0.503742 0.155183 0.201848
0.503677 0.223177 0.199152
0.566436 0.0355865 0.199258
0.566402 0.0927277 0.201978
0.566232 0.160473 0.199181
0.566145 0.217844 0.201736
0.628925 0.0303237 0.201918
0.62888 0.0981003 0.1992
0.628736 0.15532 0.201849
0.628597 0.2231 0.199155
0.691401 0.0355993 0.199261
0.691347 0.0929193 0.201938
0.691227 0.160518 0.199235
0.691116 0.217869 0.201702
0.50379 0.0354939 0.236594
0.503697 0.0928759 0.2392
0.503632 0.160469 0.236476
0.503521 0.217727 0.238932
0.566321 0.030409 0.239074
0.566208 0.0980152 0.23646
0.566094 0.155305 0.2391
0.566055 0.223216 0.236471
0.628806 0.0356142 0.23662
0.628742 0.0927927 0.239222
0.628617 0.160514 0.236464
0.62853 0.217855 0.238978
0.691323 0.0304705 0.239199
0.691293 0.0979978 0.236462
0.691169 0.155287 0.239015
0.691001 0.223202 0.236483
0.537936 0.00151098 0.273798
0.532542 0.0640314 0.276331
0.53777 0.126398 0.273882
0.532251 0.1889 0.276092
0.595078 0.00154069 0.276425
0.600331 0.0639469 0.273926
0.594933 0.126365 0.276189
0.600151 0.188859 0.273833
0.66302 0.0015328 0.273898
0.657482 0.0639709 0.276321
0.662819 0.126437 0.273872
0.657373 0.188902 0.276069
0.719989 0.00157786 0.276293
0.725389 0.0639396 0.273913
0.719979 0.126399 0.276183
0.725155 0.188929 0.273832
0.532502 0.00158925 0.313663
0.537696 0.0641231 0.311209
0.532235 0.126492 0.313502
0.537482 0.188988 0.311062
0.600295 0.00157439 0.311164
0.594928 0.0641151 0.313593
0.600156 0.126457 0.31125
0.594606 0.188951 0.313384
0.657532 0.00164501 0.313671
0.662833 0.0640776 0.311214
0.65728 0.12652 0.313517
0.662451 0.1889 0.31109
0.725379 0.0016386 0.311194
0.720085 0.0641046 0.313564
0.725158 0.126481 0.31118
0.719672 0.188925 0.313439
0.537706 0.00164341 0.348473
0.532308 0.0641266 0.350869
0.537433 0.12657 0.348555
0.531927 0.188993 0.350765
0.594868 0.00169578 0.35096
0.600172 0.0641372 0.348459
0.594675 0.126626 0.350847
0.599984 0.18904 0.348447
0.662748 0.00169384 0.348411
0.657335 0.0641785 0.350951
0.662481 0.126598 0.348542
0.65706 0.189028 0.350798
0.719941 0.00172759 0.350907
0.725254 0.0641483 0.348483
0.719763 0.126579 0.350831
0.725048 0.189053 0.348317
0.53219 0.00162241 0.38832
0.537477 0.064126 0.385755
0.531965 0.126565 0.388235
0.537244 0.189054 0.385756
0.600149 0.00167323 0.38576
0.594584 0.0641933 0.388197
0.599788 0.126609 0.385915
0.594333 0.189067 0.388164
0.657274 0.00169658 0.388309
0.662531 0.0641343 0.385784
0.656991 0.126581 0.388178
0.66236 0.189068 0.385817
0.725102 0.00168152 0.385781
0.719749 0.0641727 0.388264
0.724837 0.126601 0.385837
0.719273 0.189102 0.388159
0.537413 0.00169945 0.423123
0.53224 0.0641782 0.425608
0.537103 0.126707 0.423234
0.531704 0.189246 0.425522
0.59475 0.0017296 0.425596
0.599732 0.0642192 0.423096
0.594549 0.12675 0.425555
0.599738 0.189263 0.423108
0.662323 0.00166421 0.423162
0.657337 0.0642303 0.425604
0.662266 0.12669 0.423179
0.656756 0.189194 0.425458
0.719726 0.00173607 0.42552
0.724889 0.0642007 0.423123
0.719631 0.126745 0.42555
0.724785 0.189196 0.42309
0.532053 0.00180148 0.462952
0.537188 0.0643422 0.460527
0.532157 0.126873 0.462903
0.536924 0.189375 0.46046
0.599887 0.00175395 0.460658
0.594776 0.0643968 0.462946
0.599516 0.126919 0.460421
0.594338 0.189428 0.462898
0.657012 0.00174588 0.462839
0.662154 0.06427 0.460552
0.657264 0.126888 0.462929
0.662066 0.189385 0.460495
0.724762 0.00179519 0.46069
0.719853 0.0643909 0.462951
0.724437 0.12686 0.460491
0.719384 0.189406 0.462952
0.536836 0.127084 0.497906
0.599527 0.0646048 0.497961
0.599503 0.189461 0.497838
0.502902 0.22338 0.498591
0.661871 0.127021 0.497873
0.690754 0.0360475 0.497896
0.724478 0.189399 0.497905
0.532874 0.0346338 0.256439
0.537108 0.0930152 0.256444
0.532522 0.159303 0.256389
0.536719 0.217971 0.256271
0.599483 0.0304413 0.256464
0.595078 0.0968922 0.256415
0.599534 0.155517 0.256406
0.595058 0.2219 0.256311
0.657783 0.0345546 0.25646
0.662146 0.0930116 0.256441
0.657613 0.159359 0.256363
0.66171 0.218146 0.256289
0.724666 0.030423 0.256452
0.720074 0.0968888 0.256439
0.724309 0.155649 0.256405
0.720069 0.222034 0.256334
0.536908 0.0305305 0.293751
0.532558 0.0971404 0.293703
0.53676 0.15564 0.293696
0.532582 0.222073 0.293562
0.595304 0.0346799 0.293763
0.599395 0.0931798 0.293739
0.595049 0.159354 0.2937
0.598904 0.218005 0.293562
0.661971 0.0306496 0.29379
0.657584 0.0970994 0.293737
0.661699 0.155625 0.293705
0.657512 0.221975 0.293577
0.720142 0.034681 0.293792
0.724562 0.0932596 0.293728
0.720194 0.159463 0.293705
0.724096 0.218032 0.293599
0.532809 0.034735 0.331057
0.536724 0.0932424 0.331062
0.532417 0.159481 0.331023
0.536225 0.217918 0.330888
0.599288 0.0306458 0.331033
0.594972 0.0972686 0.331056
0.598981 0.155715 0.331002
0.595103 0.222103 0.330911
0.657725 0.0348273 0.331061
0.661737 0.0932701 0.331047
0.657537 0.159659 0.33099
0.661178 0.21793 0.330897
0.724402 0.0307724 0.331029
0.719997 0.0971344 0.331042
0.724065 0.155562 0.331031
0.720033 0.222189 0.330891
0.536672 0.0306263 0.368406
0.532368 0.0972199 0.368383
0.536311 0.155659 0.368388
0.532498 0.222207 0.368221
0.595201 0.034894 0.368369
0.599118 0.0934297 0.368393
0.594791 0.159658 0.368331
0.598467 0.218101 0.368293
0.661702 0.0305996 0.368391
0.657357 0.0972893 0.368388
0.661506 0.15566 0.36835
0.65752 0.222193 0.368242
0.720061 0.034904 0.368376
0.724159 0.0933017 0.368353
0.719904 0.159735 0.36832
0.723496 0.218022 0.368245
0.532545 0.0348712 0.405695
0.536506 0.0932945 0.405731
0.532172 0.159751 0.40569
0.535718 0.218147 0.405615
0.599082 0.030638 0.405674
0.594718 0.0973356 0.405706
0.598842 0.155766 0.405682
0.594896 0.222342 0.405592
0.657438 0.0348222 0.405703
0.66156 0.0932882 0.405691
0.657267 0.15967 0.405664
0.66086 0.218222 0.405559
0.724231 0.0307027 0.405677
0.719834 0.0973715 0.405678
0.723726 0.155763 0.405662
0.719968 0.222358 0.405565
0.536564 0.0306763 0.44305
0.532181 0.0974108 0.443024
0.536153 0.155909 0.442995
0.532529 0.222534 0.442968
0.594884 0.0348106 0.443093
0.598969 0.0933037 0.443027
0.59475 0.16004 0.442956
0.597977 0.218312 0.442957
0.661662 0.0306879 0.443051
0.657266 0.0973915 0.443014
0.661135 0.155897 0.442978
0.657541 0.22256 0.442919
0.719939 0.0348095 0.44307
0.724116 0.093342 0.442969
0.719825 0.159986 0.44297
0.722986 0.218261 0.442957
0.532303 0.0349314 0.480442
0.536401 0.0936232 0.480376
0.532258 0.160033 0.48034
0.53523 0.218381 0.480364
0.59904 0.0310585 0.480423
0.594757 0.0975671 0.480373
0.598648 0.156015 0.480335
0.595387 0.222816 0.480363
0.657285 0.0347299 0.480453
0.661387 0.0935961 0.48039
0.657315 0.160119 0.480384
0.660173 0.218328 0.480383
0.72405 0.0310858 0.480405
0.719784 0.0976032 0.480392
0.723593 0.155936 0.48033
0.720424 0.222794 0.480405
0.503738 0.0304093 0.276385
0.503613 0.0981937 0.273818
0.503588 0.155251 0.276353
0.503385 0.22321 0.273723
0.566202 0.0357572 0.273921
0.566128 0.0928605 0.27646
0.566079 0.160634 0.273766
0.565914 0.217801 0.276185
0.628765 0.0303591 0.276429
0.628644 0.0981336 0.273754
0.628583 0.155267 0.276393
0.628406 0.223166 0.27376
0.691264 0.0358 0.273858
0.691128 0.0928908 0.276442
0.691066 0.16054 0.273901
0.690966 0.217834 0.276213
0.503662 0.0357778 0.311226
0.50353 0.0929427 0.313724
0.50346 0.160673 0.311143
0.503276 0.217722 0.313419
0.566139 0.0305819 0.313683
0.565989 0.0982598 0.311179
0.565897 0.155385 0.313634
0.565766 0.223158 0.311086
0.628618 0.0359117 0.311214
0.628497 0.0929972 0.313673
0.628415 0.160714 0.311191
0.628231 0.217788 0.313418
0.691169 0.0305697 0.313788
0.691067 0.0983224 0.311111
0.69096 0.155364 0.313604
0.690806 0.223145 0.311133
0.503532 0.0304741 0.35092
0.503419 0.0984055 0.348443
0.503252 0.155482 0.350979
0.503147 0.223259 0.348536
0.566068 0.0358242 0.348532
0.565907 0.0931309 0.351063
0.565785 0.160821 0.348502
0.565684 0.217766 0.350711
0.628563 0.0305507 0.350958
0.628385 0.0983161 0.348475
0.628332 0.155428 0.35095
0.628185 0.22337 0.348506
0.691042 0.0359739 0.348487
0.690992 0.0931201 0.351024
0.690856 0.160744 0.348485
0.690685 0.21781 0.350697
0.503449 0.0359226 0.385889
0.503253 0.0929734 0.388385
0.503117 0.160816 0.385918
0.502976 0.21778 0.38792
0.565954 0.0305276 0.388301
0.565705 0.0983431 0.38588
0.565683 0.155447 0.388313
0.565493 0.223372 0.385847
0.628393 0.0359173 0.385863
0.628277 0.0930183 0.388395
0.628136 0.160741 0.385783
0.628045 0.217782 0.387971
0.690952 0.0305588 0.38837
0.690768 0.0983257 0.385843
0.690709 0.155399 0.388298
0.690557 0.223423 0.385868
0.503378 0.0306329 0.425637
0.503115 0.098245 0.423188
0.503067 0.155647 0.425558
0.502835 0.223519 0.423318
0.565886 0.0358353 0.42322
0.56564 0.0932472 0.425775
0.56556 0.160919 0.42316
0.565378 0.217872 0.425255
0.628354 0.0307537 0.425655
0.628174 0.0983147 0.423167
0.628099 0.155648 0.425594
0.627937 0.223536 0.423305
0.690841 0.0358385 0.423166
0.690768 0.0932843 0.425664
0.690584 0.160867 0.423296
0.690475 0.217813 0.425227
0.503253 0.0359602 0.460583
0.503126 0.0935258 0.463097
0.503003 0.160839 0.460582
0.502849 0.218177 0.462515
0.565785 0.0308216 0.463008
0.565631 0.098323 0.460528
0.565539 0.155986 0.462904
0.565386 0.223532 0.460923
0.628331 0.0359638 0.46055
0.62819 0.0935683 0.463046
0.627996 0.160837 0.460633
0.627942 0.218138 0.462485
0.690787 0.0308337 0.463106
0.690697 0.0983033 0.460492
0.690565 0.155963 0.462898
0.690441 0.22361 0.460872
0.72452 0.0645241 0.497995
0.565757 0.0361408 0.497941
0.662237 0.00194885 0.498138
0.503158 0.098426 0.498006
0.627963 0.223371 0.498646
0.690555 0.160847 0.498117
0.537251 0.00201372 0.498032
0.628165 0.098477 0.498059
0.565406 0.218225 0.499716
0.565522 0.16095 0.498064
0.690495 0.218214 0.499755
0.531971 0.189442 0.500274
0.657149 0.189426 0.50032
0.532306 0.0024024 0.537579
0.536632 0.0648252 0.535815
0.532672 0.126906 0.537847
0.536705 0.18884 0.53584
0.599322 0.00243149 0.535774
0.595143 0.0648154 0.537765
0.598957 0.12693 0.535818
0.595108 0.188758 0.537981
0.657367 0.00236953 0.537542
0.661564 0.0647876 0.535834
0.657795 0.126897 0.53791
0.661551 0.188802 0.53585
0.7243 0.00237102 0.535828
0.720104 0.0646961 0.537695
0.723943 0.126829 0.535847
0.72021 0.18874 0.537991
0.538249 0.00296117 0.573646
0.53104 0.0650203 0.57529
0.538895 0.126722 0.573996
0.531212 0.18819 0.575815
0.593409 0.00291583 0.574851
0.601168 0.0649924 0.573904
0.593604 0.126711 0.575618
0.601376 0.188136 0.574174
0.663306 0.00289126 0.573672
0.656048 0.0649639 0.57536
0.663821 0.126667 0.573924
0.656081 0.188156 0.575782
0.718415 0.00277175 0.574845
0.726035 0.0649464 0.573872
0.718633 0.126572 0.575568
0.726225 0.188181 0.574058
0.533612 0.00322486 0.613705
0.534688 0.0649823 0.613725
0.534207 0.126311 0.614704
0.534865 0.187679 0.614051
0.533916 0.249529 0.614505
0.597238 0.0032299 0.613318
0.596595 0.0647858 0.614323
0.597242 0.126273 0.614034
0.596621 0.187701 0.614723
0.597426 0.249385 0.613967
0.658779 0.00314146 0.613806
0.659561 0.0649286 0.61373
0.659114 0.12632 0.614701
0.659873 0.18766 0.614035
0.722175 0.00317864 0.613313
0.721583 0.0649021 0.614276
0.722259 0.126311 0.614018
0.721601 0.187694 0.614583
0.722333 0.249369 0.61389
0.534441 0.00234654 0.653019
0.534252 0.0640927 0.653972
0.534424 0.126032 0.654188
0.534376 0.188044 0.65424
0.596806 0.00231077 0.653219
0.596934 0.0640414 0.653833
0.596837 0.125969 0.654355
0.59685 0.187914 0.65419
0.659464 0.00220721 0.653117
0.659218 0.0640391 0.653945
0.659417 0.125973 0.65424
0.659203 0.187958 0.654275
0.721819 0.00221909 0.653238
0.721966 0.0640113 0.653791
0.721768 0.125999 0.654347
0.72188 0.187949 0.654138
0.53419 8.79467e-04 0.694041
0.534337 0.0634541 0.694352
0.53438 0.125953 0.69458
0.534228 0.18845 0.694517
0.596704 9.72753e-04 0.694013
0.596759 0.0633746 0.69444
0.596776 0.125837 0.694587
0.596752 0.188334 0.694505
0.659076 0.00101923 0.693957
0.659196 0.0633769 0.69442
0.659292 0.125827 0.694676
0.659193 0.188368 0.694644
0.721599 9.48666e-04 0.693858
0.721713 0.0633436 0.694421
0.721663 0.125816 0.694613
0.721788 0.188302 0.69459
0.534363 5.16785e-04 0.735013
0.534669 0.0631247 0.735049
0.534501 0.12583 0.735107
0.534424 0.188568 0.735149
0.596917 4.8774e-04 0.735021
0.59688 0.063141 0.735113
0.596972 0.125875 0.735207
0.59692 0.188577 0.735174
0.659216 5.18077e-04 0.734984
0.659387 0.0630617 0.735082
0.659416 0.125838 0.735055
0.659396 0.18844 0.735162
0.721788 5.06445e-04 0.734872
0.721767 0.0631284 0.735051
0.721887 0.125751 0.73512
0.721962 0.188355 0.7351
0.536421 0.0316031 0.517887
0.532481 0.0976176 0.517845
0.53568 0.156104 0.517869
0.533323 0.222171 0.517972
0.594782 0.0349885 0.517873
0.59855 0.0939577 0.517825
0.594947 0.16 0.517869
0.597131 0.218076 0.517952
0.661365 0.0316288 0.517853
0.657431 0.0976459 0.517861
0.660821 0.155997 0.51788
0.658516 0.222204 0.517979
0.719742 0.034826 0.517869
0.723631 0.0939545 0.517875
0.719954 0.159793 0.517908
0.72224 0.218096 0.517977
0.532539 0.0349509 0.555696
0.535438 0.0944101 0.555817
0.533147 0.159216 0.555944
0.533977 0.218163 0.55606
0.598352 0.0322859 0.555655
0.59536 0.0971538 0.555856
0.597429 0.156223 0.555893
0.596603 0.220884 0.556059
0.657535 0.034784 0.5557
0.660426 0.0942611 0.555836
0.658043 0.159156 0.5559
0.659025 0.217932 0.556055
0.723285 0.0322104 0.555672
0.720284 0.0969799 0.555869
0.722416 0.15604 0.555904
0.721645 0.221073 0.556055
0.535452 0.0337342 0.593746
0.533803 0.0968998 0.59409
0.534699 0.156159 0.594264
0.534914 0.219326 0.594334
0.595739 0.0350089 0.593779
0.597724 0.094991 0.59409
0.596715 0.158095 0.594266
0.59646 0.217673 0.594302
0.660423 0.0334987 0.593816
0.658651 0.0968141 0.594105
0.659808 0.156226 0.594232
0.65999 0.219405 0.594243
0.720721 0.0349985 0.59378
0.722687 0.0949896 0.594039
0.721625 0.158016 0.594139
0.721584 0.217657 0.594232
0.533794 0.0342607 0.63309
0.534605 0.0951457 0.633832
0.534376 0.15722 0.633936
0.534231 0.218229 0.633601
0.597307 0.0335789 0.633183
0.596612 0.0956432 0.633787
0.597053 0.15666 0.633971
0.597223 0.218545 0.633657
0.658838 0.0341709 0.633178
0.659616 0.0950638 0.633808
0.659408 0.157204 0.633971
0.659062 0.21799 0.633614
0.722246 0.0337746 0.63315
0.721565 0.0956584 0.633856
0.721944 0.156676 0.633981
0.72206 0.218568 0.633611
0.534362 0.0324725 0.673883
0.534524 0.0949233 0.674169
0.534308 0.156959 0.674294
0.534441 0.219252 0.674137
0.596594 0.0326037 0.673885
0.596823 0.0946638 0.674199
0.596857 0.156928 0.674349
0.596658 0.219223 0.674121
0.659372 0.0326184 0.67384
0.659247 0.0948565 0.674254
0.659294 0.156956 0.674387
0.65935 0.21918 0.674209
0.721687 0.0327959 0.67378
0.72176 0.09462 0.674236
0.721829 0.156951 0.674363
0.721726 0.219027 0.674092
0.534382 0.0318816 0.714632
0.534511 0.0944855 0.714794
0.534514 0.157261 0.714827
0.534311 0.219872 0.714775
0.596873 0.0318768 0.714664
0.596972 0.0945796 0.71484
0.596748 0.157203 0.714851
0.596835 0.219645 0.714761
0.659235 0.0318842 0.714654
0.659252 0.0943727 0.71485
0.65935 0.157241 0.714852
0.659103 0.219638 0.714827
0.721752 0.0319696 0.714581
0.721899 0.0944223 0.714788
0.721928 0.156984 0.714844
0.721801 0.219716 0.714793
0.503228 0.0311853 0.500525
0.565637 0.0939445 0.500356
0.658854 0.249463 0.614439
0.628203 0.0311529 0.500486
0.690697 0.0937814 0.500374
0.503066 0.0361531 0.535672
0.503109 0.0942419 0.537796
0.503037 0.160041 0.536179
0.502941 0.217655 0.537226
0.565613 0.0318349 0.537981
0.565659 0.0980958 0.535956
0.565458 0.156124 0.537733
0.565546 0.22185 0.536819
0.628169 0.0361325 0.535724
0.628088 0.0942419 0.537802
0.627983 0.159838 0.536094
0.628032 0.217639 0.537177
0.690657 0.0317806 0.537946
0.6906 0.0979856 0.535985
0.690534 0.156176 0.537751
0.690548 0.221717 0.53683
0.503116 0.0311422 0.5754
0.503203 0.100174 0.573943
0.503185 0.153473 0.574923
0.503202 0.222123 0.575183
0.565673 0.0386159 0.573505
0.565707 0.0925219 0.575356
0.565719 0.161185 0.574366
0.565689 0.21461 0.574565
0.6281 0.0310202 0.575425
0.628222 0.100195 0.573975
0.628188 0.153393 0.574955
0.628232 0.222143 0.575151
0.690608 0.0384915 0.573521
0.690691 0.0924633 0.575408
0.690659 0.161123 0.574331
0.690666 0.214672 0.574556
0.50294 0.0350718 0.613099
0.503018 0.0955797 0.614358
0.50308 0.157075 0.614171
0.503153 0.217738 0.61397
0.565435 0.0341188 0.613957
0.5656 0.0960165 0.613888
0.565636 0.156541 0.6144
0.565625 0.218572 0.614358
0.627992 0.034771 0.613218
0.627988 0.0955392 0.614345
0.62808 0.157153 0.614166
0.628111 0.217645 0.61394
0.690468 0.0341783 0.613979
0.690576 0.096069 0.613853
0.690616 0.156528 0.61433
0.690611 0.2185 0.614277
0.503105 0.0333588 0.653506
0.503101 0.0952788 0.654017
0.503079 0.156953 0.654178
0.503117 0.218817 0.653886
0.565525 0.03359 0.65332
0.565609 0.0949936 0.654079
0.565556 0.1569 0.654167
0.565572 0.218682 0.653861
0.628101 0.0332489 0.653564
0.62806 0.0951788 0.654028
0.62811 0.156814 0.654206
0.62802 0.218771 0.653993
0.69061 0.033466 0.653291
0.69051 0.0950055 0.654185
0.69054 0.156984 0.654273
0.690529 0.218609 0.653803
0.503089 0.032407 0.694285
0.50314 0.0948131 0.694563
0.503087 0.15714 0.694651
0.50302 0.219659 0.69448
0.565429 0.0322179 0.69429
0.565632 0.0946533 0.694593
0.565544 0.157083 0.694637
0.565492 0.219529 0.69456
0.627936 0.0322649 0.694239
0.62797 0.0946862 0.6946
0.62804 0.15695 0.694694
0.627959 0.219531 0.694562
0.690405 0.0322014 0.694215
0.690481 0.0945317 0.694591
0.690515 0.157064 0.694737
0.690505 0.219452 0.694564
0.503196 0.0320489 0.735109
0.503282 0.094386 0.73514
0.503265 0.157203 0.735194
0.503191 0.219877 0.735188
0.565662 0.0317957 0.735081
0.565722 0.0945136 0.735285
0.565707 0.157301 0.735338
0.565639 0.219767 0.735165
0.62806 0.0318982 0.735136
0.628135 0.0944434 0.735301
0.628088 0.157239 0.735236
0.628108 0.219779 0.735289
0.690584 0.0317361 0.735041
0.690634 0.0944158 0.735202
0.690624 0.157198 0.73522
0.690588 0.219727 0.735153
0.628061 0.156207 0.500262
0.503004 0.156175 0.5002
0.657288 0.0645955 0.500206
0.594788 0.127127 0.500183
0.66356 0.249946 0.574107
0.721633 0.249824 0.65375
0.596818 0.249935 0.653791
0.534477 0.249962 0.653635
0.719798 0.127064 0.500168
0.718735 0.249951 0.575726
0.593748 0.24983 0.575715
0.538589 0.249974 0.574265
0.532267 0.0645948 0.500215
0.659198 0.249784 0.653649
0.594641 0.00196462 0.500141
0.719575 0.00191521 0.500082
0.534497 6.97775e-04 0.776165
0.534589 0.0632576 0.776029
0.534759 0.125945 0.775972
0.534787 0.188676 0.776033
0.597133 6.3383e-04 0.776261
0.597229 0.063219 0.776057
0.597106 0.125956 0.77588
0.59734 0.188668 0.776009
0.659678 6.3248e-04 0.77617
0.659636 0.0632161 0.776026
0.659687 0.125878 0.775854
0.659662 0.18852 0.776086
0.722144 6.52964e-04 0.776169
0.722134 0.0632492 0.775904
0.722108 0.125921 0.775932
0.722208 0.188559 0.775931
0.534637 8.04808e-04 0.817213
0.534716 0.0634421 0.816889
0.534703 0.126124 0.816704
0.534903 0.18868 0.81685
0.597093 7.74006e-04 0.817228
0.597172 0.0634556 0.8169
0.597366 0.126141 0.81669
0.597302 0.188694 0.816994
0.659683 7.46375e-04 0.817186
0.659654 0.0634643 0.8168
0.659688 0.126104 0.816719
0.659858 0.188672 0.816929
0.722116 8.16039e-04 0.817092
0.722163 0.0635019 0.816809
0.722201 0.126042 0.816707
0.722365 0.188644 0.817047
0.534518 0.00110604 0.857719
0.534612 0.0636336 0.857417
0.534718 0.12613 0.857271
0.534737 0.188589 0.857569
0.597081 0.00103467 0.857741
0.597206 0.0635512 0.8573
0.597148 0.126081 0.85735
0.597291 0.188545 0.857551
0.65962 0.00102072 0.857697
0.659555 0.0635484 0.85742
0.659627 0.126014 0.857225
0.659735 0.188483 0.857613
0.72212 0.00104775 0.857669
0.722107 0.0635438 0.857403
0.722113 0.125983 0.85735
0.722256 0.188464 0.857686
0.534762 0.00150116 0.898057
0.534763 0.0637897 0.8978
0.534821 0.125958 0.897721
0.534773 0.188186 0.898053
0.597181 0.00149697 0.898146
0.597207 0.0637939 0.897737
0.597159 0.125964 0.897744
0.59735 0.188144 0.898109
0.659725 0.00149297 0.89806
0.659786 0.0637882 0.897764
0.659721 0.125926 0.897691
0.659764 0.188096 0.898072
0.722191 0.00139408 0.898147
0.722226 0.0637328 0.897733
0.722247 0.125942 0.897718
0.722366 0.188113 0.898087
0.535112 0.00174741 0.937632
0.534644 0.0639145 0.937147
0.53482 0.125855 0.937444
0.535104 0.187853 0.93737
0.59728 0.00170418 0.937337
0.597509 0.063801 0.937544
0.597435 0.125791 0.937126
0.597319 0.187875 0.937769
0.660144 0.00175589 0.937627
0.659797 0.063798 0.937076
0.6599 0.12582 0.937503
0.660212 0.187799 0.937441
0.722342 0.00165294 0.937358
0.722453 0.0637937 0.937431
0.722418 0.125798 0.937214
0.722285 0.187791 0.937741
0.723083 0.249993 0.937829
0.535247 0.00148445 0.976041
0.535048 0.063644 0.976637
0.53529 0.125721 0.9759
0.534678 0.187861 0.976864
0.597492 0.00138693 0.976973
0.597718 0.0636262 0.975864
0.597308 0.125656 0.976794
0.597969 0.187786 0.976074
0.660341 0.00143571 0.976031
0.659959 0.0635573 0.97671
0.660229 0.125676 0.975827
0.65962 0.187798 0.97697
0.722473 0.00136746 0.976938
0.722793 0.0636575 0.975816
0.722316 0.125601 0.976723
0.723083 0.18773 0.976068
0.536103 0.0315967 0.994742
0.533793 0.0957512 0.994885
0.536439 0.155544 0.994988
0.533672 0.219579 0.995055
0.59675 0.0339053 0.994825
0.598756 0.0933269 0.994931
0.596241 0.157716 0.994999
0.598899 0.217519 0.995139
0.660956 0.0314706 0.994769
0.658917 0.0958668 0.994935
0.661289 0.155461 0.995011
0.658741 0.219662 0.995131
0.721746 0.0340619 0.994814
0.723856 0.0934773 0.994899
0.721353 0.157633 0.994986
0.724031 0.217414 0.99513
0.534632 0.0317906 0.755688
0.534653 0.0943738 0.755661
0.534556 0.15735 0.755672
0.534659 0.220024 0.755733
0.597042 0.0316103 0.755735
0.597015 0.0944969 0.755651
0.597146 0.157331 0.755678
0.596963 0.220073 0.755751
0.659564 0.0317231 0.755711
0.659609 0.0944154 0.755563
0.659701 0.157264 0.755654
0.659705 0.219736 0.755743
0.722166 0.0317401 0.755678
0.722079 0.0945017 0.755567
0.721953 0.157161 0.755582
0.72189 0.21994 0.755659
0.534604 0.0319765 0.796697
0.534713 0.0946481 0.796489
0.534826 0.157523 0.796471
0.535011 0.220209 0.796688
0.597293 0.031938 0.796741
0.597231 0.0946319 0.796512
0.597259 0.157549 0.796489
0.597593 0.220056 0.796778
0.659655 0.0319819 0.796715
0.659811 0.0946965 0.7965
0.659959 0.157296 0.796476
0.659911 0.220086 0.796738
0.722085 0.0321344 0.796635
0.722192 0.0945529 0.796444
0.722227 0.157704 0.796541
0.722413 0.219964 0.796814
0.534669 0.0322456 0.837343
0.534587 0.0947981 0.837115
0.534781 0.157437 0.837138
0.534799 0.220028 0.837585
0.597071 0.0321551 0.837258
0.597116 0.0948813 0.837089
0.597191 0.157298 0.837204
0.597381 0.220162 0.837635
0.659599 0.0321948 0.837276
0.659635 0.0946939 0.837051
0.659614 0.157534 0.837154
0.659793 0.220158 0.837691
0.722158 0.0321661 0.837251
0.722097 0.0947918 0.837079
0.722152 0.15735 0.837261
0.72236 0.22014 0.837708
0.534441 0.0325756 0.877706
0.534597 0.0948744 0.877462
0.534641 0.157209 0.877585
0.534767 0.219554 0.878085
0.597111 0.0324188 0.877687
0.596948 0.0948806 0.877422
0.597353 0.157289 0.877593
0.597307 0.21958 0.878188
0.659472 0.0324151 0.877668
0.659695 0.0950017 0.877417
0.65955 0.157211 0.877548
0.659901 0.219548 0.878148
0.722185 0.0324453 0.877709
0.721961 0.0947757 0.877463
0.722272 0.157287 0.877588
0.722296 0.219646 0.8782
0.534892 0.032501 0.91742
0.534386 0.0951226 0.917269
0.53515 0.156794 0.917389
0.534524 0.219492 0.917872
0.597046 0.0329469 0.917471
0.5975 0.094579 0.917306
0.596903 0.157253 0.917437
0.597659 0.219076 0.917897
0.659795 0.0323493 0.917367
0.659507 0.0949415 0.917262
0.660199 0.156681 0.917458
0.659552 0.219382 0.917903
0.721918 0.0327509 0.917387
0.722609 0.0945602 0.917258
0.721916 0.157212 0.917403
0.722694 0.218915 0.917944
0.534641 0.0328305 0.956348
0.535427 0.0943465 0.956308
0.534344 0.157238 0.956407
0.535696 0.218787 0.95676
0.59794 0.0320681 0.956365
0.596972 0.0951235 0.956351
0.598036 0.156321 0.956467
0.596881 0.21973 0.956793
0.659481 0.0329723 0.956341
0.660514 0.0940859 0.95628
0.659287 0.1573 0.956446
0.660617 0.218645 0.956879
0.722899 0.0319983 0.956353
0.72191 0.0951038 0.956311
0.7231 0.156337 0.956464
0.721917 0.219629 0.956859
0.503317 0.0318317 0.77616
0.503338 0.094573 0.776046
0.503457 0.15729 0.776104
0.503412 0.219895 0.77618
0.565922 0.0319366 0.776184
0.565921 0.0945289 0.776076
0.565939 0.157455 0.776126
0.565964 0.219996 0.776213
0.628394 0.0318982 0.776237
0.628392 0.0946346 0.776126
0.62837 0.157243 0.776176
0.628482 0.219889 0.776129
0.690844 0.0319432 0.776137
0.690892 0.0945157 0.775989
0.690862 0.157316 0.776094
0.690946 0.219807 0.776184
0.503418 0.032072 0.817185
0.503512 0.0947359 0.816826
0.503567 0.157632 0.816883
0.503625 0.220005 0.817056
0.565913 0.0320164 0.817072
0.565961 0.0947693 0.816891
0.566048 0.157374 0.816881
0.566116 0.220076 0.817129
0.628433 0.0319227 0.817099
0.628482 0.0947247 0.816852
0.62856 0.157626 0.816852
0.628644 0.219984 0.817224
0.690943 0.0320291 0.81704
0.690938 0.0948026 0.816828
0.69103 0.157386 0.816968
0.691103 0.219887 0.817274
0.50331 0.032311 0.857568
0.503432 0.0948781 0.857424
0.503536 0.157348 0.857427
0.503512 0.219922 0.857923
0.565867 0.032294 0.857619
0.565866 0.0946983 0.857389
0.565979 0.157391 0.857489
0.566015 0.219919 0.857873
0.62834 0.0322153 0.857573
0.628312 0.0948156 0.857362
0.628452 0.15723 0.857478
0.628546 0.219859 0.857971
0.690866 0.0323172 0.857576
0.690841 0.0946808 0.857375
0.6909 0.157301 0.857466
0.691029 0.219837 0.858003
0.50337 0.0325602 0.897956
0.503479 0.0948141 0.897564
0.50346 0.157075 0.89781
0.503572 0.219476 0.898309
0.565891 0.0325196 0.897886
0.565942 0.0948654 0.897752
0.566006 0.157213 0.897655
0.566064 0.219372 0.898378
0.628396 0.0325544 0.897947
0.628446 0.0948055 0.897567
0.628496 0.157103 0.897967
0.628582 0.21945 0.898291
0.690918 0.0325106 0.897773
0.690971 0.0947739 0.897699
0.690939 0.157134 0.897686
0.691077 0.21939 0.898404
0.503564 0.0323571 0.937113
0.503443 0.0948179 0.937393
0.503527 0.157001 0.937066
0.50361 0.218859 0.937952
0.566036 0.0327391 0.937432
0.565923 0.0945927 0.937001
0.566066 0.156922 0.93755
0.566143 0.219499 0.93752
0.628573 0.0323532 0.937136
0.628539 0.0946805 0.937379
0.628557 0.157021 0.937154
0.62865 0.218963 0.937953
0.691041 0.0325201 0.937367
0.691055 0.0946211 0.936944
0.69113 0.15685 0.937662
0.691123 0.219511 0.937582
0.503912 0.0322719 0.976424
0.503768 0.0947298 0.975663
0.503831 0.156579 0.976724
0.503753 0.220017 0.975836
0.566362 0.0324101 0.975823
0.566297 0.0944486 0.97658
0.566346 0.157285 0.97575
0.566331 0.218849 0.97701
0.62893 0.0321035 0.976437
0.628843 0.0947237 0.97571
0.628755 0.156549 0.976772
0.628751 0.219882 0.975982
0.691421 0.0323137 0.975811
0.691309 0.0943717 0.976565
0.691278 0.157226 0.97578
0.691367 0.218727 0.977071
0.659712 0.249992 0.938194
0.533247 0.25065 0.0146788
0.537913 0.313494 0.0130217
0.53213 0.376645 0.0139582
0.537227 0.43963 0.0120105
0.60042 0.250557 0.012968
0.595354 0.313489 0.0147526
0.600272 0.376583 0.0123799
0.594519 0.439638 0.0135882
0.658323 0.250679 0.0148319
0.662953 0.313528 0.0129414
0.657269 0.376717 0.0140152
0.662292 0.439569 0.0119646
0.725478 0.25057 0.0129216
0.720332 0.313439 0.0148268
0.725424 0.376585 0.0124475
0.719569 0.439649 0.0136002
0.53821 0.250943 0.0501064
0.532567 0.313684 0.052164
0.538004 0.376416 0.0497948
0.531923 0.439265 0.0512152
0.59545 0.251028 0.0524371
0.600723 0.31367 0.0498991
0.594602 0.376433 0.0517587
0.599888 0.439228 0.049206
0.663219 0.25096 0.0499646
0.657642 0.313667 0.0522068
0.662982 0.376401 0.0497408
0.65688 0.439174 0.0512734
0.720429 0.250981 0.0523637
0.725811 0.313647 0.0498766
0.719591 0.376504 0.0517691
0.725016 0.439315 0.0492429
0.532668 0.251129 0.0896842
0.538252 0.313779 0.0872727
0.532032 0.376579 0.0891216
0.537357 0.439236 0.0865311
0.600593 0.2512 0.0873345
0.594902 0.313782 0.0897243
0.60031 0.376441 0.0868637
0.594544 0.439181 0.0887468
0.657736 0.251234 0.0897209
0.663193 0.313779 0.0872446
0.657111 0.3765 0.0891704
0.662342 0.439164 0.0864821
0.725598 0.251201 0.0872833
0.719976 0.313811 0.0897346
0.725343 0.376443 0.0869655
0.719387 0.439198 0.0886843
0.537981 0.251242 0.124586
0.532161 0.313891 0.126973
0.537828 0.376458 0.124249
0.531837 0.439179 0.126122
0.595089 0.251287 0.127028
0.600479 0.313881 0.124507
0.594348 0.376522 0.126581
0.599995 0.439147 0.123734
0.662849 0.251301 0.124518
0.657182 0.313846 0.126988
0.662801 0.376441 0.124289
0.65686 0.43911 0.1261
0.720131 0.251294 0.126978
0.725596 0.313856 0.124464
0.719376 0.376514 0.12662
0.724915 0.439146 0.123817
0.532499 0.251359 0.164266
0.537976 0.313909 0.161758
0.531668 0.376539 0.163935
0.537226 0.43913 0.161121
0.600241 0.251412 0.161798
0.59458 0.313936 0.164364
0.600233 0.376508 0.161536
0.594156 0.439114 0.163519
0.657324 0.251318 0.164202
0.662863 0.313917 0.161815
0.656693 0.376569 0.163893
0.662252 0.439123 0.161135
0.725334 0.251359 0.161784
0.719588 0.313875 0.164348
0.725166 0.376481 0.161514
0.719187 0.439209 0.163533
0.53774 0.251471 0.199125
0.532089 0.313977 0.201595
0.537644 0.376524 0.198901
0.531614 0.439187 0.200848
0.594783 0.25148 0.201515
0.600407 0.313967 0.199014
0.594167 0.376632 0.201243
0.599679 0.439216 0.198449
0.662662 0.251383 0.19919
0.657085 0.313947 0.20158
0.662594 0.37657 0.198866
0.656643 0.439194 0.200838
0.71982 0.251444 0.201513
0.725301 0.313941 0.199004
0.719198 0.376597 0.201228
0.724654 0.439244 0.198419
0.532024 0.25143 0.238743
0.537793 0.314031 0.236295
0.53167 0.376636 0.238519
0.537165 0.439233 0.235767
0.600169 0.251483 0.236358
0.594552 0.314041 0.238967
0.599916 0.37661 0.236096
0.593976 0.439218 0.238202
0.657156 0.251529 0.238745
0.662753 0.314084 0.236268
0.656648 0.376663 0.238482
0.66203 0.439214 0.235679
0.725062 0.251525 0.236317
0.719438 0.314098 0.23895
0.725006 0.376629 0.236122
0.718948 0.439124 0.238148
0.533348 0.283684 0.0324836
0.534827 0.343483 0.0324559
0.536683 0.409292 0.0314385
0.532531 0.469193 0.0314351
0.599406 0.280099 0.0325256
0.597451 0.346877 0.0324038
0.595406 0.406204 0.0314642
0.599284 0.472261 0.0313723
0.658368 0.283818 0.032466
0.659947 0.343402 0.0324629
0.661677 0.409435 0.0314918
0.657607 0.46905 0.0314205
0.724454 0.280023 0.032469
0.722514 0.34688 0.0324638
0.720409 0.40631 0.0314609
0.724346 0.472295 0.031395
0.536852 0.280364 0.0698049
0.535115 0.34685 0.06982
0.532607 0.405987 0.0688255
0.537007 0.472157 0.068785
0.595905 0.284446 0.0697916
0.596959 0.343002 0.0698209
0.599205 0.409649 0.0688028
0.594915 0.46856 0.068768
0.661868 0.280298 0.0697972
0.660126 0.346987 0.0698442
0.657774 0.405901 0.068809
0.662052 0.47211 0.0688025
0.720891 0.284359 0.0698145
0.722049 0.34298 0.0698214
0.724336 0.409613 0.0688056
0.719918 0.46859 0.0687954
0.533245 0.284455 0.107113
0.534146 0.343106 0.107178
0.536725 0.409743 0.106151
0.532498 0.468452 0.106189
0.599111 0.280411 0.107101
0.597594 0.347195 0.107135
0.595172 0.405683 0.106151
0.599464 0.472257 0.106138
0.658268 0.28454 0.107094
0.659246 0.3431 0.107143
0.661829 0.409684 0.106178
0.657433 0.468412 0.106196
0.724235 0.280403 0.107067
0.72268 0.347199 0.107119
0.720098 0.405852 0.106177
0.724438 0.472216 0.106126
0.536506 0.280513 0.144374
0.53516 0.347204 0.144413
0.532548 0.40573 0.14351
0.536854 0.472234 0.14354
0.595617 0.284645 0.144389
0.596519 0.34308 0.144463
0.599196 0.409673 0.143501
0.595045 0.468128 0.143524
0.661454 0.280389 0.144318
0.660077 0.347201 0.144424
0.657569 0.405771 0.143521
0.661864 0.472184 0.143567
0.720533 0.284656 0.144347
0.721431 0.342976 0.144427
0.724199 0.409759 0.143498
0.720059 0.468201 0.143501
0.53295 0.284743 0.181644
0.5338 0.343046 0.181727
0.536621 0.409813 0.180879
0.532563 0.468263 0.180906
0.599095 0.28038 0.181648
0.597706 0.347336 0.181716
0.594912 0.405743 0.180835
0.599121 0.472327 0.180867
0.658026 0.284569 0.181658
0.658869 0.343094 0.181696
0.661533 0.409786 0.180875
0.657458 0.468084 0.180873
0.723867 0.280439 0.181621
0.722677 0.347376 0.181719
0.719878 0.405752 0.180845
0.724199 0.47242 0.180828
0.536301 0.280631 0.218957
0.535517 0.347346 0.21899
0.532352 0.405778 0.218198
0.536753 0.472415 0.218252
0.595434 0.284794 0.218955
0.596077 0.343028 0.219042
0.599158 0.409953 0.218203
0.595015 0.468227 0.218209
0.661443 0.280533 0.218916
0.660406 0.347275 0.218959
0.657097 0.405705 0.218174
0.661547 0.472368 0.218195
0.72041 0.284799 0.218938
0.721183 0.343028 0.219011
0.724131 0.409921 0.21817
0.719984 0.468204 0.218194
0.503938 0.284957 0.0128931
0.50377 0.342695 0.0140137
0.503582 0.411093 0.0136675
0.503518 0.468859 0.0113539
0.566507 0.280178 0.0150401
0.566255 0.348101 0.013939
0.56609 0.405591 0.0115873
0.565904 0.473791 0.013741
0.628949 0.285011 0.0129373
0.628819 0.342763 0.0140477
0.628591 0.41103 0.0136985
0.628496 0.468768 0.0113484
0.691549 0.280201 0.0149942
0.691299 0.348043 0.0139357
0.691134 0.405552 0.0116367
0.690921 0.473731 0.0137517
0.504005 0.280026 0.0523211
0.503775 0.348283 0.0513881
0.503596 0.404998 0.0488332
0.503463 0.473613 0.051356
0.566463 0.285414 0.0501687
0.56629 0.342362 0.0511516
0.566016 0.410848 0.0512077
0.565967 0.468236 0.0486971
0.628998 0.28005 0.052289
0.628774 0.348116 0.0513525
0.628531 0.405028 0.048899
0.628451 0.473465 0.0513336
0.691578 0.285458 0.0501578
0.691306 0.342288 0.0512182
0.691054 0.410936 0.0512248
0.690953 0.46824 0.0487082
0.503942 0.285583 0.0874192
0.503711 0.342431 0.0884067
0.503449 0.410923 0.088578
0.503458 0.468072 0.0861004
0.566397 0.279996 0.0895276
0.566173 0.348287 0.088781
0.566005 0.405115 0.0861343
0.565949 0.473423 0.0887102
0.62895 0.285647 0.0874051
0.628647 0.342494 0.0884483
0.62857 0.410742 0.0885847
0.628458 0.468051 0.0860662
0.691403 0.280139 0.0895357
0.691183 0.348191 0.0888345
0.691 0.405179 0.0861574
0.690873 0.473511 0.0887768
0.503698 0.280029 0.126828
0.503478 0.348393 0.126271
0.503436 0.405167 0.123492
0.503441 0.473381 0.126127
0.566106 0.285657 0.124788
0.565976 0.342319 0.125605
0.565942 0.410947 0.125928
0.565992 0.468044 0.123515
0.62863 0.279996 0.126791
0.628449 0.348367 0.12622
0.628467 0.405097 0.123491
0.628513 0.473464 0.126143
0.691232 0.285598 0.124697
0.691008 0.342369 0.125584
0.690958 0.410854 0.125938
0.690967 0.468063 0.123429
0.503591 0.285731 0.162011
0.503382 0.342373 0.162772
0.503341 0.410913 0.163278
0.503391 0.468059 0.16085
0.56609 0.280099 0.164089
0.565857 0.34838 0.163532
0.565758 0.40493 0.160839
0.565858 0.473457 0.163386
0.628569 0.2858 0.161998
0.62843 0.342262 0.162837
0.628291 0.410956 0.163264
0.628259 0.468054 0.160872
0.690992 0.280123 0.164009
0.690862 0.348439 0.163517
0.690736 0.405109 0.160864
0.690835 0.473426 0.163414
0.503526 0.280145 0.201329
0.503376 0.348474 0.200939
0.50329 0.405021 0.198173
0.503309 0.473491 0.200766
0.566044 0.285779 0.199258
0.565882 0.342372 0.19995
0.565785 0.411093 0.200681
0.565835 0.468061 0.19829
0.628492 0.280189 0.20141
0.628344 0.348412 0.200882
0.628193 0.405195 0.198044
0.628295 0.473536 0.200705
0.691009 0.285743 0.199275
0.690845 0.342425 0.199958
0.690698 0.410917 0.200689
0.690777 0.468089 0.198196
0.503344 0.285931 0.236586
0.503405 0.342465 0.237143
0.50319 0.410974 0.237969
0.503248 0.467983 0.235551
0.565847 0.280268 0.238591
0.565777 0.348325 0.238344
0.565698 0.40524 0.235464
0.565709 0.473548 0.238118
0.628376 0.285841 0.23656
0.628364 0.342593 0.237137
0.62816 0.411018 0.238057
0.628207 0.468056 0.235681
0.690867 0.280243 0.238592
0.690786 0.348537 0.238242
0.690643 0.405249 0.235345
0.690688 0.473461 0.238017
0.537556 0.251475 0.273524
0.532006 0.313944 0.27623
0.537368 0.376502 0.273416
0.531545 0.439143 0.275467
0.594585 0.251442 0.276097
0.600254 0.313965 0.273507
0.594071 0.376551 0.275869
0.599462 0.439024 0.27304
0.662616 0.251511 0.27365
0.656948 0.313895 0.27628
0.662348 0.37645 0.273388
0.656568 0.439009 0.275481
0.719597 0.251496 0.27612
0.725232 0.313953 0.273569
0.719178 0.376556 0.275838
0.724469 0.439058 0.273018
0.531915 0.25138 0.313494
0.537629 0.313796 0.310849
0.53178 0.376343 0.313178
0.536722 0.438902 0.310323
0.599968 0.251448 0.310846
0.594325 0.313763 0.313619
0.599674 0.376336 0.310678
0.594019 0.438925 0.31273
0.657006 0.251378 0.313395
0.662598 0.313867 0.310909
0.656732 0.376375 0.313201
0.66179 0.4389 0.310321
0.725056 0.251425 0.310916
0.719485 0.313833 0.313589
0.724664 0.376381 0.31074
0.719148 0.438908 0.31275
0.537407 0.251493 0.348216
0.531848 0.313771 0.350968
0.537043 0.376291 0.348067
0.531378 0.438915 0.350005
0.594317 0.251462 0.350869
0.599865 0.313775 0.348246
0.593971 0.376334 0.350452
0.599197 0.438902 0.347759
0.662505 0.251477 0.348236
0.656709 0.313832 0.350872
0.662089 0.376353 0.348114
0.656323 0.438904 0.350052
0.719462 0.251426 0.350854
0.724885 0.313837 0.348288
0.719063 0.37638 0.35042
0.724278 0.438883 0.347675
0.531611 0.251525 0.388226
0.537256 0.313929 0.385699
0.531325 0.376449 0.387752
0.536745 0.438856 0.384927
0.599927 0.25156 0.385672
0.594116 0.313929 0.388315
0.599532 0.376321 0.385434
0.593663 0.438832 0.387293
0.656684 0.251584 0.388173
0.662383 0.31393 0.385678
0.656376 0.376453 0.38776
0.661822 0.438929 0.385027
0.724863 0.25156 0.38561
0.719131 0.313931 0.388221
0.724626 0.376426 0.385474
0.718569 0.438888 0.387288
0.537166 0.251628 0.423107
0.531604 0.313971 0.425615
0.536905 0.37633 0.422862
0.531151 0.438761 0.424658
0.59411 0.251661 0.425554
0.599787 0.313983 0.423187
0.593864 0.376325 0.42515
0.599086 0.438741 0.42231
0.662395 0.251662 0.423033
0.656648 0.313944 0.425641
0.661878 0.376305 0.422805
0.656132 0.438777 0.424687
0.719112 0.251659 0.425581
0.724856 0.313991 0.423215
0.718985 0.376341 0.425122
0.724136 0.438788 0.422408
0.531631 0.25184 0.463023
0.537328 0.314019 0.460707
0.5313 0.376325 0.462542
0.53662 0.438683 0.459783
0.599722 0.251746 0.460529
0.594093 0.314012 0.46299
0.599301 0.37625 0.460356
0.593582 0.43867 0.462028
0.656655 0.251748 0.463036
0.662417 0.314027 0.460704
0.656336 0.37637 0.462646
0.661456 0.438703 0.459755
0.724834 0.251774 0.46055
0.719224 0.313972 0.463085
0.724363 0.376299 0.460441
0.718515 0.438659 0.461921
0.537085 0.251696 0.498031
0.536978 0.376112 0.497972
0.599137 0.438585 0.497448
0.662226 0.251681 0.498048
0.661917 0.376168 0.498015
0.724146 0.438571 0.497559
0.532909 0.284888 0.256185
0.53334 0.342948 0.256339
0.536519 0.409859 0.255485
0.532397 0.468211 0.25556
0.598587 0.280357 0.256187
0.597972 0.347479 0.256259
0.594718 0.405658 0.255488
0.599049 0.472229 0.255553
0.658025 0.284935 0.256182
0.658444 0.342905 0.256333
0.661595 0.409759 0.25548
0.657539 0.468043 0.255536
0.723665 0.280374 0.256169
0.722822 0.347462 0.256304
0.719601 0.405707 0.255495
0.723977 0.472208 0.255489
0.535709 0.28028 0.293481
0.535359 0.347208 0.293615
0.532247 0.405569 0.29281
0.536535 0.472186 0.29285
0.595571 0.284836 0.293451
0.595843 0.34274 0.293645
0.598973 0.409655 0.292782
0.594873 0.467989 0.292857
0.660821 0.280376 0.293512
0.660346 0.347297 0.29364
0.657277 0.405447 0.292796
0.661499 0.472225 0.292845
0.720442 0.284902 0.293513
0.720828 0.342769 0.293676
0.723898 0.409701 0.292768
0.719957 0.468113 0.292826
0.533178 0.284888 0.330794
0.533058 0.342682 0.330997
0.536496 0.40948 0.330061
0.532278 0.467934 0.330112
0.597739 0.28021 0.330809
0.598022 0.347198 0.330966
0.594551 0.405516 0.330115
0.599045 0.471875 0.33015
0.658233 0.284819 0.330836
0.658144 0.342777 0.331008
0.661536 0.409504 0.3301
0.657152 0.467845 0.330128
0.72283 0.280278 0.330818
0.722946 0.347174 0.330942
0.719548 0.405441 0.330082
0.724081 0.471973 0.330148
0.534987 0.280299 0.368186
0.53559 0.347125 0.368327
0.531961 0.405567 0.367418
0.536427 0.471937 0.367444
0.59588 0.284907 0.368171
0.595296 0.342764 0.368332
0.599042 0.409451 0.367446
0.594703 0.467952 0.367483
0.659944 0.28043 0.36819
0.660558 0.347109 0.368301
0.65704 0.405714 0.367469
0.661408 0.471942 0.367454
0.720888 0.284901 0.368155
0.720334 0.342983 0.36836
0.724161 0.409492 0.367413
0.719784 0.468037 0.367472
0.533408 0.284866 0.405539
0.532463 0.342926 0.405729
0.536631 0.409534 0.40479
0.532252 0.467857 0.404801
0.597009 0.280594 0.405568
0.598313 0.34705 0.405736
0.594313 0.40548 0.404785
0.598745 0.471779 0.404754
0.658584 0.284996 0.405559
0.657457 0.342955 0.405711
0.661619 0.409457 0.404809
0.657245 0.467862 0.404827
0.721972 0.280588 0.405548
0.723287 0.347094 0.405737
0.719379 0.405624 0.404815
0.723798 0.471702 0.404802
0.534058 0.28081 0.443031
0.536055 0.346973 0.443168
0.531637 0.40561 0.442131
0.536193 0.471583 0.44214
0.59633 0.284955 0.442946
0.594715 0.343075 0.44319
0.599133 0.409284 0.442206
0.594578 0.467726 0.442086
0.658932 0.280747 0.443022
0.661173 0.347107 0.443184
0.656734 0.405543 0.44216
0.661194 0.471692 0.442146
0.721521 0.284983 0.442993
0.719756 0.343005 0.443213
0.724108 0.409223 0.442195
0.71965 0.467885 0.442147
0.534579 0.284829 0.480518
0.53196 0.343118 0.480754
0.536383 0.409157 0.47963
0.532327 0.46761 0.479609
0.595969 0.280823 0.480538
0.599001 0.346629 0.480761
0.594386 0.405575 0.479673
0.598559 0.471374 0.479552
0.659594 0.284877 0.480451
0.65705 0.343141 0.480771
0.661492 0.409281 0.4797
0.657282 0.467649 0.479598
0.720991 0.280776 0.480525
0.723994 0.346716 0.480773
0.719451 0.405646 0.479693
0.723601 0.471255 0.479604
0.50335 0.280105 0.27576
0.503218 0.348177 0.275673
0.503173 0.405169 0.272767
0.503153 0.473442 0.275376
0.565806 0.285858 0.274032
0.565823 0.342409 0.274413
0.565629 0.410794 0.275283
0.565656 0.467927 0.272943
0.628254 0.280166 0.275788
0.628229 0.348356 0.275614
0.628139 0.405118 0.272765
0.628188 0.473222 0.275402
0.690838 0.285849 0.27392
0.690735 0.342443 0.27448
0.690626 0.410833 0.275282
0.690705 0.467969 0.272974
0.50316 0.285773 0.311405
0.503171 0.342387 0.311706
0.502987 0.410449 0.312626
0.503086 0.467978 0.310176
0.565608 0.279967 0.312839
0.565669 0.348075 0.313016
0.56559 0.405128 0.310083
0.565576 0.47306 0.312695
0.628199 0.28569 0.311422
0.6282 0.342348 0.311782
0.628026 0.41051 0.312594
0.628104 0.467934 0.310154
0.69068 0.280102 0.312973
0.690664 0.348115 0.313009
0.690561 0.405129 0.310033
0.690615 0.472952 0.312701
0.503074 0.280122 0.350091
0.503043 0.348068 0.350445
0.502995 0.405075 0.347295
0.503062 0.473092 0.350008
0.565568 0.285717 0.34889
0.565591 0.342383 0.348992
0.565467 0.410523 0.350015
0.565579 0.467868 0.347482
0.62804 0.279973 0.350042
0.628061 0.348197 0.350449
0.627984 0.404966 0.34735
0.627978 0.473113 0.350072
0.690614 0.285753 0.348939
0.690598 0.342351 0.349025
0.690541 0.410649 0.349977
0.690512 0.467781 0.347494
0.502899 0.285847 0.386404
0.502932 0.34248 0.38619
0.50286 0.410677 0.387367
0.502939 0.467708 0.384836
0.565456 0.280114 0.387282
0.565474 0.348215 0.38794
0.565432 0.404889 0.384635
0.565414 0.473123 0.387331
0.627946 0.285903 0.386425
0.628005 0.342417 0.38621
0.627946 0.410769 0.387397
0.62796 0.467701 0.384857
0.69045 0.280111 0.38727
0.69051 0.348213 0.387987
0.690463 0.404964 0.384629
0.690448 0.473275 0.38737
0.502821 0.280138 0.42453
0.502876 0.348075 0.425526
0.502809 0.405032 0.421924
0.502929 0.472872 0.424621
0.56535 0.285919 0.423993
0.565402 0.342463 0.423433
0.565366 0.410533 0.424861
0.565385 0.467673 0.422177
0.627868 0.280159 0.424465
0.627953 0.348105 0.42556
0.627821 0.405061 0.421947
0.627866 0.472902 0.424635
0.6904 0.286016 0.424147
0.690476 0.342522 0.423474
0.690347 0.410584 0.424848
0.690344 0.467675 0.422241
0.502782 0.285914 0.461808
0.502946 0.342342 0.460678
0.502809 0.410571 0.462268
0.502809 0.46737 0.459714
0.565427 0.2802 0.461647
0.565471 0.34794 0.463227
0.565257 0.404967 0.459412
0.565307 0.47281 0.462005
0.627859 0.285921 0.461851
0.627993 0.34246 0.460718
0.627739 0.410453 0.462287
0.627823 0.467434 0.459646
0.690411 0.280151 0.461559
0.690534 0.34812 0.463236
0.690256 0.404964 0.459478
0.690324 0.472797 0.46204
0.502879 0.404609 0.497133
0.56537 0.467235 0.497275
0.627902 0.404845 0.497131
0.690362 0.46725 0.497347
0.565351 0.41025 0.49962
0.502869 0.47275 0.499413
0.656108 0.438565 0.499645
0.502957 0.280247 0.498771
0.690574 0.342406 0.498249
0.690377 0.41033 0.499606
0.531036 0.438518 0.499683
0.628027 0.280151 0.498767
0.627885 0.472762 0.499357
0.56555 0.342358 0.498242
0.724824 0.31384 0.49828
0.59977 0.313846 0.498342
0.690489 0.285624 0.499858
0.5655 0.285459 0.499837
0.719062 0.376238 0.499909
0.594102 0.376207 0.499941
0.531901 0.313863 0.50052
0.594402 0.251636 0.500529
0.65697 0.313804 0.500506
0.719418 0.251691 0.500522
0.532376 0.250789 0.538072
0.537126 0.312907 0.536178
0.531687 0.375534 0.537578
0.536187 0.438269 0.534767
0.59943 0.250752 0.535961
0.594523 0.312906 0.537985
0.599412 0.375448 0.535853
0.594232 0.438327 0.536763
0.657405 0.250794 0.53809
0.662103 0.312865 0.536093
0.656708 0.375495 0.537518
0.661173 0.438287 0.534901
0.724409 0.25073 0.535934
0.71959 0.312958 0.53804
0.724334 0.375478 0.535893
0.719058 0.438213 0.536727
0.531731 0.312142 0.57533
0.535927 0.375282 0.572613
0.533571 0.438468 0.573592
0.600217 0.312036 0.573976
0.594778 0.375258 0.573931
0.597354 0.438374 0.572458
0.656469 0.312191 0.575302
0.661026 0.375294 0.572613
0.658522 0.438421 0.573575
0.7254 0.312078 0.573962
0.719688 0.375294 0.574029
0.722419 0.438283 0.572459
0.534933 0.31185 0.61343
0.533952 0.375331 0.612272
0.534434 0.438694 0.611294
0.596358 0.31191 0.613872
0.59701 0.375251 0.611613
0.596809 0.438754 0.611713
0.659807 0.311824 0.61348
0.658728 0.375266 0.612278
0.659253 0.43884 0.611236
0.721244 0.311894 0.613943
0.722037 0.375194 0.611568
0.721803 0.438917 0.611561
0.534339 0.311933 0.65327
0.534599 0.375326 0.650196
0.534713 0.438499 0.650651
0.596817 0.311922 0.653136
0.596824 0.375377 0.650618
0.596914 0.438463 0.650511
0.659312 0.31192 0.653177
0.659131 0.375452 0.650108
0.659479 0.438592 0.650569
0.721761 0.311792 0.652813
0.721765 0.375615 0.650487
0.721959 0.438655 0.650453
0.534438 0.25093 0.694333
0.534486 0.313301 0.693786
0.534016 0.375308 0.692335
0.534624 0.438576 0.690539
0.596671 0.250829 0.69436
0.596557 0.313334 0.693827
0.597164 0.375257 0.692203
0.596923 0.438552 0.690618
0.659159 0.250783 0.694437
0.659024 0.313132 0.693742
0.658019 0.375572 0.691303
0.659586 0.438201 0.69084
0.721636 0.25072 0.694261
0.721567 0.312942 0.693752
0.722198 0.375657 0.68987
0.721837 0.437988 0.690854
0.534461 0.251217 0.735093
0.534583 0.313708 0.735077
0.534613 0.37577 0.735338
0.534297 0.438582 0.731873
0.596941 0.251177 0.735053
0.596934 0.31372 0.735303
0.597047 0.375744 0.735582
0.597058 0.438551 0.732018
0.659348 0.251007 0.735198
0.658971 0.313357 0.735359
0.660264 0.375952 0.733174
0.659796 0.438214 0.73172
0.721764 0.251008 0.735146
0.722284 0.313287 0.735342
0.722848 0.375923 0.7326
0.722195 0.438268 0.73201
0.532915 0.28055 0.518191
0.536411 0.346199 0.518337
0.532371 0.405353 0.517231
0.5359 0.47155 0.517058
0.597875 0.284167 0.518121
0.594668 0.342962 0.518333
0.598538 0.408702 0.517216
0.59522 0.46789 0.517106
0.657887 0.280522 0.518136
0.661424 0.346138 0.518333
0.657555 0.405389 0.51725
0.660887 0.471576 0.51706
0.722824 0.284206 0.518147
0.719698 0.342921 0.518325
0.723481 0.408691 0.517268
0.720309 0.467943 0.51714
0.535669 0.282748 0.556055
0.532748 0.342426 0.555885
0.535521 0.408787 0.554639
0.533233 0.468405 0.554682
0.59541 0.279937 0.556082
0.598397 0.344804 0.555853
0.595726 0.40595 0.554792
0.597902 0.471116 0.554643
0.660631 0.28285 0.556025
0.657768 0.342455 0.555871
0.660439 0.408664 0.554714
0.658188 0.468529 0.55468
0.720342 0.279944 0.556109
0.723474 0.345055 0.555868
0.720731 0.405934 0.554888
0.722806 0.470907 0.554687
0.533222 0.279524 0.594213
0.535224 0.343439 0.593744
0.533792 0.405446 0.592596
0.534886 0.470268 0.592825
0.598075 0.280933 0.594129
0.595938 0.342127 0.593686
0.597201 0.40655 0.592611
0.596251 0.469172 0.592789
0.658355 0.279549 0.594168
0.660148 0.343437 0.593727
0.658662 0.405347 0.592651
0.65995 0.470324 0.592755
0.723055 0.281044 0.594131
0.720883 0.342106 0.593675
0.722321 0.406504 0.592607
0.721284 0.469422 0.59274
0.534825 0.280814 0.633066
0.534047 0.342496 0.632454
0.534954 0.406584 0.630896
0.534448 0.469439 0.631543
0.596386 0.280322 0.633112
0.597176 0.343125 0.632509
0.596423 0.406003 0.630904
0.597222 0.469897 0.631572
0.659694 0.280616 0.633075
0.658828 0.342646 0.632352
0.659613 0.4067 0.630703
0.659295 0.469729 0.63149
0.721262 0.280056 0.633013
0.722083 0.343221 0.632409
0.721609 0.406236 0.630615
0.722285 0.469962 0.631493
0.534242 0.281052 0.673648
0.53448 0.344178 0.672563
0.534266 0.405221 0.670045
0.534801 0.469903 0.670987
0.596867 0.281145 0.67367
0.596726 0.34397 0.672602
0.597415 0.405642 0.670036
0.596712 0.469452 0.670979
0.659193 0.280751 0.673685
0.659009 0.343881 0.672704
0.659371 0.4054 0.669829
0.659547 0.469671 0.671149
0.721764 0.281015 0.673535
0.721656 0.34315 0.67233
0.721694 0.406248 0.6699
0.721798 0.469517 0.671135
0.534438 0.282497 0.714648
0.534564 0.346465 0.714716
0.53511 0.407102 0.710577
0.534394 0.469425 0.711516
0.596721 0.282481 0.71474
0.596914 0.346433 0.714921
0.596733 0.406897 0.710556
0.597061 0.46945 0.711529
0.658964 0.282452 0.714718
0.657994 0.344689 0.714587
0.660276 0.406089 0.710928
0.659475 0.469193 0.711548
0.721479 0.282243 0.714673
0.722294 0.344002 0.714506
0.722445 0.404741 0.710504
0.722196 0.469279 0.711562
0.503018 0.347827 0.500922
0.628104 0.347866 0.500917
0.503005 0.284028 0.537981
0.503108 0.341493 0.535999
0.502894 0.408984 0.536683
0.50288 0.467304 0.53498
0.565639 0.279157 0.536274
0.565646 0.346694 0.538369
0.565494 0.404284 0.534984
0.565358 0.471514 0.536541
0.628096 0.284072 0.537916
0.628144 0.341441 0.536028
0.627954 0.408993 0.536667
0.627909 0.4673 0.535024
0.690653 0.279227 0.536287
0.690616 0.346588 0.538391
0.690467 0.404166 0.535043
0.690336 0.471533 0.536527
0.50322 0.276735 0.57398
0.503025 0.345004 0.575323
0.503046 0.405214 0.572701
0.503076 0.469568 0.573587
0.565624 0.28342 0.575792
0.56559 0.340156 0.573785
0.565474 0.407293 0.573621
0.565542 0.469089 0.572771
0.628249 0.276686 0.574012
0.62805 0.345045 0.575305
0.628003 0.405126 0.572816
0.628064 0.469535 0.573595
0.690596 0.283659 0.575773
0.690604 0.340022 0.573717
0.690484 0.407364 0.573766
0.69047 0.469041 0.57274
0.502974 0.280516 0.614119
0.503037 0.341902 0.612648
0.503233 0.40633 0.611635
0.5033 0.469637 0.611632
0.565568 0.279359 0.613297
0.56556 0.342737 0.613295
0.565583 0.406077 0.611185
0.565759 0.469404 0.612004
0.62804 0.280418 0.614146
0.62792 0.341835 0.612583
0.627978 0.40626 0.611653
0.628141 0.469824 0.611572
0.690586 0.279284 0.613273
0.690491 0.342815 0.61333
0.69055 0.406014 0.611237
0.690738 0.469483 0.61194
0.503005 0.280581 0.653141
0.503164 0.342482 0.652148
0.503226 0.406471 0.649943
0.503378 0.46962 0.650974
0.565554 0.280768 0.653522
0.565675 0.342322 0.652051
0.565771 0.405968 0.650642
0.565792 0.469755 0.650835
0.628073 0.280683 0.653317
0.628184 0.342441 0.65227
0.628272 0.40666 0.649783
0.628246 0.46963 0.651034
0.690494 0.28056 0.653419
0.690564 0.342462 0.651925
0.690747 0.406653 0.64984
0.690735 0.469796 0.650935
0.50309 0.281817 0.694023
0.503275 0.344213 0.69347
0.503261 0.40646 0.69045
0.503294 0.469579 0.691096
0.565555 0.28192 0.694176
0.565575 0.344578 0.693603
0.565775 0.405801 0.690141
0.565717 0.469603 0.691134
0.627925 0.281985 0.694171
0.627778 0.344079 0.693639
0.628289 0.406632 0.690423
0.628211 0.469462 0.691131
0.690393 0.281779 0.694119
0.690516 0.343821 0.692622
0.69065 0.406196 0.690007
0.690778 0.469457 0.691242
0.50327 0.282258 0.73514
0.503264 0.344862 0.735335
0.503201 0.407477 0.732947
0.503221 0.469538 0.732016
0.565625 0.282372 0.735277
0.565683 0.344924 0.735595
0.56579 0.407569 0.732679
0.565697 0.469654 0.732201
0.627996 0.282211 0.735261
0.628069 0.345139 0.735713
0.6281 0.40752 0.732907
0.628168 0.469426 0.731998
0.690564 0.282427 0.735253
0.690548 0.343844 0.733926
0.691084 0.406776 0.7313
0.690744 0.469474 0.732011
0.534731 0.251145 0.77628
0.534961 0.31348 0.776528
0.535655 0.375725 0.775776
0.534194 0.438685 0.773439
0.59737 0.251183 0.776268
0.597632 0.31364 0.776467
0.597379 0.375823 0.776608
0.597345 0.438868 0.773385
0.659865 0.251082 0.776117
0.659727 0.31357 0.776535
0.661087 0.375925 0.775481
0.659924 0.438689 0.773333
0.722102 0.251092 0.776243
0.722435 0.313615 0.776484
0.721759 0.375588 0.776082
0.721749 0.438736 0.773058
0.534948 0.251179 0.817347
0.534459 0.313475 0.817985
0.532439 0.375804 0.816062
0.534369 0.438506 0.81468
0.597433 0.251237 0.817388
0.597722 0.313675 0.81799
0.598268 0.375614 0.817267
0.596863 0.438604 0.814691
0.659954 0.25113 0.817331
0.6601 0.313616 0.817853
0.660012 0.375688 0.818198
0.659683 0.43879 0.814715
0.722289 0.251171 0.817333
0.722196 0.313684 0.81821
0.72224 0.375658 0.818515
0.722217 0.438777 0.814807
0.534683 0.251043 0.858211
0.534639 0.313482 0.859176
0.535314 0.37621 0.859204
0.535005 0.438778 0.856159
0.597287 0.250998 0.858255
0.597238 0.313453 0.859163
0.595957 0.376187 0.858849
0.59673 0.438771 0.856256
0.659709 0.250994 0.858309
0.659736 0.31363 0.85932
0.659639 0.375896 0.860298
0.659455 0.438905 0.856301
0.722327 0.251006 0.858373
0.722197 0.313561 0.859352
0.722131 0.375977 0.860212
0.722035 0.438966 0.856504
0.534753 0.313119 0.899695
0.534772 0.376253 0.899951
0.534561 0.440078 0.897234
0.597259 0.313111 0.899562
0.597105 0.37633 0.900201
0.597099 0.440011 0.897081
0.65978 0.313023 0.899778
0.659466 0.37622 0.899732
0.659396 0.440032 0.897277
0.722352 0.312971 0.89971
0.722121 0.37617 0.900093
0.722196 0.440003 0.897157
0.535721 0.31277 0.938653
0.534149 0.376747 0.938486
0.535385 0.440228 0.936195
0.596831 0.312697 0.938864
0.598382 0.376517 0.938113
0.596606 0.440245 0.936704
0.660752 0.312681 0.938609
0.65905 0.376572 0.93866
0.660372 0.440132 0.936287
0.721987 0.312577 0.939029
0.72342 0.376558 0.938098
0.721605 0.440162 0.936626
0.722351 0.250382 0.898785
0.533805 0.313396 0.977322
0.537372 0.376708 0.976197
0.531286 0.440276 0.975938
0.597239 0.250473 0.898758
0.598751 0.313243 0.976523
0.595384 0.376785 0.977252
0.600263 0.440176 0.974868
0.659911 0.250436 0.898691
0.658824 0.313317 0.977511
0.66234 0.376679 0.976112
0.656545 0.440159 0.975974
0.596907 0.250268 0.977351
0.723786 0.313226 0.97644
0.720251 0.376779 0.977276
0.725463 0.440151 0.974983
0.536627 0.280594 0.995131
0.534641 0.345845 0.9951
0.533454 0.40737 0.994106
0.536448 0.472268 0.993751
0.595949 0.282702 0.995125
0.597532 0.343424 0.995201
0.598759 0.40959 0.994052
0.595599 0.469902 0.993797
0.661525 0.280417 0.995143
0.659615 0.346038 0.995076
0.658428 0.407388 0.994082
0.661328 0.472204 0.993795
0.721052 0.282922 0.99511
0.722655 0.343364 0.995183
0.723829 0.409539 0.994101
0.720656 0.470027 0.993824
0.534637 0.282512 0.755899
0.534558 0.345528 0.756097
0.534775 0.40815 0.752895
0.534389 0.469564 0.752614
0.597088 0.28233 0.755965
0.597361 0.345951 0.756287
0.596874 0.407829 0.753068
0.597389 0.469553 0.752632
0.659621 0.282822 0.755911
0.659187 0.345319 0.755994
0.660478 0.406488 0.752371
0.659508 0.469315 0.752406
0.722307 0.282453 0.7559
0.722974 0.345925 0.755809
0.721176 0.40602 0.752433
0.721641 0.469846 0.752468
0.535212 0.282716 0.797216
0.534735 0.344588 0.797164
0.532934 0.406766 0.79389
0.534379 0.469991 0.793875
0.597628 0.282881 0.797234
0.598259 0.34553 0.797334
0.597565 0.408133 0.794123
0.596948 0.469915 0.793919
0.66005 0.282594 0.797178
0.660274 0.346118 0.797528
0.660261 0.407548 0.79404
0.659437 0.470101 0.793934
0.722171 0.282963 0.797281
0.722285 0.346045 0.797951
0.721663 0.407982 0.793698
0.722047 0.469882 0.793843
0.534818 0.282667 0.838259
0.534063 0.345792 0.839161
0.535377 0.406404 0.83514
0.534592 0.46991 0.834962
0.597467 0.28263 0.838348
0.598102 0.345285 0.839166
0.595694 0.406865 0.83539
0.596818 0.469849 0.835099
0.660048 0.282532 0.83845
0.659855 0.346191 0.839482
0.659729 0.408336 0.83567
0.659179 0.469775 0.835197
0.722306 0.282645 0.838466
0.722345 0.346097 0.839634
0.722242 0.408373 0.835875
0.722073 0.470057 0.835267
0.534848 0.282435 0.878889
0.53501 0.345707 0.880203
0.535156 0.408656 0.877613
0.534619 0.4706 0.876337
0.597331 0.282145 0.878962
0.59703 0.346062 0.880296
0.596597 0.408308 0.877383
0.596937 0.470792 0.876326
0.65961 0.282389 0.879003
0.659585 0.345448 0.880359
0.659739 0.408952 0.87763
0.659305 0.470702 0.876407
0.722472 0.281942 0.879069
0.722239 0.345544 0.880302
0.721951 0.408694 0.877762
0.722095 0.470769 0.876549
0.535387 0.281727 0.918648
0.534724 0.345423 0.919582
0.534246 0.409105 0.917721
0.535151 0.471988 0.917017
0.596894 0.281922 0.918634
0.597499 0.345102 0.919574
0.597805 0.4093 0.917913
0.596688 0.471429 0.917093
0.660292 0.281617 0.91867
0.659695 0.34559 0.919556
0.659101 0.408781 0.917819
0.659961 0.472118 0.917071
0.72188 0.281865 0.918689
0.722598 0.34502 0.919691
0.722707 0.409266 0.917747
0.721592 0.471433 0.917123
0.534137 0.282192 0.957341
0.535154 0.345424 0.957452
0.535905 0.409968 0.956389
0.533436 0.471465 0.955805
0.59842 0.281278 0.95728
0.59719 0.34625 0.957495
0.596303 0.408947 0.956372
0.598242 0.472835 0.95574
0.659139 0.282246 0.957369
0.660225 0.345139 0.957492
0.660972 0.409991 0.956396
0.658607 0.471509 0.955809
0.723546 0.281065 0.95738
0.722133 0.346214 0.957483
0.721376 0.408966 0.956406
0.723302 0.472623 0.955774
0.503326 0.282522 0.776415
0.503146 0.344089 0.775945
0.502961 0.407471 0.773463
0.503189 0.469993 0.773293
0.565991 0.282338 0.77635
0.566095 0.344677 0.776772
0.565774 0.408003 0.774754
0.565738 0.469847 0.773477
0.628514 0.282324 0.776455
0.628643 0.345313 0.776843
0.628593 0.407523 0.774244
0.628342 0.469848 0.77335
0.690937 0.282498 0.776416
0.690974 0.344617 0.776358
0.690855 0.406899 0.773021
0.690759 0.470036 0.773309
0.503498 0.282304 0.817499
0.503141 0.344526 0.817984
0.503181 0.407349 0.814614
0.503372 0.470216 0.814514
0.566156 0.282704 0.817737
0.565939 0.343891 0.817171
0.565751 0.407586 0.814807
0.565755 0.469823 0.814481
0.62873 0.282491 0.817648
0.628838 0.344677 0.81835
0.628351 0.408019 0.815928
0.628206 0.469984 0.814633
0.691089 0.282477 0.817768
0.690996 0.344915 0.818596
0.691095 0.407857 0.815736
0.690788 0.47004 0.814762
0.503511 0.282419 0.858656
0.503546 0.345228 0.860035
0.503587 0.408366 0.857433
0.503364 0.470017 0.855745
0.566022 0.282397 0.858692
0.565968 0.345056 0.859443
0.565643 0.407543 0.856214
0.565805 0.470428 0.855812
0.628485 0.282404 0.858769
0.628401 0.345142 0.860084
0.628262 0.40818 0.857489
0.628258 0.470101 0.855848
0.691023 0.282454 0.858836
0.69092 0.345143 0.860055
0.690842 0.408248 0.857572
0.690777 0.470404 0.856038
0.503639 0.281974 0.899209
0.503568 0.345213 0.900231
0.503486 0.409242 0.897949
0.503317 0.471379 0.896943
0.566068 0.281982 0.89906
0.566039 0.345045 0.900385
0.565988 0.409526 0.898448
0.565928 0.471294 0.896682
0.628538 0.2819 0.899282
0.628516 0.34502 0.900388
0.628368 0.409333 0.897982
0.628332 0.471504 0.896947
0.691055 0.281911 0.899104
0.691048 0.344957 0.900431
0.690864 0.409441 0.898469
0.690793 0.471216 0.896726
0.503649 0.282731 0.937868
0.503639 0.344974 0.938816
0.503621 0.41046 0.937544
0.503512 0.471912 0.935808
0.566181 0.281272 0.938718
0.566202 0.346416 0.938572
0.56612 0.408885 0.936745
0.565975 0.473066 0.936794
0.62866 0.282489 0.937937
0.628717 0.344741 0.938907
0.628635 0.410485 0.937646
0.628515 0.471819 0.935931
0.691231 0.281213 0.938734
0.69121 0.346499 0.938582
0.691123 0.408795 0.936726
0.690928 0.473175 0.936822
0.503813 0.281259 0.977495
0.503614 0.347404 0.976529
0.503696 0.406818 0.974673
0.503446 0.475953 0.975975
0.566258 0.283291 0.975935
0.566204 0.344085 0.976951
0.566097 0.412227 0.976201
0.565978 0.468939 0.974054
0.628789 0.281257 0.977499
0.628656 0.347302 0.976574
0.628645 0.406813 0.974713
0.628409 0.475747 0.975961
0.691297 0.283214 0.976022
0.691226 0.344103 0.976919
0.691177 0.412194 0.976197
0.690991 0.468858 0.974038
0.660711 0.250107 0.976546
0.597986 0.25005 0.937868
0.534895 0.25051 0.898551
0.535837 0.250165 0.97659
0.721904 0.250219 0.977453
0.53447 0.250046 0.938058
0.532299 0.502376 0.0134187
0.536554 0.564765 0.011576
0.532693 0.626823 0.0132635
0.536602 0.688761 0.011224
0.599307 0.502369 0.0116842
0.595053 0.564768 0.0133359
0.598922 0.626844 0.01137
0.594946 0.688837 0.0133158
0.657365 0.502337 0.013427
0.661619 0.564736 0.0115018
0.657595 0.626904 0.0132279
0.661604 0.688814 0.0112183
0.724325 0.502324 0.0117677
0.719884 0.564759 0.0133253
0.723854 0.62686 0.0113224
0.720012 0.688814 0.0132531
0.537111 0.501957 0.049164
0.532232 0.564613 0.0512078
0.536883 0.627128 0.0490078
0.532178 0.689436 0.0512497
0.594557 0.50203 0.0511667
0.599375 0.564594 0.0490538
0.594747 0.627072 0.0512795
0.599667 0.689436 0.0489226
0.661971 0.501951 0.0491506
0.65708 0.56461 0.0511795
0.661991 0.627068 0.0490681
0.657102 0.689424 0.0512318
0.719512 0.502017 0.0511794
0.724316 0.564654 0.0490002
0.719789 0.627082 0.0512683
0.724651 0.689423 0.0489227
0.531967 0.501839 0.0885572
0.536932 0.564438 0.0863438
0.532191 0.626947 0.0887626
0.537378 0.689465 0.086303
0.599639 0.501868 0.0864121
0.594497 0.564382 0.0886258
0.599569 0.626967 0.0863315
0.594785 0.689429 0.0886826
0.656868 0.501886 0.0885657
0.662035 0.564482 0.0863112
0.6572 0.626956 0.088708
0.662439 0.689432 0.0863344
0.724648 0.501866 0.0863814
0.719553 0.564372 0.0886911
0.724611 0.626946 0.0862919
0.719705 0.68946 0.0887698
0.537185 0.501758 0.123725
0.532066 0.564309 0.126075
0.537346 0.626881 0.123738
0.532157 0.689336 0.126171
0.594426 0.501751 0.126084
0.599654 0.56439 0.123632
0.594471 0.626775 0.126035
0.600213 0.689303 0.123795
0.662296 0.501724 0.123761
0.656954 0.56429 0.126048
0.662401 0.626837 0.123667
0.657113 0.689317 0.126154
0.719433 0.501733 0.126087
0.724678 0.564317 0.123631
0.719567 0.626779 0.126101
0.725175 0.689318 0.123716
0.531979 0.501689 0.163429
0.537271 0.564257 0.161034
0.532008 0.626725 0.163397
0.537571 0.689187 0.161064
0.59956 0.501729 0.160942
0.594459 0.564264 0.163497
0.599873 0.626754 0.160995
0.594609 0.689212 0.163449
0.656859 0.501694 0.163514
0.662156 0.564216 0.160922
0.657105 0.626704 0.163369
0.662562 0.689181 0.161061
0.724592 0.501709 0.160975
0.71938 0.564199 0.163421
0.724716 0.6267 0.160933
0.719597 0.689159 0.16349
0.537078 0.501725 0.198382
0.531649 0.564223 0.200841
0.537169 0.626669 0.198319
0.531877 0.689088 0.200881
0.594266 0.501748 0.200808
0.599705 0.564251 0.198327
0.594394 0.626629 0.200762
0.599912 0.689114 0.198469
0.662068 0.501745 0.198323
0.656679 0.564224 0.200795
0.66226 0.62666 0.198368
0.656934 0.689135 0.200829
0.719193 0.501696 0.200817
0.724569 0.564211 0.198324
0.719374 0.626655 0.200678
0.724982 0.689076 0.198432
0.531548 0.501739 0.238171
0.536928 0.564214 0.235639
0.531726 0.626609 0.238117
0.537283 0.689018 0.235761
0.599385 0.501721 0.235672
0.594178 0.564112 0.238095
0.599585 0.626567 0.235687
0.594381 0.689008 0.238209
0.656603 0.50163 0.238146
0.661937 0.5642 0.235695
0.656659 0.626587 0.238031
0.662288 0.688963 0.235885
0.724409 0.501669 0.235671
0.718889 0.564199 0.238101
0.724544 0.626633 0.235718
0.719246 0.68897 0.238165
0.536916 0.534912 0.0313428
0.532826 0.594134 0.0313299
0.536574 0.659779 0.0312878
0.534616 0.718174 0.0312235
0.595289 0.531731 0.0313041
0.599431 0.59753 0.0313083
0.595935 0.656115 0.0313057
0.598219 0.722143 0.0312331
0.661765 0.534933 0.0313425
0.657848 0.594059 0.0312956
0.661609 0.65982 0.0313109
0.659713 0.718206 0.031195
0.720215 0.53166 0.0313318
0.724421 0.597505 0.0312844
0.720842 0.656024 0.0312773
0.7231 0.72204 0.0312395
0.532622 0.53128 0.0688053
0.536955 0.597595 0.0688055
0.533182 0.655978 0.0688727
0.536426 0.722592 0.0688299
0.599498 0.534901 0.0687576
0.595219 0.593678 0.0688084
0.599455 0.660128 0.0688276
0.596687 0.718465 0.0688237
0.657553 0.531269 0.0687946
0.662003 0.597584 0.0688078
0.658057 0.656121 0.0688753
0.661305 0.722669 0.0688204
0.724338 0.534903 0.0687078
0.720237 0.593623 0.0687986
0.724459 0.660086 0.068842
0.721708 0.718406 0.0687962
0.537018 0.534752 0.106161
0.532751 0.593509 0.106207
0.537202 0.660024 0.10626
0.533832 0.718458 0.106302
0.595174 0.530911 0.106193
0.599451 0.597489 0.106159
0.595629 0.656039 0.106232
0.599272 0.722385 0.106331
0.66188 0.534776 0.10616
0.657773 0.593462 0.106193
0.662187 0.660048 0.106224
0.658854 0.718353 0.106263
0.720252 0.530857 0.1062
0.724469 0.597514 0.106136
0.720569 0.655911 0.106232
0.724207 0.722607 0.1063
0.532652 0.530821 0.143549
0.537122 0.597396 0.143522
0.533143 0.655879 0.143583
0.537011 0.722526 0.143677
0.599426 0.534836 0.143539
0.595306 0.593353 0.143518
0.599638 0.659828 0.143557
0.596179 0.718343 0.143672
0.657803 0.530809 0.143533
0.662016 0.597409 0.143538
0.658078 0.655826 0.143549
0.661915 0.722517 0.143661
0.724408 0.534916 0.143497
0.720351 0.593278 0.143508
0.724755 0.659931 0.143552
0.721173 0.718346 0.143648
0.536842 0.534884 0.180882
0.532753 0.59335 0.180885
0.537082 0.659838 0.180945
0.533449 0.718153 0.181006
0.595233 0.530636 0.180888
0.599445 0.597476 0.180907
0.595566 0.6558 0.18092
0.599452 0.722341 0.181026
0.661765 0.534972 0.180842
0.657755 0.59333 0.180833
0.66208 0.659718 0.180898
0.658427 0.718091 0.180977
0.72019 0.530601 0.18085
0.724455 0.597372 0.180859
0.720548 0.65576 0.180865
0.724355 0.722309 0.181007
0.532776 0.530645 0.21825
0.536806 0.597424 0.218219
0.532896 0.655755 0.218219
0.53686 0.72222 0.218394
0.599257 0.534934 0.218207
0.59522 0.593249 0.218222
0.599533 0.659732 0.218234
0.59566 0.717958 0.218368
0.657661 0.530746 0.218227
0.66187 0.597313 0.218202
0.657972 0.655732 0.21824
0.661875 0.72211 0.218364
0.724215 0.534905 0.218182
0.720169 0.593349 0.218222
0.724409 0.659618 0.218222
0.720734 0.717944 0.218337
0.503489 0.536019 0.0135038
0.503464 0.594152 0.011281
0.503667 0.659737 0.0128889
0.503758 0.717481 0.0119699
0.565946 0.531803 0.0112072
0.56604 0.598111 0.0133311
0.566096 0.655984 0.0114567
0.566175 0.721816 0.0122761
0.628501 0.535922 0.0134868
0.628501 0.594198 0.0112128
0.628567 0.659902 0.0130903
0.628697 0.717564 0.0120862
0.690989 0.531769 0.0112659
0.690995 0.598121 0.0133583
0.691034 0.656075 0.0114419
0.691175 0.72187 0.0122197
0.503478 0.531176 0.0487049
0.50346 0.598508 0.0512429
0.503683 0.656098 0.0489705
0.50379 0.723468 0.0505525
0.565975 0.53598 0.0513162
0.565982 0.593845 0.0486853
0.566165 0.661038 0.0510648
0.566324 0.71818 0.0494934
0.628433 0.5312 0.0486769
0.628507 0.598464 0.0512423
0.628732 0.656035 0.0489507
0.628796 0.723386 0.0505442
0.690888 0.53603 0.051225
0.691011 0.593865 0.0487225
0.691175 0.660993 0.0511028
0.691224 0.718132 0.0494906
0.503475 0.535987 0.0887086
0.503528 0.593578 0.0861465
0.503812 0.660976 0.0886835
0.503907 0.71811 0.0867694
0.565965 0.530905 0.0861322
0.566049 0.598363 0.0886698
0.566237 0.655992 0.0862891
0.566407 0.723493 0.088359
0.628458 0.536094 0.0886737
0.628498 0.593612 0.086154
0.628754 0.661016 0.0886245
0.628897 0.718192 0.0867753
0.690978 0.530898 0.0861466
0.69103 0.598439 0.0886925
0.691195 0.655911 0.0862677
0.691389 0.723643 0.088382
0.503535 0.530785 0.123535
0.503713 0.598536 0.126085
0.503848 0.65566 0.12367
0.504017 0.723614 0.125882
0.566015 0.535927 0.126143
0.566103 0.59333 0.123504
0.566337 0.661092 0.126063
0.56647 0.717911 0.124027
0.62848 0.530689 0.123576
0.628633 0.598584 0.12605
0.628752 0.65557 0.123662
0.628976 0.72373 0.125925
0.691016 0.536027 0.126031
0.691108 0.593297 0.123488
0.691338 0.661111 0.126033
0.691398 0.717999 0.124029
0.503489 0.535908 0.163455
0.503594 0.59307 0.160941
0.503753 0.660857 0.163429
0.50396 0.717909 0.161293
0.565937 0.530669 0.160857
0.566147 0.598502 0.163434
0.566233 0.655575 0.161017
0.566445 0.72345 0.163375
0.628438 0.535828 0.163329
0.628578 0.593223 0.160865
0.628769 0.660874 0.163414
0.628925 0.717944 0.161241
0.690937 0.53054 0.160913
0.691146 0.598429 0.163431
0.691256 0.655592 0.160912
0.691413 0.723569 0.163318
0.503439 0.530586 0.19828
0.503446 0.598462 0.20072
0.503611 0.655504 0.198346
0.503812 0.723466 0.200738
0.565882 0.535998 0.20072
0.565972 0.593064 0.198278
0.566151 0.660861 0.2008
0.566257 0.717843 0.198611
0.628412 0.530545 0.1983
0.628485 0.598588 0.200751
0.628656 0.6555 0.198361
0.628725 0.723412 0.200744
0.690821 0.535986 0.200695
0.690961 0.593111 0.198248
0.691131 0.660912 0.200676
0.691227 0.717879 0.198562
0.503319 0.536036 0.238113
0.503384 0.593105 0.235589
0.503498 0.660754 0.238114
0.503656 0.717748 0.23592
0.565856 0.530664 0.235686
0.565892 0.598388 0.238058
0.565983 0.655435 0.235589
0.566148 0.723311 0.238176
0.628321 0.535925 0.238021
0.628357 0.593035 0.235594
0.628521 0.660707 0.23809
0.62864 0.71777 0.235839
0.690737 0.530564 0.235591
0.690819 0.598461 0.238098
0.690947 0.655326 0.235652
0.691072 0.723223 0.238138
0.536913 0.501619 0.272981
0.531601 0.56403 0.275454
0.536942 0.626453 0.273008
0.531887 0.688931 0.27558
0.594066 0.501529 0.275451
0.599407 0.564084 0.27304
0.594295 0.626464 0.275432
0.599661 0.688937 0.273199
0.661836 0.501566 0.272947
0.656573 0.564048 0.275378
0.662056 0.626514 0.273136
0.656759 0.688982 0.275455
0.719046 0.501592 0.275419
0.724436 0.564035 0.273
0.71929 0.626509 0.275456
0.724694 0.688954 0.273206
0.531674 0.50142 0.31278
0.536804 0.563902 0.310286
0.531766 0.626366 0.31281
0.537049 0.688876 0.310437
0.599267 0.501467 0.310309
0.594237 0.563921 0.312759
0.59938 0.626361 0.310364
0.5943 0.688903 0.312835
0.656641 0.501383 0.312789
0.661821 0.563943 0.31032
0.656769 0.626421 0.312759
0.662097 0.688922 0.31048
0.72409 0.501424 0.310308
0.719213 0.563856 0.312746
0.724401 0.626356 0.310383
0.719318 0.688918 0.312794
0.536616 0.501392 0.347613
0.531562 0.563847 0.350051
0.536855 0.626295 0.347575
0.53185 0.688855 0.350115
0.59399 0.501425 0.349994
0.599258 0.563867 0.347639
0.594134 0.626383 0.350049
0.599513 0.688835 0.347763
0.661702 0.501329 0.347547
0.656667 0.56387 0.350036
0.661856 0.626397 0.347662
0.656785 0.688859 0.350158
0.718855 0.501376 0.350012
0.724186 0.563903 0.347612
0.719165 0.626414 0.350064
0.724404 0.6889 0.347808
0.531318 0.501327 0.387247
0.536728 0.563768 0.384878
0.531733 0.626225 0.387345
0.536906 0.68875 0.384923
0.599157 0.501298 0.384968
0.59409 0.563774 0.387336
0.599343 0.626315 0.384959
0.594256 0.688794 0.387389
0.656315 0.501307 0.387294
0.661759 0.563767 0.38494
0.656613 0.626238 0.387404
0.661937 0.688818 0.384962
0.724113 0.501334 0.384978
0.71911 0.563797 0.387285
0.72438 0.62633 0.384907
0.719105 0.688793 0.387432
0.536496 0.501175 0.422249
0.531648 0.563616 0.424571
0.536608 0.626043 0.422138
0.531621 0.688625 0.424683
0.593885 0.501171 0.424531
0.59906 0.563614 0.422259
0.594199 0.626096 0.424583
0.59923 0.688734 0.422227
0.661307 0.501196 0.422266
0.656602 0.563651 0.424555
0.661585 0.626156 0.422179
0.656748 0.688663 0.424645
0.718779 0.50117 0.424508
0.723915 0.563646 0.422282
0.719176 0.626126 0.424625
0.724312 0.688655 0.422365
0.531281 0.500944 0.461933
0.536487 0.563401 0.459557
0.531399 0.625871 0.461829
0.536704 0.68854 0.459517
0.598956 0.500977 0.459577
0.593713 0.563451 0.461817
0.599001 0.625968 0.459434
0.594018 0.688498 0.461887
0.656167 0.500978 0.46194
0.661498 0.563441 0.45956
0.656333 0.625996 0.461795
0.66165 0.688527 0.459582
0.723869 0.501008 0.459684
0.718674 0.563407 0.461746
0.72412 0.626008 0.459505
0.719036 0.688531 0.46186
0.536522 0.500927 0.497052
0.536472 0.625809 0.496775
0.598909 0.563372 0.496874
0.599237 0.688368 0.496973
0.661547 0.500991 0.497103
0.661484 0.625837 0.496769
0.723842 0.563379 0.496896
0.724139 0.688361 0.496966
0.536633 0.534876 0.255564
0.532605 0.593224 0.255561
0.536865 0.659658 0.255615
0.532965 0.717828 0.255694
0.595261 0.530687 0.255575
0.599277 0.597176 0.255529
0.595289 0.655647 0.255544
0.599348 0.722152 0.255707
0.661657 0.534758 0.255547
0.657541 0.593368 0.255561
0.661851 0.6594 0.255649
0.657904 0.718077 0.255731
0.720073 0.530632 0.255525
0.724269 0.597242 0.255582
0.720277 0.655643 0.255576
0.724204 0.722058 0.255683
0.532421 0.530456 0.292843
0.536768 0.59711 0.292851
0.53259 0.655409 0.292898
0.536915 0.722103 0.293015
0.599085 0.534576 0.292859
0.594897 0.593107 0.292891
0.599456 0.65942 0.292952
0.595279 0.718097 0.293014
0.657515 0.530451 0.292856
0.66178 0.597059 0.292877
0.657562 0.655592 0.29292
0.661862 0.722087 0.292971
0.724098 0.534621 0.292901
0.71996 0.593067 0.292881
0.72437 0.659409 0.292944
0.720293 0.718176 0.293005
0.536623 0.534521 0.330146
0.532242 0.592863 0.330168
0.53695 0.659426 0.330243
0.53259 0.717912 0.330296
0.594866 0.530476 0.330155
0.599348 0.59701 0.330194
0.594986 0.655376 0.330203
0.599413 0.722009 0.330277
0.661471 0.534655 0.330156
0.657347 0.592932 0.330191
0.661941 0.65953 0.33023
0.657622 0.717935 0.33033
0.719778 0.530425 0.330131
0.724356 0.596946 0.330173
0.719966 0.655497 0.3302
0.724408 0.721955 0.330326
0.532155 0.530369 0.367457
0.536771 0.5969 0.367439
0.532496 0.655252 0.367488
0.536857 0.721974 0.36757
0.599085 0.534394 0.367485
0.594708 0.592955 0.367473
0.599283 0.659427 0.367524
0.59499 0.717876 0.367578
0.657276 0.530369 0.367428
0.661764 0.596899 0.36749
0.657466 0.65535 0.367522
0.661811 0.722056 0.367572
0.724089 0.534404 0.367457
0.719714 0.592867 0.367454
0.724273 0.659484 0.367547
0.720099 0.717948 0.367636
0.536464 0.534218 0.404733
0.532186 0.592677 0.40473
0.536611 0.659412 0.404783
0.532375 0.717609 0.404858
0.594754 0.530375 0.404759
0.599178 0.596672 0.404726
0.594943 0.655249 0.404759
0.599312 0.721989 0.404865
0.661464 0.534252 0.404758
0.657152 0.592673 0.404728
0.661735 0.659382 0.404787
0.657516 0.717779 0.404841
0.719678 0.530376 0.404752
0.724148 0.596741 0.404746
0.71999 0.655285 0.404784
0.724258 0.72187 0.404884
0.532238 0.530178 0.442088
0.536524 0.596502 0.442017
0.532511 0.654995 0.441999
0.536683 0.721835 0.442141
0.598874 0.533945 0.442047
0.594637 0.59262 0.442012
0.598999 0.659132 0.441969
0.594892 0.717717 0.442121
0.657222 0.53019 0.442046
0.661528 0.596645 0.442007
0.657394 0.655216 0.442038
0.66177 0.721722 0.442125
0.723841 0.533988 0.442061
0.719709 0.592651 0.442007
0.724118 0.65908 0.442088
0.719959 0.717868 0.442142
0.536218 0.533783 0.479437
0.532305 0.592423 0.479323
0.536474 0.658964 0.479268
0.532324 0.717586 0.479413
0.594772 0.530003 0.47941
0.598967 0.596209 0.479266
0.594975 0.655121 0.479283
0.599123 0.721444 0.479386
0.661262 0.53379 0.47942
0.657201 0.592524 0.479269
0.661492 0.658903 0.47933
0.657283 0.717652 0.479408
0.719822 0.530087 0.479447
0.723915 0.596201 0.479276
0.71995 0.655194 0.47931
0.724073 0.721519 0.479425
0.503228 0.530381 0.272933
0.503341 0.598189 0.275387
0.503405 0.655393 0.272996
0.503561 0.723305 0.275559
0.56577 0.535776 0.275363
0.565784 0.592999 0.272893
0.565974 0.660585 0.275496
0.566016 0.71785 0.273103
0.628251 0.530503 0.27294
0.628364 0.598175 0.27546
0.628391 0.655376 0.272969
0.628468 0.723245 0.275493
0.690768 0.535801 0.275383
0.690823 0.592947 0.272872
0.690946 0.660637 0.275478
0.691013 0.717715 0.273126
0.503181 0.535565 0.312699
0.503273 0.592936 0.310142
0.503415 0.660527 0.312854
0.503498 0.717854 0.310286
0.565731 0.530486 0.31023
0.56578 0.598031 0.312825
0.565871 0.65538 0.310213
0.566008 0.723089 0.312877
0.62816 0.535594 0.31268
0.628285 0.59298 0.310135
0.628381 0.660472 0.312835
0.628518 0.7178 0.310303
0.690634 0.530454 0.31021
0.690767 0.598055 0.3128
0.690884 0.655317 0.310241
0.690965 0.72314 0.312845
0.503128 0.530387 0.347382
0.503192 0.598016 0.350098
0.503305 0.655348 0.347497
0.503419 0.723102 0.350189
0.565551 0.53563 0.350105
0.565726 0.592877 0.347376
0.565811 0.66045 0.35014
0.565892 0.717836 0.347571
0.628133 0.530396 0.347502
0.628207 0.598039 0.350159
0.628303 0.655354 0.347486
0.628425 0.722969 0.350178
0.690602 0.535537 0.350065
0.690752 0.592986 0.347374
0.690831 0.660486 0.35013
0.690903 0.717907 0.347607
0.503 0.53555 0.387337
0.503184 0.592819 0.384689
0.503302 0.660371 0.38735
0.503339 0.717815 0.384836
0.565538 0.530354 0.384744
0.56567 0.597911 0.38733
0.565814 0.65532 0.384787
0.565891 0.723009 0.387464
0.628076 0.535529 0.387346
0.628139 0.59283 0.384704
0.628349 0.660491 0.38738
0.628323 0.717791 0.384824
0.690532 0.530363 0.384798
0.690704 0.597985 0.387372
0.69072 0.655204 0.384799
0.69088 0.723006 0.387404
0.503044 0.530378 0.422123
0.503147 0.597567 0.424527
0.503247 0.655074 0.422036
0.503237 0.722845 0.424673
0.565496 0.535268 0.424572
0.56561 0.59271 0.421986
0.565719 0.660179 0.424475
0.565674 0.717642 0.422109
0.627957 0.530371 0.422049
0.628107 0.597656 0.424578
0.628229 0.655274 0.422048
0.628324 0.722786 0.424721
0.69046 0.535231 0.424599
0.690568 0.592706 0.421996
0.690767 0.660217 0.424586
0.690811 0.717741 0.422145
0.502926 0.534965 0.461867
0.503034 0.59232 0.45933
0.503126 0.660135 0.461728
0.503112 0.717594 0.459349
0.565401 0.529858 0.459518
0.56552 0.597535 0.461839
0.565574 0.655017 0.459335
0.565626 0.722763 0.462021
0.62791 0.535164 0.46186
0.62796 0.592385 0.459246
0.628115 0.660059 0.461789
0.628136 0.717543 0.459358
0.690387 0.529886 0.459493
0.690502 0.597638 0.461817
0.690584 0.655013 0.459343
0.690603 0.722724 0.462046
0.502914 0.529799 0.49702
0.503032 0.65491 0.49672
0.565469 0.592446 0.496738
0.565546 0.717258 0.496777
0.627858 0.529847 0.49697
0.628026 0.654923 0.496733
0.690502 0.592471 0.496662
0.690563 0.717414 0.496771
0.718652 0.50095 0.499279
0.565422 0.535041 0.499205
0.690379 0.53511 0.49923
0.502973 0.597465 0.499111
0.503121 0.722652 0.499254
0.656447 0.688321 0.499169
0.593616 0.500936 0.49933
0.690603 0.660005 0.499097
0.531319 0.563338 0.499146
0.593821 0.625817 0.499004
0.656374 0.563365 0.499113
0.718791 0.625796 0.49897
0.565605 0.660069 0.49901
0.627973 0.597478 0.499061
0.531412 0.688286 0.499209
0.628088 0.722697 0.499273
0.531736 0.500839 0.536643
0.535809 0.563181 0.534417
0.531891 0.625487 0.536242
0.53614 0.687996 0.534456
0.59842 0.500938 0.534752
0.59435 0.563228 0.536378
0.598458 0.625537 0.534506
0.594412 0.687902 0.536223
0.656731 0.500949 0.53667
0.660915 0.563285 0.534482
0.656877 0.625471 0.536218
0.661147 0.688002 0.534491
0.723367 0.500935 0.534874
0.719464 0.563345 0.536265
0.723548 0.625615 0.534503
0.719278 0.687916 0.536226
0.53454 0.501024 0.57247
0.534285 0.563259 0.573515
0.534847 0.62534 0.572549
0.534082 0.687617 0.573246
0.596718 0.501118 0.573445
0.597053 0.563258 0.572708
0.596558 0.625397 0.573425
0.597404 0.687692 0.57239
0.659484 0.501091 0.572436
0.659242 0.563329 0.573532
0.659728 0.625429 0.572602
0.659005 0.687622 0.573189
0.721604 0.501157 0.573311
0.721972 0.563334 0.572788
0.721689 0.625399 0.573435
0.722239 0.687703 0.572389
0.534634 0.501384 0.6122
0.534565 0.563518 0.611849
0.534584 0.62553 0.612163
0.534916 0.687594 0.611392
0.596851 0.50143 0.611948
0.597148 0.563521 0.612203
0.597247 0.625627 0.611809
0.596629 0.687598 0.611712
0.659628 0.501415 0.612072
0.659549 0.563603 0.611892
0.659434 0.625496 0.612086
0.659886 0.687608 0.611503
0.721791 0.501442 0.61192
0.722112 0.563586 0.612167
0.722218 0.625569 0.611855
0.721558 0.687619 0.611734
0.534592 0.501423 0.651166
0.534542 0.56374 0.651696
0.53465 0.625946 0.651563
0.534468 0.688008 0.651185
0.597107 0.501336 0.651266
0.597066 0.563755 0.651613
0.596979 0.625893 0.651608
0.597072 0.687954 0.651199
0.659401 0.501248 0.65129
0.659567 0.563613 0.651751
0.659641 0.62584 0.651589
0.659434 0.687965 0.651102
0.722116 0.501268 0.651288
0.721979 0.563673 0.651739
0.722018 0.625842 0.651682
0.722024 0.687936 0.651145
0.53442 0.501147 0.69165
0.534454 0.56371 0.692046
0.534548 0.626263 0.69199
0.534437 0.688626 0.691707
0.597096 0.501107 0.69156
0.597105 0.563653 0.691959
0.596977 0.626155 0.692046
0.59693 0.688589 0.691688
0.659551 0.500953 0.691677
0.659499 0.56355 0.692066
0.659498 0.626009 0.69199
0.659391 0.688514 0.691757
0.722109 0.500952 0.691705
0.722124 0.563618 0.691974
0.721926 0.626034 0.692056
0.721888 0.688552 0.69166
0.534325 0.501004 0.732394
0.534467 0.563684 0.732495
0.53432 0.626309 0.732613
0.534261 0.688906 0.732354
0.596931 0.500956 0.732345
0.596858 0.563568 0.732615
0.596867 0.626312 0.732635
0.596891 0.688939 0.732448
0.659378 0.500912 0.732335
0.659369 0.563589 0.732607
0.659367 0.626264 0.732668
0.659295 0.688936 0.732352
0.721832 0.50108 0.732313
0.72183 0.563575 0.73257
0.721947 0.626176 0.732603
0.721758 0.688817 0.732443
0.532711 0.530016 0.516841
0.536191 0.596107 0.516675
0.53268 0.654869 0.516596
0.536446 0.721121 0.51674
0.598576 0.533775 0.51681
0.595065 0.59261 0.516659
0.598745 0.658409 0.516698
0.595023 0.717496 0.516788
0.65757 0.530216 0.516835
0.661277 0.596176 0.516635
0.657766 0.654976 0.516673
0.661365 0.721082 0.516743
0.723512 0.533719 0.516812
0.720036 0.592713 0.516661
0.723758 0.658364 0.516667
0.719901 0.717524 0.516793
0.535529 0.533524 0.554517
0.533336 0.59299 0.554388
0.535724 0.657584 0.554316
0.533076 0.717488 0.554285
0.595845 0.531145 0.554649
0.598315 0.595514 0.554419
0.59591 0.655176 0.554328
0.598463 0.719705 0.554331
0.660578 0.533723 0.554569
0.658426 0.593165 0.554435
0.660678 0.657339 0.554395
0.658034 0.717547 0.554303
0.720884 0.531405 0.554602
0.72327 0.595374 0.554445
0.720894 0.655274 0.554369
0.72344 0.719674 0.554335
0.534094 0.531588 0.593069
0.53535 0.594814 0.592984
0.534185 0.65604 0.592806
0.535483 0.719748 0.592419
0.597514 0.532543 0.593074
0.596588 0.593945 0.59301
0.59785 0.657047 0.592776
0.59616 0.718792 0.592472
0.659142 0.531761 0.593023
0.660284 0.594908 0.593006
0.658962 0.656151 0.592803
0.660197 0.719736 0.592457
0.722429 0.532419 0.593081
0.72156 0.594012 0.59307
0.722701 0.656984 0.592821
0.721026 0.718788 0.592455
0.534791 0.532754 0.631952
0.534316 0.594184 0.632018
0.535115 0.657079 0.631733
0.53405 0.718677 0.631182
0.596986 0.532367 0.632036
0.597454 0.594908 0.63205
0.59676 0.65659 0.631795
0.59754 0.718944 0.631234
0.65981 0.532643 0.631935
0.659513 0.594241 0.632065
0.660009 0.656901 0.631824
0.659008 0.718763 0.631229
0.721902 0.532248 0.63208
0.722525 0.594762 0.632039
0.721794 0.656614 0.631805
0.722535 0.719006 0.631248
0.534512 0.532242 0.671711
0.534673 0.595001 0.671937
0.534387 0.65735 0.67171
0.534437 0.719641 0.670976
0.597004 0.532446 0.671679
0.596923 0.594782 0.671956
0.597035 0.657323 0.671722
0.596902 0.71961 0.671014
0.659466 0.532357 0.671738
0.659696 0.59475 0.671914
0.659437 0.657274 0.671693
0.659543 0.719475 0.67103
0.722123 0.532385 0.671734
0.721972 0.594795 0.671985
0.721951 0.657192 0.671757
0.721783 0.719416 0.671071
0.534392 0.53239 0.712151
0.534469 0.59506 0.712258
0.534328 0.657546 0.712152
0.534331 0.720155 0.711626
0.596966 0.532364 0.712056
0.596909 0.59491 0.712278
0.596978 0.657711 0.712218
0.596766 0.720119 0.711648
0.659551 0.532329 0.71216
0.659319 0.594952 0.712299
0.659323 0.657451 0.712153
0.659227 0.720304 0.711659
0.721836 0.532389 0.712117
0.721991 0.594726 0.712313
0.721947 0.657392 0.71216
0.721685 0.71998 0.711658
0.533869 0.74996 0.611411
0.658568 0.749984 0.611414
0.502928 0.533965 0.536357
0.502961 0.592711 0.53445
0.503087 0.659174 0.536212
0.50304 0.717523 0.534324
0.565373 0.530076 0.53476
0.56551 0.596648 0.536247
0.565559 0.655012 0.534489
0.565587 0.721923 0.536446
0.627916 0.534077 0.536438
0.627974 0.592541 0.534492
0.628095 0.65914 0.536239
0.628078 0.717634 0.534386
0.690408 0.530153 0.534786
0.690569 0.596708 0.536347
0.69049 0.655046 0.534561
0.69055 0.722003 0.536443
0.503195 0.531793 0.572918
0.503292 0.594528 0.573559
0.503331 0.656387 0.572516
0.503274 0.720166 0.573544
0.56563 0.531966 0.573689
0.565725 0.594126 0.572603
0.565735 0.657143 0.573455
0.565702 0.718758 0.572084
0.62818 0.531903 0.572887
0.628189 0.59456 0.573626
0.628193 0.656361 0.572522
0.628164 0.71989 0.573559
0.690657 0.532035 0.573708
0.690681 0.594166 0.572691
0.690708 0.657075 0.573482
0.690648 0.718761 0.5722
0.503372 0.532045 0.61225
0.503498 0.594314 0.611799
0.503382 0.656999 0.612029
0.503293 0.71865 0.610929
0.565904 0.532203 0.611997
0.565966 0.594347 0.61237
0.56588 0.656536 0.611614
0.565833 0.719634 0.611815
0.628395 0.532076 0.612248
0.628434 0.594404 0.611935
0.628416 0.657069 0.612132
0.628259 0.718643 0.611061
0.690875 0.532378 0.612004
0.690953 0.594517 0.612347
0.690847 0.656459 0.611615
0.69074 0.719629 0.611754
0.5033 0.532376 0.65152
0.503345 0.594845 0.651774
0.503279 0.656909 0.651408
0.503171 0.719323 0.650837
0.565759 0.532391 0.651485
0.565849 0.594758 0.651575
0.56573 0.657093 0.651568
0.565674 0.719187 0.65067
0.628285 0.532493 0.651504
0.628378 0.594782 0.651798
0.628272 0.656802 0.651389
0.628277 0.719281 0.650904
0.690775 0.532256 0.651566
0.690858 0.594736 0.651645
0.690816 0.657041 0.651547
0.690726 0.719122 0.650712
0.503299 0.532294 0.691752
0.503204 0.594977 0.691988
0.50316 0.657405 0.691864
0.503205 0.719988 0.691229
0.565703 0.532294 0.69182
0.565747 0.594798 0.69203
0.565722 0.65752 0.691904
0.565677 0.719912 0.691226
0.628269 0.532202 0.691878
0.628258 0.594872 0.691916
0.628148 0.657401 0.691878
0.628117 0.719943 0.691315
0.690767 0.532222 0.691822
0.690742 0.594741 0.692046
0.690628 0.657321 0.691847
0.690545 0.719876 0.691348
0.503177 0.532401 0.732359
0.503143 0.59498 0.732529
0.503066 0.657732 0.732415
0.502991 0.720336 0.732139
0.565677 0.532149 0.73244
0.565624 0.594965 0.732474
0.56563 0.657684 0.732501
0.565545 0.720127 0.732223
0.628187 0.532208 0.732398
0.628098 0.594966 0.732506
0.628104 0.657775 0.732448
0.628003 0.720382 0.732157
0.690686 0.532253 0.73242
0.690561 0.594957 0.732548
0.690637 0.657604 0.732426
0.69054 0.720247 0.73215
0.722452 0.749893 0.611101
0.534437 0.50107 0.773325
0.534506 0.563639 0.773492
0.534523 0.626171 0.773388
0.534498 0.688695 0.773421
0.597034 0.50103 0.773446
0.597012 0.563558 0.773382
0.596885 0.626213 0.773475
0.596929 0.688699 0.773377
0.659435 0.50102 0.773395
0.659424 0.563547 0.773548
0.659474 0.626152 0.773438
0.659527 0.688715 0.773337
0.722093 0.501097 0.773426
0.72201 0.56358 0.773524
0.721953 0.626077 0.773513
0.722115 0.688723 0.773282
0.534618 0.501113 0.814549
0.534529 0.563469 0.814349
0.534478 0.625972 0.814368
0.534474 0.688418 0.814558
0.596784 0.501033 0.814593
0.597093 0.563496 0.814414
0.597004 0.625988 0.8144
0.597026 0.688399 0.814544
0.659397 0.501022 0.814662
0.659377 0.563489 0.814537
0.659614 0.626044 0.814421
0.65956 0.68847 0.814494
0.72207 0.501059 0.814695
0.722002 0.563391 0.814503
0.721968 0.626007 0.81442
0.722204 0.68858 0.814408
0.534448 0.501069 0.855544
0.534457 0.563376 0.855161
0.534528 0.625702 0.855157
0.534528 0.688186 0.855144
0.597113 0.5011 0.85561
0.596946 0.563434 0.855215
0.596957 0.625868 0.855075
0.596881 0.688322 0.855233
0.659388 0.501119 0.855548
0.65953 0.56347 0.855188
0.659475 0.625862 0.855082
0.65952 0.688273 0.855151
0.722064 0.501199 0.855641
0.72186 0.563519 0.855187
0.722076 0.625836 0.854963
0.721956 0.688254 0.855184
0.53459 0.501898 0.896105
0.534177 0.563791 0.895623
0.534425 0.625786 0.895109
0.534394 0.687845 0.895384
0.596902 0.501959 0.896335
0.597044 0.563896 0.895489
0.596756 0.625834 0.895339
0.597001 0.687881 0.895335
0.659507 0.501932 0.896156
0.659204 0.563854 0.895588
0.659471 0.625779 0.895134
0.659382 0.687858 0.895332
0.721811 0.50202 0.896358
0.721917 0.563879 0.895419
0.721736 0.625812 0.895283
0.722033 0.687817 0.895228
0.53415 0.502831 0.93596
0.53469 0.564558 0.93496
0.53402 0.626102 0.93532
0.534696 0.687536 0.934668
0.534033 0.749463 0.935414
0.597506 0.502799 0.935467
0.596482 0.564684 0.935574
0.596949 0.626152 0.934647
0.596349 0.687548 0.93525
0.597488 0.749564 0.934934
0.659014 0.502845 0.936067
0.659681 0.564575 0.934985
0.658956 0.626109 0.935316
0.659741 0.687618 0.934692
0.659039 0.749492 0.935396
0.722547 0.502839 0.935546
0.721535 0.564637 0.935554
0.722003 0.626112 0.934604
0.721361 0.687513 0.935317
0.722432 0.749561 0.935002
0.538061 0.50273 0.974364
0.530265 0.564745 0.975361
0.537769 0.626458 0.973665
0.530297 0.688122 0.975072
0.593206 0.502793 0.975597
0.600323 0.56478 0.973859
0.592669 0.626489 0.975238
0.600279 0.688102 0.973395
0.663009 0.502677 0.974447
0.655279 0.564823 0.975319
0.662705 0.626431 0.973633
0.655385 0.688094 0.975045
0.718221 0.502647 0.975529
0.725354 0.564789 0.97394
0.717587 0.626501 0.975247
0.725216 0.68806 0.973419
0.533228 0.532126 0.993555
0.53621 0.596871 0.993393
0.534195 0.656147 0.993253
0.534877 0.720993 0.993135
0.59903 0.534815 0.993482
0.596 0.594218 0.99333
0.598434 0.659026 0.993276
0.597694 0.718013 0.993172
0.658171 0.532197 0.99352
0.661309 0.596829 0.993352
0.658936 0.656227 0.993249
0.659875 0.721069 0.993173
0.723994 0.53466 0.993476
0.720808 0.594178 0.993363
0.723299 0.65909 0.993288
0.7227 0.718069 0.993137
0.534415 0.532593 0.752787
0.534486 0.594821 0.75286
0.534239 0.657815 0.752803
0.534074 0.720335 0.752594
0.596949 0.532101 0.752815
0.596822 0.594937 0.752867
0.596844 0.657671 0.752857
0.596983 0.720561 0.752596
0.659412 0.532367 0.752836
0.659368 0.594783 0.752951
0.659277 0.657771 0.752782
0.659231 0.720184 0.752563
0.721857 0.532372 0.752883
0.721851 0.594785 0.752893
0.72186 0.657552 0.752838
0.721957 0.720356 0.752547
0.534524 0.532168 0.793829
0.534453 0.595037 0.793805
0.534567 0.657286 0.793843
0.534703 0.719702 0.793971
0.596925 0.532438 0.793802
0.597049 0.594721 0.793769
0.597021 0.657524 0.793826
0.596924 0.719638 0.793943
0.659343 0.532137 0.793907
0.659445 0.594871 0.793862
0.659606 0.657501 0.793797
0.659812 0.719772 0.793838
0.722101 0.532239 0.793888
0.722016 0.594659 0.793929
0.722194 0.657659 0.793772
0.722211 0.719906 0.793751
0.53452 0.532394 0.834888
0.53439 0.594582 0.834714
0.53438 0.656981 0.834863
0.534386 0.719523 0.834979
0.596945 0.53226 0.834939
0.597065 0.594798 0.83475
0.596861 0.657111 0.834874
0.597027 0.719588 0.834944
0.659348 0.532352 0.835027
0.65946 0.594751 0.834777
0.659481 0.657222 0.834828
0.659394 0.719465 0.835015
0.722032 0.53248 0.835014
0.72183 0.59468 0.834769
0.721954 0.657202 0.834803
0.722052 0.719637 0.834944
0.534527 0.53275 0.875691
0.534281 0.594442 0.875453
0.534484 0.65705 0.875391
0.534538 0.718932 0.875636
0.596727 0.532588 0.875694
0.596879 0.594735 0.87542
0.596942 0.656839 0.875384
0.596884 0.719351 0.875692
0.659594 0.532705 0.875706
0.659334 0.594628 0.875368
0.659463 0.656896 0.875381
0.65957 0.719144 0.875603
0.72182 0.532688 0.875689
0.721885 0.594698 0.875399
0.722028 0.656826 0.875338
0.721998 0.7192 0.875608
0.533826 0.533314 0.916142
0.534719 0.595432 0.915592
0.53428 0.65645 0.915424
0.534214 0.718536 0.915856
0.597438 0.533889 0.916229
0.596511 0.594849 0.91566
0.596723 0.657029 0.915493
0.597239 0.717998 0.915893
0.658862 0.53332 0.916161
0.659673 0.595479 0.915578
0.659306 0.656477 0.915479
0.659173 0.718481 0.915818
0.722374 0.533956 0.91617
0.721444 0.594811 0.915538
0.721834 0.657005 0.915515
0.722157 0.718072 0.915869
0.535648 0.534872 0.955443
0.533564 0.59477 0.955153
0.534595 0.657854 0.955106
0.535058 0.717682 0.954976
0.595726 0.53319 0.955399
0.597667 0.59662 0.95515
0.596581 0.656018 0.955009
0.596367 0.719373 0.955017
0.660644 0.534809 0.955492
0.658558 0.594678 0.955182
0.659551 0.657802 0.955038
0.660101 0.71762 0.954994
0.720816 0.533348 0.955477
0.722683 0.596627 0.955136
0.721517 0.655933 0.955042
0.72136 0.719279 0.955032
0.503359 0.532387 0.773327
0.503242 0.594983 0.773327
0.50326 0.657455 0.773337
0.50312 0.719793 0.773515
0.565776 0.532331 0.77331
0.56582 0.594821 0.773329
0.565722 0.657549 0.773295
0.565703 0.719982 0.773392
0.628269 0.532328 0.773385
0.628274 0.594967 0.773352
0.628213 0.657485 0.773383
0.628254 0.719894 0.77341
0.690752 0.532275 0.773464
0.690747 0.594806 0.773396
0.690775 0.657495 0.773307
0.690783 0.719886 0.773296
0.503244 0.532433 0.814475
0.503283 0.594624 0.814261
0.503249 0.657154 0.814359
0.503278 0.719551 0.814513
0.565844 0.532519 0.814453
0.565743 0.594779 0.814281
0.565753 0.657224 0.814387
0.56576 0.719653 0.814559
0.628177 0.532339 0.814465
0.628272 0.594903 0.814299
0.628281 0.657277 0.814407
0.62829 0.719576 0.814494
0.690649 0.532293 0.814622
0.690693 0.594681 0.81432
0.690769 0.657434 0.814331
0.690859 0.719627 0.814559
0.503175 0.532324 0.855241
0.503233 0.594589 0.855036
0.50324 0.656915 0.855073
0.50323 0.719168 0.855353
0.565714 0.532394 0.855357
0.565717 0.594563 0.855069
0.565694 0.656974 0.855061
0.565715 0.719403 0.85524
0.628296 0.532478 0.85539
0.628213 0.594736 0.855038
0.628186 0.657069 0.855072
0.628199 0.719264 0.855326
0.690707 0.532386 0.855298
0.69074 0.594741 0.855023
0.690711 0.656978 0.854983
0.69078 0.719402 0.855281
0.503133 0.532931 0.895736
0.503136 0.594988 0.895503
0.503139 0.65659 0.89528
0.503241 0.71866 0.895636
0.565698 0.533283 0.896074
0.565665 0.594769 0.895332
0.565668 0.65677 0.895287
0.565768 0.718588 0.895803
0.62815 0.533034 0.895801
0.628087 0.595062 0.895473
0.628128 0.656602 0.895306
0.628273 0.718656 0.89563
0.690623 0.533267 0.89613
0.690611 0.594798 0.895255
0.690634 0.656781 0.895308
0.690775 0.718574 0.895678
0.503311 0.534432 0.936076
0.50325 0.595317 0.934824
0.503215 0.656812 0.935132
0.503294 0.717575 0.93556
0.565794 0.53373 0.935194
0.565703 0.59571 0.935462
0.565652 0.656364 0.934939
0.565804 0.718482 0.934989
0.628313 0.534608 0.936112
0.628207 0.595339 0.934866
0.628193 0.656852 0.935144
0.628313 0.717573 0.935444
0.690806 0.533864 0.935274
0.690681 0.59581 0.935452
0.690627 0.656372 0.934994
0.690803 0.718515 0.935011
0.50333 0.530823 0.973752
0.503254 0.599873 0.975288
0.503269 0.653197 0.974283
0.503467 0.722001 0.973886
0.565767 0.538384 0.975711
0.565779 0.59224 0.973807
0.565799 0.660986 0.974814
0.565909 0.714651 0.974755
0.628331 0.530875 0.973734
0.628264 0.599869 0.975249
0.628216 0.65331 0.974173
0.628399 0.722034 0.974
0.690792 0.538357 0.975728
0.690717 0.592258 0.973711
0.690717 0.660865 0.974827
0.69089 0.714634 0.974761
0.596988 0.749894 0.895998
0.537729 0.74998 0.973429
0.593133 0.749975 0.975074
0.718153 0.749972 0.974997
0.534644 0.749842 0.895783
0.721927 0.749878 0.895964
0.659616 0.74988 0.895799
0.662834 0.749979 0.97354
0.53232 0.750699 0.0131974
0.53748 0.812935 0.011256
0.532711 0.875497 0.0134322
0.537834 0.938417 0.0125326
0.599363 0.750737 0.0111637
0.594765 0.812852 0.0130716
0.600209 0.875539 0.0116984
0.595962 0.938402 0.0144444
0.657368 0.75076 0.013199
0.662325 0.812942 0.0112327
0.657568 0.875574 0.0133992
0.662724 0.938402 0.0124746
0.724361 0.750747 0.0111958
0.719708 0.812872 0.0131386
0.725089 0.875495 0.0117088
0.720855 0.938459 0.0144134
0.53742 0.751678 0.0487207
0.532057 0.813899 0.0509696
0.537955 0.876257 0.0493055
0.53298 0.938667 0.0517156
0.594643 0.75174 0.0511444
0.599982 0.813905 0.0487764
0.595006 0.876234 0.0511769
0.600955 0.938621 0.0495072
0.662421 0.751686 0.0487602
0.657098 0.813948 0.0508928
0.662974 0.876224 0.0492864
0.657951 0.938696 0.0517753
0.71956 0.751668 0.0511539
0.724975 0.813893 0.0487704
0.719973 0.876285 0.0512112
0.725849 0.938659 0.0494957
0.532007 0.751823 0.0886615
0.53782 0.814077 0.0861812
0.53244 0.876395 0.0888274
0.538621 0.93874 0.0872679
0.600197 0.751798 0.0862849
0.594529 0.814136 0.0884673
0.600805 0.876435 0.0866895
0.595454 0.938783 0.0895209
0.657005 0.751858 0.0886051
0.662925 0.814022 0.0861692
0.657443 0.876365 0.0888981
0.663545 0.938749 0.0872038
0.725245 0.751771 0.0861979
0.719486 0.814051 0.0884969
0.725731 0.876486 0.0867223
0.720418 0.938819 0.0895292
0.537948 0.751677 0.12373
0.531962 0.813984 0.126005
0.538194 0.87643 0.124168
0.532858 0.938867 0.126894
0.594569 0.75174 0.126116
0.600422 0.813984 0.123587
0.594851 0.876323 0.126344
0.600819 0.938836 0.124591
0.662797 0.75168 0.123641
0.65696 0.814023 0.126019
0.6632 0.876466 0.124087
0.657777 0.938866 0.127017
0.719549 0.751767 0.126116
0.725453 0.814023 0.123585
0.719919 0.876334 0.1264
0.725865 0.93884 0.124577
0.532097 0.751632 0.163561
0.537968 0.81391 0.16101
0.532355 0.876298 0.16373
0.538367 0.938868 0.162006
0.600323 0.751624 0.16102
0.59452 0.813934 0.163539
0.600701 0.876455 0.16151
0.595212 0.938853 0.164337
0.657107 0.751658 0.163564
0.66298 0.813933 0.16087
0.65739 0.876305 0.163809
0.66337 0.938861 0.161932
0.725393 0.751588 0.161071
0.719624 0.813915 0.163469
0.725779 0.876525 0.16153
0.720303 0.938869 0.164303
0.537714 0.751542 0.198438
0.53186 0.813816 0.200884
0.538119 0.876359 0.19886
0.532731 0.938818 0.201618
0.594383 0.751507 0.201052
0.600278 0.813775 0.198345
0.594791 0.876248 0.201185
0.600624 0.93884 0.199302
0.662611 0.751472 0.198366
0.656924 0.813806 0.200964
0.662924 0.876322 0.198795
0.657766 0.938842 0.20161
0.71947 0.751541 0.201075
0.725304 0.813797 0.198391
0.719894 0.876197 0.201169
0.725575 0.9388 0.199285
0.531928 0.75151 0.238453
0.537526 0.813778 0.235714
0.53219 0.876243 0.238531
0.538001 0.938811 0.236542
0.599976 0.751445 0.235771
0.594297 0.813743 0.238387
0.600326 0.876286 0.23612
0.595161 0.938901 0.238969
0.656885 0.751396 0.238453
0.662711 0.813746 0.235678
0.657218 0.8762 0.238544
0.662944 0.938802 0.236496
0.724931 0.751402 0.235797
0.719235 0.813785 0.238369
0.725302 0.876267 0.236127
0.720133 0.938837 0.238942
0.534036 0.784241 0.0310856
0.537107 0.842961 0.0309303
0.533333 0.908767 0.0320327
0.536864 0.968087 0.0320992
0.598873 0.780577 0.0310435
0.595606 0.846234 0.0308848
0.599476 0.90541 0.0319596
0.596256 0.971667 0.0321904
0.65896 0.784178 0.0310735
0.662104 0.843 0.0308931
0.658505 0.90883 0.03202
0.661896 0.968006 0.0321203
0.723824 0.780469 0.0310764
0.720573 0.846145 0.0309026
0.724446 0.905414 0.0319528
0.72145 0.97178 0.0322037
0.535662 0.780857 0.0686647
0.533128 0.846795 0.0685127
0.53747 0.905649 0.0695417
0.533656 0.971342 0.0696652
0.597251 0.784899 0.0687356
0.599827 0.843253 0.0684802
0.595769 0.909258 0.0695642
0.599762 0.967562 0.0696457
0.660793 0.780883 0.0686743
0.658086 0.846729 0.0684843
0.662413 0.905733 0.0695443
0.658696 0.971469 0.0696517
0.722289 0.784828 0.0687034
0.724726 0.843301 0.0684537
0.720697 0.909333 0.0695807
0.724656 0.967643 0.0696331
0.535625 0.78484 0.106212
0.537274 0.843273 0.106006
0.53305 0.90928 0.107055
0.537304 0.96791 0.107133
0.597829 0.78097 0.106159
0.595927 0.847012 0.106037
0.600043 0.905584 0.107045
0.595986 0.971803 0.107155
0.66048 0.784916 0.106214
0.662236 0.843096 0.106026
0.658002 0.909446 0.10708
0.662257 0.96783 0.107137
0.722907 0.780863 0.106137
0.720927 0.847051 0.106028
0.725161 0.905608 0.107054
0.721086 0.971794 0.107121
0.534868 0.780733 0.143634
0.533869 0.84705 0.143523
0.537479 0.905638 0.144461
0.533272 0.971819 0.144534
0.598541 0.784987 0.143637
0.599466 0.843015 0.143518
0.59561 0.9095 0.144448
0.599656 0.967863 0.144518
0.659966 0.780709 0.143622
0.658878 0.847211 0.143481
0.662418 0.905574 0.144467
0.658345 0.971952 0.144517
0.723386 0.784938 0.143678
0.724585 0.843053 0.143467
0.720535 0.909508 0.144466
0.724743 0.967825 0.144495
0.53615 0.784831 0.181081
0.536622 0.842873 0.18091
0.533066 0.90937 0.181841
0.537267 0.967848 0.181909
0.59696 0.780419 0.181016
0.596517 0.847024 0.180928
0.599967 0.905536 0.181826
0.595627 0.971906 0.181878
0.661171 0.784974 0.18106
0.661781 0.84278 0.180845
0.658057 0.909431 0.181831
0.66229 0.967836 0.181838
0.721991 0.780566 0.181084
0.721671 0.846988 0.180908
0.724869 0.905594 0.181838
0.720776 0.97189 0.181856
0.534058 0.780375 0.218438
0.53421 0.847028 0.218298
0.537351 0.905424 0.219187
0.533086 0.971826 0.219188
0.598837 0.784852 0.218447
0.598932 0.842718 0.218251
0.595631 0.909421 0.21922
0.599746 0.967857 0.219193
0.65925 0.780206 0.218445
0.659213 0.847038 0.218289
0.662432 0.905368 0.219183
0.658175 0.97184 0.21918
0.723776 0.784787 0.218463
0.723877 0.842766 0.218251
0.72058 0.909384 0.219199
0.724693 0.967825 0.219123
0.503774 0.784051 0.0112845
0.503798 0.841583 0.0131975
0.504101 0.909038 0.0125652
0.504152 0.967574 0.0142875
0.566171 0.779052 0.0129604
0.566315 0.846683 0.0109173
0.566486 0.904405 0.0142739
0.56672 0.971534 0.0127613
0.62877 0.78401 0.0112689
0.628745 0.841516 0.0131808
0.629065 0.909079 0.0126204
0.629202 0.967594 0.0142914
0.691183 0.779116 0.0129634
0.691233 0.846694 0.0109297
0.69149 0.904341 0.0142002
0.691782 0.971484 0.0128346
0.503803 0.780077 0.0503238
0.503845 0.847952 0.0483953
0.50408 0.904987 0.0520693
0.504239 0.972699 0.049953
0.566306 0.785625 0.0494538
0.566372 0.842412 0.0509199
0.566653 0.910324 0.0497104
0.566739 0.96737 0.0518955
0.62883 0.78022 0.0503864
0.628887 0.847864 0.0483997
0.629092 0.904868 0.052066
0.629244 0.972826 0.0499183
0.691344 0.785672 0.0493788
0.691317 0.842462 0.0509142
0.691615 0.910339 0.0496733
0.691737 0.967383 0.0518954
0.504019 0.786093 0.0874564
0.503936 0.842426 0.0884478
0.504212 0.910712 0.0869957
0.504321 0.967471 0.0894564
0.566478 0.780148 0.0875093
0.566478 0.848258 0.0859937
0.566736 0.904949 0.0896601
0.566823 0.972939 0.0872494
0.628946 0.786006 0.0873547
0.629007 0.842356 0.0884729
0.629241 0.910657 0.0870404
0.629309 0.967418 0.0894748
0.691487 0.780036 0.0875733
0.691506 0.848213 0.0860311
0.691667 0.904981 0.0897567
0.691836 0.972958 0.0873463
0.504091 0.780085 0.12466
0.504088 0.84827 0.123698
0.504094 0.90503 0.127144
0.504119 0.973086 0.124671
0.566588 0.786077 0.12519
0.566539 0.842359 0.125726
0.566666 0.910621 0.124534
0.566664 0.967737 0.126999
0.629073 0.780021 0.124725
0.628996 0.848334 0.123789
0.629105 0.905027 0.12717
0.629129 0.97309 0.124745
0.691529 0.786088 0.125141
0.691561 0.842387 0.1257
0.691627 0.910758 0.124469
0.691678 0.967713 0.126902
0.503974 0.786003 0.162834
0.504011 0.84229 0.162986
0.504146 0.910731 0.161929
0.504043 0.967756 0.164461
0.566527 0.78004 0.161914
0.566509 0.848347 0.161381
0.566604 0.905059 0.16455
0.566584 0.973161 0.16202
0.629046 0.786025 0.162783
0.629029 0.842324 0.163029
0.629127 0.910738 0.161979
0.629111 0.967694 0.16444
0.691512 0.780049 0.161887
0.691586 0.848288 0.161334
0.691573 0.904871 0.164523
0.691605 0.973132 0.162072
0.503857 0.779955 0.199133
0.503933 0.848301 0.198868
0.504016 0.904885 0.201899
0.50403 0.973108 0.199309
0.566348 0.785909 0.20036
0.566426 0.842098 0.200202
0.566559 0.910608 0.199367
0.566508 0.967686 0.201831
0.628879 0.78004 0.199161
0.628941 0.84811 0.19881
0.629043 0.904998 0.201942
0.629016 0.973079 0.199327
0.691363 0.785785 0.200332
0.691388 0.842279 0.20019
0.69155 0.91047 0.199395
0.691504 0.96782 0.201772
0.503692 0.785675 0.237892
0.503875 0.842208 0.23758
0.50398 0.910508 0.236725
0.503943 0.967732 0.239123
0.566307 0.780088 0.236354
0.566421 0.848101 0.236255
0.566423 0.904921 0.23926
0.566477 0.973028 0.23667
0.628799 0.785739 0.237835
0.628838 0.842169 0.237491
0.628931 0.910477 0.236733
0.628981 0.967877 0.239086
0.691278 0.779923 0.236413
0.691364 0.84819 0.236282
0.691451 0.904923 0.23927
0.691435 0.973058 0.236621
0.537474 0.751458 0.273136
0.531816 0.813917 0.275761
0.537924 0.876451 0.273431
0.532459 0.938965 0.276235
0.594342 0.751539 0.275712
0.600108 0.813915 0.273061
0.594729 0.876429 0.27589
0.600344 0.938986 0.273785
0.662441 0.751495 0.27319
0.656739 0.813873 0.275717
0.662841 0.87643 0.273396
0.657555 0.93902 0.276332
0.71921 0.751445 0.275667
0.725121 0.813875 0.273103
0.719622 0.876376 0.275867
0.725419 0.939019 0.273844
0.531958 0.751489 0.312988
0.537508 0.813942 0.31031
0.532047 0.876534 0.313151
0.537715 0.939085 0.311144
0.599771 0.751481 0.310542
0.594324 0.81393 0.313006
0.600272 0.876524 0.310775
0.595008 0.939078 0.313632
0.656921 0.751425 0.313028
0.662537 0.813996 0.310317
0.657073 0.87648 0.313216
0.662875 0.939094 0.311089
0.72483 0.75147 0.310604
0.719171 0.813932 0.312962
0.725403 0.876512 0.310799
0.719941 0.939131 0.31358
0.537273 0.751396 0.347755
0.531698 0.813849 0.350292
0.537819 0.876478 0.348051
0.532335 0.939101 0.35092
0.594394 0.751385 0.350283
0.599987 0.813894 0.347585
0.594391 0.876446 0.35046
0.600249 0.939053 0.348408
0.662123 0.751437 0.34784
0.656701 0.8139 0.350342
0.662763 0.876484 0.348028
0.657309 0.939116 0.350887
0.71933 0.751447 0.350321
0.724984 0.813901 0.347667
0.719451 0.876433 0.35041
0.725268 0.939064 0.348399
0.531763 0.751287 0.38762
0.537412 0.813864 0.384913
0.531764 0.876454 0.387754
0.537709 0.939045 0.38576
0.599619 0.751365 0.385042
0.593992 0.813833 0.387596
0.600262 0.876456 0.385394
0.594504 0.939118 0.388193
0.656765 0.751356 0.387558
0.66244 0.813864 0.384903
0.656786 0.87645 0.387806
0.662656 0.93908 0.38575
0.724721 0.751322 0.385168
0.719075 0.813816 0.387624
0.72524 0.876499 0.385364
0.719703 0.939062 0.388098
0.536984 0.751242 0.422346
0.531461 0.813757 0.424815
0.537565 0.876437 0.422769
0.532133 0.939079 0.42555
0.594092 0.751257 0.424835
0.599753 0.813792 0.422306
0.594233 0.876372 0.425049
0.599941 0.939135 0.423163
0.662002 0.751229 0.422352
0.656529 0.813737 0.424868
0.662585 0.876489 0.422744
0.657056 0.939098 0.425512
0.719219 0.751277 0.424845
0.724624 0.813826 0.422319
0.719148 0.876452 0.425112
0.724906 0.939089 0.423139
0.531598 0.751178 0.462121
0.537072 0.813722 0.459661
0.531553 0.876406 0.462496
0.537452 0.939179 0.460552
0.599424 0.75113 0.45971
0.593933 0.813781 0.462135
0.599955 0.876506 0.460206
0.594424 0.939136 0.46274
0.65653 0.751184 0.462116
0.662172 0.813785 0.459707
0.656646 0.87647 0.462459
0.662459 0.939091 0.460583
0.724334 0.751143 0.459718
0.718927 0.813727 0.462207
0.724924 0.876489 0.46018
0.719349 0.93919 0.46273
0.536931 0.751051 0.497055
0.537243 0.876463 0.497606
0.599434 0.813653 0.497228
0.66179 0.751056 0.497029
0.662358 0.87649 0.497654
0.724549 0.813715 0.497232
0.536585 0.784903 0.255826
0.536314 0.842775 0.255663
0.533059 0.909515 0.256516
0.537111 0.967908 0.256476
0.596279 0.78031 0.255803
0.59669 0.847181 0.255658
0.59981 0.905391 0.256501
0.595551 0.972237 0.256495
0.661436 0.784862 0.255817
0.66128 0.842762 0.255614
0.658049 0.909641 0.256523
0.662048 0.967848 0.256455
0.721238 0.78022 0.25582
0.721704 0.847094 0.255681
0.724689 0.905396 0.256539
0.720582 0.972036 0.25646
0.533495 0.78034 0.293092
0.534151 0.847373 0.293042
0.537219 0.905636 0.293804
0.532986 0.972216 0.293782
0.59905 0.784872 0.293135
0.598781 0.842976 0.292964
0.595386 0.909692 0.293804
0.599523 0.968038 0.293781
0.65839 0.780326 0.293119
0.659054 0.84725 0.293009
0.662287 0.905494 0.2938
0.657911 0.972275 0.293766
0.724043 0.784678 0.293102
0.723822 0.842864 0.292985
0.720446 0.909676 0.293834
0.724598 0.968208 0.293778
0.536686 0.784784 0.330398
0.536042 0.842946 0.330263
0.532797 0.909738 0.331127
0.536944 0.968133 0.331108
0.595756 0.780377 0.330405
0.596597 0.847337 0.330325
0.59968 0.905522 0.331133
0.595385 0.972309 0.3311
0.661583 0.784799 0.330382
0.661168 0.842927 0.330255
0.657761 0.909817 0.331122
0.661965 0.968033 0.331087
0.720686 0.7805 0.33043
0.721619 0.847146 0.330323
0.724663 0.905588 0.331075
0.720287 0.972311 0.331144
0.533133 0.780263 0.367679
0.534074 0.847171 0.367626
0.536978 0.905527 0.368429
0.532644 0.972326 0.368435
0.598972 0.784674 0.367656
0.598364 0.842793 0.367565
0.595276 0.909687 0.368452
0.599441 0.968112 0.368419
0.658111 0.780326 0.367688
0.659403 0.847286 0.367604
0.662073 0.905513 0.368454
0.657822 0.972323 0.368427
0.724081 0.784711 0.367729
0.723387 0.842862 0.367578
0.720177 0.909625 0.368409
0.724519 0.968134 0.368384
0.536536 0.784618 0.404965
0.535642 0.842974 0.404826
0.532765 0.909549 0.405809
0.536782 0.967968 0.405691
0.595565 0.780328 0.405033
0.596718 0.847183 0.404904
0.599347 0.905669 0.40578
0.594998 0.972283 0.405744
0.661427 0.784605 0.404974
0.660525 0.842811 0.404869
0.657675 0.909715 0.4058
0.661778 0.968207 0.405748
0.720588 0.780341 0.405029
0.721761 0.847181 0.404909
0.724389 0.905631 0.405747
0.720231 0.972162 0.405686
0.53293 0.780361 0.44228
0.534251 0.847016 0.442213
0.536697 0.905632 0.44316
0.53245 0.972265 0.443132
0.598993 0.784514 0.442322
0.597747 0.842968 0.44219
0.594941 0.909655 0.443115
0.599288 0.968384 0.443102
0.657798 0.780291 0.442322
0.659224 0.847072 0.44221
0.661828 0.9058 0.443127
0.657433 0.97215 0.443086
0.723868 0.784529 0.44233
0.72281 0.842979 0.442184
0.720064 0.909604 0.443119
0.724198 0.968364 0.44308
0.536238 0.784393 0.479619
0.534985 0.842845 0.479559
0.532657 0.909625 0.48055
0.536781 0.968452 0.480494
0.595251 0.780355 0.479634
0.596707 0.846912 0.479596
0.599108 0.905979 0.480556
0.594807 0.972124 0.480482
0.661254 0.784421 0.479663
0.660058 0.842998 0.479571
0.657479 0.909503 0.480542
0.661866 0.96853 0.48046
0.72025 0.780284 0.479661
0.721692 0.846924 0.479634
0.72421 0.905961 0.480495
0.719637 0.971998 0.480487
0.503708 0.780145 0.273526
0.503895 0.848183 0.273698
0.503904 0.905012 0.276509
0.503822 0.973277 0.273916
0.566229 0.785871 0.275372
0.566345 0.842398 0.27493
0.566395 0.910664 0.274031
0.566308 0.967816 0.276434
0.628724 0.780068 0.273595
0.628859 0.848253 0.273627
0.62895 0.905093 0.276592
0.628812 0.973311 0.273963
0.691199 0.785798 0.275342
0.69134 0.842399 0.274907
0.691353 0.910639 0.274085
0.691342 0.967815 0.276365
0.503625 0.785758 0.312737
0.503678 0.842468 0.31223
0.503759 0.910779 0.31131
0.50369 0.967995 0.313728
0.566165 0.780209 0.310716
0.56625 0.848279 0.311009
0.566357 0.905277 0.313823
0.566226 0.973308 0.311295
0.628656 0.785754 0.31269
0.628711 0.842504 0.312235
0.628814 0.910877 0.31128
0.628762 0.967954 0.313746
0.691135 0.780232 0.310785
0.691312 0.848345 0.310969
0.691277 0.905145 0.313856
0.691225 0.973384 0.311185
0.503557 0.780203 0.347919
0.503681 0.848306 0.348347
0.503705 0.905043 0.351192
0.503603 0.97336 0.348533
0.56607 0.785767 0.350038
0.566125 0.8424 0.349443
0.566185 0.910878 0.348688
0.566211 0.967972 0.35108
0.628549 0.780232 0.34803
0.628706 0.848305 0.348392
0.628718 0.905168 0.351218
0.628683 0.973335 0.348584
0.691029 0.785767 0.350123
0.691217 0.84238 0.349388
0.691185 0.910778 0.348604
0.691164 0.967995 0.351068
0.50347 0.785731 0.387379
0.503469 0.842298 0.386616
0.503596 0.910831 0.385982
0.50353 0.967845 0.388437
0.565957 0.780033 0.385305
0.566076 0.848283 0.385669
0.566097 0.904882 0.388456
0.566022 0.973347 0.385909
0.628468 0.785748 0.387347
0.62855 0.842218 0.38655
0.628577 0.910806 0.385979
0.628547 0.967958 0.388349
0.691007 0.780086 0.385367
0.691111 0.8484 0.385771
0.69113 0.905095 0.388471
0.691067 0.973429 0.3859
0.50338 0.780018 0.422559
0.503465 0.848272 0.423092
0.503455 0.90506 0.42583
0.503423 0.973306 0.423182
0.565883 0.785607 0.424691
0.565948 0.842291 0.423764
0.566026 0.910783 0.423411
0.565934 0.968071 0.425796
0.628365 0.78 0.42249
0.628534 0.848168 0.423105
0.628439 0.905131 0.425844
0.62843 0.973338 0.423239
0.690837 0.785526 0.42467
0.69096 0.842451 0.423795
0.691012 0.910847 0.423357
0.690984 0.968092 0.425666
0.503205 0.785556 0.462001
0.503279 0.84237 0.461046
0.503346 0.910932 0.460813
0.503339 0.967978 0.463182
0.565729 0.780053 0.459925
0.565762 0.84826 0.460566
0.565844 0.905095 0.463205
0.565914 0.973493 0.460543
0.628228 0.785644 0.462029
0.628338 0.842421 0.461043
0.628353 0.910831 0.460687
0.628373 0.967993 0.463182
0.690707 0.780022 0.459856
0.690823 0.848215 0.460535
0.690906 0.905084 0.463205
0.690776 0.973519 0.460464
0.503102 0.77989 0.497165
0.503192 0.84822 0.497971
0.628071 0.77999 0.497234
0.628161 0.84821 0.497994
0.690644 0.785534 0.499345
0.690786 0.910963 0.498085
0.565617 0.785546 0.499325
0.565792 0.910907 0.498133
0.656297 0.813699 0.4995
0.565652 0.842338 0.498296
0.599838 0.939233 0.498093
0.7188 0.876428 0.499623
0.50327 0.973537 0.497921
0.531215 0.813676 0.499543
0.628302 0.973481 0.497884
0.690684 0.842287 0.498359
0.724902 0.939249 0.498076
0.593893 0.750897 0.499385
0.718936 0.750945 0.499366
0.593942 0.876443 0.499697
0.721085 0.750217 0.572979
0.53167 0.750685 0.53655
0.53679 0.813604 0.534693
0.531508 0.876616 0.537036
0.537248 0.939703 0.535704
0.598873 0.750726 0.53467
0.594079 0.813615 0.536556
0.599553 0.876772 0.535418
0.594432 0.939674 0.537359
0.65673 0.750633 0.536497
0.661635 0.813611 0.534666
0.656709 0.876627 0.537051
0.66214 0.939685 0.535724
0.723795 0.750649 0.534731
0.719004 0.813498 0.536585
0.724505 0.876711 0.535432
0.71947 0.939632 0.537341
0.535175 0.750482 0.572012
0.533063 0.813516 0.573073
0.536559 0.876981 0.572161
0.531357 0.940455 0.574405
0.59613 0.750258 0.57296
0.598228 0.813533 0.572074
0.594483 0.87693 0.573349
0.600261 0.940353 0.573376
0.65998 0.75039 0.572091
0.657975 0.813415 0.573102
0.661583 0.876983 0.572193
0.656242 0.940344 0.574359
0.723069 0.813463 0.572033
0.719455 0.876764 0.573335
0.725124 0.940299 0.573478
0.535128 0.813228 0.610591
0.533042 0.877023 0.611457
0.534996 0.940622 0.612524
0.595872 0.813189 0.610928
0.597873 0.877057 0.610945
0.595924 0.940616 0.613031
0.660179 0.813196 0.610574
0.658047 0.876989 0.611414
0.65989 0.940571 0.612616
0.720738 0.81302 0.610899
0.722524 0.876925 0.611008
0.720984 0.940438 0.61304
0.534198 0.813103 0.649378
0.53458 0.877138 0.649524
0.534163 0.940609 0.652119
0.597232 0.81314 0.649345
0.596682 0.877048 0.649826
0.597083 0.940614 0.652097
0.65916 0.813098 0.649467
0.659312 0.877121 0.649594
0.659141 0.940493 0.652299
0.72187 0.750247 0.650418
0.721973 0.813009 0.649364
0.721236 0.876756 0.649651
0.72194 0.940525 0.652039
0.534479 0.751161 0.690866
0.534334 0.813721 0.689295
0.535466 0.876659 0.689749
0.534533 0.938728 0.693157
0.596804 0.751106 0.690871
0.596957 0.813399 0.689328
0.596496 0.877007 0.691189
0.596855 0.938689 0.69316
0.65944 0.751081 0.690908
0.65932 0.81341 0.689287
0.659328 0.876936 0.691322
0.658993 0.938679 0.693191
0.721736 0.751108 0.690949
0.721928 0.813697 0.689568
0.720795 0.876623 0.689757
0.721313 0.938679 0.692959
0.534381 0.751364 0.731958
0.533951 0.813677 0.731362
0.533458 0.876118 0.734383
0.534472 0.938057 0.735271
0.596685 0.751526 0.731947
0.596562 0.813682 0.731487
0.596693 0.876085 0.735434
0.596831 0.937882 0.735177
0.659349 0.751545 0.731965
0.659343 0.81365 0.731468
0.659363 0.876117 0.73548
0.659206 0.937853 0.734873
0.721718 0.751439 0.731941
0.72223 0.813881 0.731349
0.722396 0.875876 0.733105
0.721322 0.938247 0.734949
0.532731 0.780108 0.516945
0.534433 0.846956 0.517001
0.53644 0.906143 0.517946
0.532353 0.972274 0.517929
0.598572 0.783831 0.516986
0.597234 0.843453 0.516998
0.595056 0.909495 0.517913
0.59904 0.96903 0.517905
0.657746 0.780096 0.516951
0.659382 0.846857 0.516979
0.661436 0.906142 0.517902
0.657278 0.972172 0.517917
0.723724 0.783762 0.517004
0.722125 0.843393 0.51698
0.720017 0.90932 0.517896
0.724112 0.969045 0.517882
0.535916 0.783092 0.554364
0.534393 0.843482 0.554289
0.53282 0.909718 0.555289
0.536059 0.970187 0.555506
0.595539 0.780613 0.554322
0.597279 0.846081 0.554415
0.598452 0.907432 0.555296
0.595079 0.972342 0.555608
0.660886 0.782943 0.554374
0.659318 0.8435 0.554342
0.657882 0.909757 0.555299
0.660956 0.970144 0.555503
0.720428 0.780576 0.554328
0.722325 0.845994 0.55439
0.723514 0.907324 0.555304
0.720089 0.972178 0.555566
0.53332 0.781629 0.592135
0.534735 0.846483 0.592079
0.535337 0.909182 0.592978
0.533022 0.973116 0.593458
0.597812 0.782611 0.592177
0.596552 0.845555 0.592025
0.595658 0.910217 0.593031
0.597929 0.971925 0.593523
0.658337 0.78157 0.592247
0.659642 0.846521 0.591989
0.660306 0.909201 0.592984
0.658042 0.972976 0.593505
0.722799 0.782494 0.592163
0.721648 0.845419 0.592038
0.720683 0.909927 0.592993
0.722852 0.971845 0.593481
0.535032 0.782162 0.630478
0.534186 0.845784 0.630098
0.533536 0.909835 0.631405
0.534721 0.97187 0.632116
0.596393 0.781959 0.630382
0.59728 0.84613 0.630106
0.597442 0.909416 0.631507
0.596216 0.972376 0.63222
0.659923 0.7822 0.630513
0.659104 0.845655 0.630063
0.658571 0.909769 0.631485
0.659929 0.971681 0.632242
0.72139 0.781654 0.63048
0.721802 0.845893 0.630019
0.722178 0.909316 0.6315
0.721283 0.972295 0.632195
0.534294 0.782002 0.669813
0.534681 0.846372 0.668432
0.534681 0.908941 0.671253
0.534327 0.970881 0.672983
0.597331 0.782185 0.669819
0.596702 0.846163 0.668652
0.596575 0.908633 0.671485
0.596604 0.971 0.67302
0.658972 0.781957 0.669816
0.659776 0.846471 0.668593
0.659354 0.908164 0.671624
0.659273 0.97087 0.673054
0.721984 0.782193 0.669998
0.721814 0.845834 0.668677
0.721341 0.908804 0.671217
0.721775 0.970772 0.67296
0.534342 0.782964 0.710641
0.533045 0.846336 0.708896
0.534932 0.906168 0.714293
0.534384 0.969178 0.714585
0.596574 0.783186 0.710706
0.596806 0.844915 0.709107
0.59692 0.9052 0.714527
0.596965 0.969245 0.714565
0.659428 0.782964 0.710756
0.659126 0.844686 0.709331
0.65925 0.905032 0.714353
0.658869 0.969438 0.714433
0.721787 0.782981 0.71073
0.72263 0.846269 0.70922
0.720449 0.906683 0.714016
0.721829 0.969274 0.714267
0.503305 0.90507 0.500546
0.565773 0.968258 0.500545
0.628275 0.905094 0.500546
0.534579 0.750262 0.650195
0.690713 0.968274 0.500631
0.503098 0.785158 0.536529
0.50314 0.84275 0.535408
0.503167 0.911169 0.535659
0.503108 0.968997 0.537944
0.565517 0.780269 0.534577
0.565743 0.848131 0.535499
0.565677 0.905685 0.537807
0.565727 0.973811 0.535591
0.628074 0.785035 0.53645
0.628166 0.842956 0.53543
0.628199 0.911117 0.53562
0.628192 0.96897 0.537979
0.690541 0.780172 0.53452
0.690704 0.848065 0.535539
0.690691 0.905747 0.537785
0.690704 0.973754 0.53554
0.503163 0.781335 0.57196
0.503224 0.847586 0.572915
0.503132 0.906963 0.574777
0.503094 0.976023 0.573269
0.565722 0.78354 0.573436
0.565665 0.844176 0.57257
0.565548 0.91243 0.573134
0.565601 0.969155 0.575382
0.628121 0.781369 0.571996
0.628197 0.847548 0.572949
0.628133 0.906922 0.574687
0.628121 0.976023 0.573344
0.69062 0.783413 0.573524
0.690686 0.844132 0.572581
0.690633 0.912387 0.573138
0.690554 0.969037 0.575314
0.503241 0.783009 0.611489
0.503169 0.845118 0.610723
0.502936 0.910969 0.611648
0.502848 0.972125 0.613368
0.565631 0.781557 0.610566
0.565611 0.847177 0.61117
0.565466 0.909003 0.612782
0.565387 0.973723 0.612373
0.628163 0.783353 0.611535
0.628119 0.845125 0.610689
0.627926 0.91089 0.611714
0.627934 0.972231 0.613415
0.690652 0.781367 0.610603
0.690593 0.847046 0.611035
0.690425 0.909163 0.612662
0.690442 0.973499 0.612433
0.503176 0.781801 0.649641
0.503079 0.846208 0.649285
0.502957 0.909868 0.651193
0.502993 0.971937 0.652307
0.565761 0.782001 0.649888
0.565649 0.845726 0.648935
0.565539 0.91038 0.650685
0.565427 0.971624 0.652562
0.628158 0.781676 0.64951
0.628158 0.846533 0.649562
0.628012 0.909732 0.651485
0.628022 0.971942 0.652393
0.690707 0.781991 0.649948
0.690698 0.845686 0.649065
0.690465 0.910292 0.650786
0.690569 0.971551 0.652701
0.503157 0.782636 0.690271
0.503139 0.84588 0.687963
0.503136 0.908636 0.691373
0.503112 0.969958 0.693499
0.565631 0.782725 0.690146
0.565604 0.845689 0.688804
0.565654 0.908099 0.692652
0.565485 0.970076 0.693588
0.628112 0.78252 0.690307
0.628108 0.846098 0.688878
0.627941 0.907755 0.692677
0.627919 0.969955 0.693515
0.69055 0.782572 0.69021
0.690488 0.845673 0.689028
0.690394 0.90787 0.692619
0.690392 0.970138 0.693542
0.503054 0.782408 0.731703
0.503077 0.845497 0.730977
0.503023 0.907182 0.73501
0.503174 0.96935 0.735194
0.565451 0.782813 0.731617
0.565404 0.844578 0.73273
0.565486 0.906841 0.735376
0.565674 0.96933 0.735116
0.627986 0.782841 0.731816
0.627952 0.844524 0.732637
0.628018 0.906694 0.735368
0.628059 0.96925 0.735177
0.690597 0.782839 0.731634
0.690539 0.844351 0.732797
0.690395 0.906731 0.735372
0.690412 0.969488 0.734927
0.596838 0.750154 0.650252
0.65964 0.750172 0.650236
0.531887 0.939289 0.500107
0.597505 0.75001 0.611131
0.656871 0.93926 0.500079
0.534216 0.750919 0.773416
0.534418 0.81299 0.773676
0.534286 0.875928 0.77716
0.534555 0.938265 0.776657
0.597045 0.750968 0.773397
0.596751 0.812898 0.773679
0.596923 0.875988 0.777187
0.596901 0.938144 0.776723
0.659599 0.751028 0.77328
0.659584 0.81311 0.773513
0.659698 0.875972 0.776949
0.659774 0.938175 0.776778
0.721887 0.751078 0.773194
0.722463 0.813224 0.773258
0.723219 0.875968 0.775712
0.722161 0.938294 0.776559
0.534472 0.750832 0.814625
0.534393 0.812981 0.814707
0.534697 0.876129 0.817869
0.534496 0.938208 0.817826
0.597046 0.750819 0.814651
0.597174 0.812995 0.814746
0.596913 0.876097 0.817895
0.597238 0.938164 0.817712
0.659528 0.750754 0.814649
0.659704 0.812933 0.814687
0.659937 0.876071 0.817894
0.659666 0.938046 0.81768
0.722227 0.750877 0.814568
0.722133 0.812992 0.814653
0.722287 0.876028 0.818044
0.722363 0.938167 0.817847
0.534396 0.750578 0.855455
0.534618 0.812893 0.856133
0.534291 0.875971 0.859356
0.534648 0.938402 0.858513
0.597046 0.750607 0.855428
0.59695 0.812906 0.85609
0.597224 0.876001 0.85935
0.597015 0.938351 0.858708
0.659407 0.750619 0.855445
0.659687 0.812943 0.856192
0.659501 0.87594 0.859447
0.659612 0.938268 0.858589
0.722101 0.75067 0.855426
0.72193 0.812866 0.856193
0.722283 0.875858 0.859353
0.722227 0.938287 0.858692
0.534468 0.812088 0.896608
0.534693 0.876074 0.899032
0.534656 0.938977 0.898994
0.597119 0.812156 0.896465
0.596923 0.875917 0.899404
0.597262 0.938977 0.898823
0.659497 0.812108 0.896548
0.659482 0.876004 0.899058
0.659691 0.938959 0.899003
0.7221 0.812164 0.896428
0.722182 0.875944 0.899404
0.722177 0.938861 0.898819
0.535354 0.812157 0.935438
0.534564 0.875457 0.937972
0.535049 0.939272 0.937856
0.596681 0.812082 0.935929
0.597907 0.875621 0.937314
0.597645 0.939192 0.938304
0.660298 0.812205 0.935421
0.659644 0.875462 0.937947
0.660083 0.939223 0.937848
0.72168 0.812148 0.935922
0.722994 0.875561 0.937263
0.72261 0.939134 0.938292
0.531598 0.812206 0.975335
0.536953 0.875441 0.975368
0.534673 0.938614 0.976877
0.60017 0.81218 0.974064
0.595927 0.875368 0.976697
0.598252 0.93865 0.975768
0.656544 0.812126 0.975334
0.661962 0.87541 0.975376
0.659598 0.938576 0.976929
0.725081 0.812221 0.974103
0.721035 0.875351 0.97671
0.72344 0.938649 0.97575
0.536432 0.780018 0.993153
0.533516 0.844972 0.993448
0.536326 0.90607 0.994473
0.534007 0.971176 0.994699
0.596081 0.782704 0.993258
0.598997 0.842542 0.993404
0.596395 0.908838 0.994602
0.598776 0.968627 0.994664
0.66143 0.78002 0.993162
0.65847 0.845022 0.993411
0.661227 0.906142 0.994465
0.659141 0.971297 0.994701
0.721076 0.782676 0.993272
0.724043 0.842402 0.993465
0.721481 0.908843 0.994595
0.723744 0.968787 0.994569
0.534435 0.782577 0.752304
0.533354 0.843946 0.75254
0.534554 0.905578 0.756586
0.534431 0.969059 0.755927
0.59667 0.782573 0.752302
0.596854 0.843481 0.75294
0.596278 0.905636 0.75667
0.597084 0.969005 0.756053
0.65946 0.782996 0.752315
0.659015 0.8435 0.752876
0.659661 0.905664 0.756619
0.659462 0.969052 0.756012
0.721682 0.782661 0.752194
0.723093 0.84522 0.75223
0.721502 0.906489 0.75603
0.722052 0.969126 0.755826
0.53423 0.781598 0.794121
0.534767 0.843697 0.794688
0.534483 0.906241 0.79752
0.534508 0.969241 0.79715
0.597128 0.781794 0.794127
0.596579 0.843443 0.794457
0.597079 0.906217 0.797469
0.597153 0.969307 0.797117
0.659494 0.781693 0.793964
0.659755 0.843693 0.794366
0.660144 0.906004 0.797428
0.659884 0.969175 0.797114
0.722185 0.781889 0.793833
0.722851 0.844001 0.79398
0.722634 0.905833 0.7976
0.722394 0.968942 0.797186
0.534569 0.781686 0.835169
0.534174 0.84364 0.835424
0.534667 0.905963 0.838795
0.534537 0.969439 0.837818
0.59711 0.781734 0.835175
0.597278 0.84366 0.83549
0.596999 0.906111 0.838769
0.597049 0.969149 0.837949
0.659473 0.781962 0.83527
0.659696 0.843696 0.835384
0.659582 0.905782 0.838843
0.659355 0.969193 0.837876
0.722106 0.781654 0.835212
0.721907 0.843488 0.835493
0.72202 0.905896 0.83885
0.72209 0.969279 0.837962
0.534559 0.780954 0.876262
0.53475 0.84354 0.877135
0.534502 0.906775 0.879466
0.534755 0.969794 0.878287
0.597272 0.780849 0.876177
0.596985 0.843515 0.877049
0.59717 0.906324 0.879515
0.596958 0.970132 0.878252
0.659316 0.781059 0.876171
0.659502 0.84344 0.8772
0.659419 0.90685 0.879448
0.659885 0.969863 0.87828
0.722142 0.780899 0.876205
0.721924 0.84355 0.877137
0.722256 0.906256 0.879468
0.721961 0.969984 0.87819
0.53516 0.780131 0.916357
0.53438 0.843521 0.916929
0.535149 0.906488 0.918872
0.534447 0.970601 0.917878
0.596774 0.780735 0.916446
0.59761 0.842918 0.917062
0.596999 0.906944 0.918874
0.597561 0.970017 0.917925
0.66026 0.780314 0.916364
0.659422 0.843377 0.916911
0.660036 0.906466 0.918839
0.659604 0.970496 0.917913
0.721544 0.780708 0.916411
0.722679 0.84296 0.916944
0.721986 0.90701 0.918874
0.722479 0.96988 0.917897
0.533512 0.781175 0.955079
0.535827 0.842191 0.955677
0.534385 0.906754 0.956844
0.53555 0.969727 0.95665
0.59842 0.779644 0.955143
0.596389 0.843448 0.95568
0.598065 0.9056 0.956827
0.59695 0.970611 0.956686
0.658585 0.781093 0.955123
0.660824 0.842186 0.955737
0.659541 0.906793 0.956858
0.660663 0.969642 0.956644
0.723274 0.779805 0.955149
0.721527 0.843505 0.955696
0.723128 0.905555 0.956813
0.722099 0.970449 0.9567
0.503019 0.782072 0.773518
0.503074 0.843955 0.774986
0.503131 0.906907 0.77705
0.503159 0.969354 0.776402
0.565598 0.781808 0.773669
0.565542 0.844133 0.774502
0.565654 0.906723 0.777249
0.565714 0.969522 0.776414
0.628252 0.78205 0.773445
0.628081 0.844201 0.774793
0.628312 0.906865 0.777038
0.628373 0.969305 0.776531
0.690808 0.782242 0.773329
0.690897 0.844323 0.774419
0.691047 0.906632 0.777046
0.690889 0.969407 0.776482
0.503228 0.781716 0.814728
0.503202 0.844122 0.815685
0.503291 0.906832 0.818169
0.503299 0.969449 0.817538
0.565786 0.781871 0.814699
0.565818 0.843838 0.81577
0.565863 0.907019 0.818076
0.565871 0.969324 0.817492
0.628348 0.781786 0.814682
0.628391 0.84418 0.815527
0.628462 0.906689 0.818098
0.628464 0.969296 0.817383
0.690847 0.781768 0.814703
0.690952 0.844045 0.815425
0.691059 0.907011 0.818168
0.690946 0.969239 0.8176
0.503311 0.781543 0.855891
0.503275 0.843399 0.857153
0.503369 0.907062 0.859299
0.503364 0.969646 0.858206
0.565771 0.781405 0.855789
0.565824 0.843841 0.85692
0.565838 0.906738 0.859349
0.565801 0.969633 0.858146
0.628301 0.78164 0.855768
0.628364 0.843422 0.85709
0.628323 0.90704 0.859335
0.628349 0.969503 0.858204
0.690783 0.78141 0.855835
0.690756 0.843723 0.857115
0.690847 0.906792 0.859332
0.690844 0.969422 0.858121
0.503365 0.780424 0.896386
0.503449 0.843002 0.897271
0.503442 0.9072 0.899761
0.503415 0.970066 0.898311
0.565958 0.78071 0.896111
0.565909 0.842665 0.897571
0.565897 0.90729 0.899553
0.565928 0.97006 0.898482
0.62836 0.780555 0.896425
0.628284 0.84282 0.897323
0.628389 0.907142 0.899676
0.628447 0.969972 0.898383
0.690833 0.780848 0.896021
0.690927 0.842825 0.897559
0.690907 0.907078 0.899509
0.690974 0.970022 0.898429
0.503531 0.780469 0.935144
0.503676 0.842028 0.936811
0.503715 0.906664 0.937828
0.503674 0.970141 0.937814
0.565995 0.779356 0.93614
0.566134 0.843164 0.936038
0.566196 0.906484 0.938388
0.566117 0.969853 0.937481
0.628515 0.780535 0.935177
0.628678 0.842136 0.936821
0.628727 0.906595 0.937878
0.628659 0.970085 0.937881
0.690927 0.779431 0.936123
0.69116 0.843126 0.936048
0.691254 0.906408 0.938348
0.691214 0.969865 0.937481
0.50354 0.776838 0.975253
0.503763 0.845054 0.974016
0.503909 0.905513 0.976688
0.503921 0.969795 0.975755
0.566063 0.783533 0.973435
0.566181 0.840253 0.975532
0.566389 0.907422 0.975697
0.566409 0.969529 0.976711
0.628528 0.776755 0.975319
0.628745 0.845118 0.973975
0.628924 0.905511 0.976607
0.628928 0.969865 0.975726
0.691102 0.783581 0.973455
0.691231 0.840306 0.975607
0.691444 0.907325 0.975712
0.69141 0.969373 0.976639
0.783839 0.00104492 0.0146041
0.787667 0.0634676 0.013029
0.783921 0.125635 0.0148854
0.787803 0.187876 0.013265
0.850391 0.00105118 0.0125258
0.846407 0.0633928 0.0149268
0.850242 0.125616 0.0130373
0.846155 0.187996 0.014973
0.908836 9.886e-04 0.0145372
0.912834 0.0634733 0.0129924
0.90891 0.125625 0.0148825
0.912924 0.187904 0.0131567
0.97533 0.00107511 0.0126149
0.971444 0.0633813 0.0148607
0.975255 0.125589 0.0130575
0.971127 0.187932 0.0149558
0.788544 0.00102005 0.0498599
0.783368 0.0634422 0.0524643
0.788494 0.125841 0.050387
0.783171 0.188352 0.0524948
0.84575 0.00101879 0.0522537
0.850991 0.0633568 0.0501457
0.845826 0.125834 0.0525697
0.850995 0.188266 0.0501643
0.913709 9.74459e-04 0.0498909
0.908403 0.0634419 0.0524257
0.91354 0.125797 0.0503774
0.908154 0.188369 0.0524952
0.970788 0.00102755 0.052222
0.976074 0.0634027 0.0501626
0.97084 0.125883 0.0526366
0.975946 0.188333 0.0502165
0.783101 0.0010514 0.0896188
0.788351 0.0633933 0.0874535
0.783118 0.12593 0.0899009
0.788154 0.188515 0.0874536
0.851093 0.00103818 0.0872582
0.84577 0.063485 0.0897888
0.850718 0.125907 0.0874726
0.845621 0.188502 0.089842
0.908178 9.94634e-04 0.0896182
0.913439 0.0633931 0.0875046
0.908322 0.125948 0.0899119
0.913074 0.188541 0.0874175
0.976093 0.00103715 0.0872952
0.97083 0.0634675 0.0897914
0.975751 0.125926 0.0874232
0.970545 0.188609 0.0898071
0.788169 0.0012075 0.124706
0.783034 0.0636631 0.127117
0.787902 0.126106 0.124706
0.782834 0.188667 0.127125
0.845552 0.0012681 0.127074
0.850501 0.0636623 0.124656
0.845538 0.126075 0.127194
0.850349 0.188655 0.124666
0.913205 0.00117946 0.124625
0.908122 0.0635934 0.127132
0.912919 0.126069 0.124617
0.907834 0.18867 0.127127
0.970576 0.00117778 0.127092
0.975516 0.0635603 0.124711
0.97053 0.126074 0.127173
0.975389 0.188624 0.124663
0.782825 0.00131055 0.164448
0.787905 0.0637702 0.162029
0.782688 0.126234 0.16442
0.787869 0.188781 0.161951
0.850643 0.00135549 0.161941
0.845242 0.063783 0.16445
0.850457 0.126188 0.162019
0.845156 0.18879 0.164379
0.907886 0.00132253 0.164425
0.913079 0.0637322 0.162014
0.907789 0.126231 0.164428
0.912781 0.188779 0.161889
0.975688 0.00129569 0.162059
0.970358 0.0637681 0.164457
0.975374 0.126198 0.162044
0.97008 0.188761 0.164321
0.788087 0.0013723 0.199292
0.782836 0.0638345 0.20169
0.787919 0.126345 0.199272
0.782541 0.188928 0.20159
0.845236 0.00135643 0.201687
0.850438 0.063853 0.19936
0.845106 0.126359 0.201733
0.850233 0.188875 0.199223
0.91303 0.00135204 0.199252
0.907772 0.0638396 0.201695
0.912894 0.126335 0.199385
0.907511 0.188842 0.201541
0.970288 0.00133555 0.201706
0.9755 0.0638226 0.199326
0.970202 0.126304 0.201669
0.975211 0.188806 0.199241
0.782735 0.00138408 0.239051
0.787817 0.0638656 0.236562
0.782625 0.126403 0.238948
0.787722 0.188939 0.236492
0.850399 0.00137715 0.236497
0.845123 0.0638904 0.238934
0.850223 0.12638 0.236576
0.844884 0.188971 0.238735
0.907768 0.00135222 0.239017
0.91286 0.0638491 0.236618
0.907519 0.12638 0.238941
0.912671 0.188892 0.236575
0.975287 0.00141991 0.236571
0.970203 0.063845 0.238977
0.975282 0.126315 0.236633
0.969776 0.188875 0.238804
0.783831 0.034013 0.0324853
0.787161 0.0926904 0.0326681
0.783498 0.15841 0.0327342
0.787319 0.217529 0.032651
0.84935 0.0300838 0.0324369
0.846037 0.0962486 0.0326424
0.849579 0.154948 0.0326972
0.845863 0.221087 0.0326404
0.908848 0.0338379 0.0324443
0.912269 0.0927084 0.0326949
0.908609 0.158495 0.0326969
0.91225 0.21745 0.0326409
0.974557 0.0302049 0.0324399
0.971045 0.0962083 0.0326803
0.974584 0.154865 0.0327227
0.970871 0.221101 0.0326231
0.787342 0.0299655 0.0698574
0.783296 0.0963633 0.0700248
0.787301 0.155175 0.070099
0.783257 0.221576 0.0699653
0.846077 0.0338708 0.0699068
0.849978 0.0924943 0.0700218
0.845771 0.158929 0.0700477
0.849928 0.217566 0.0699325
0.912306 0.0300458 0.0698578
0.908323 0.0963321 0.0700258
0.912323 0.155104 0.0700871
0.908374 0.221542 0.0699304
0.971027 0.0338986 0.0699091
0.975101 0.0924362 0.0700292
0.970796 0.158954 0.0700284
0.974814 0.217643 0.0699634
0.783311 0.0341328 0.107227
0.787375 0.0925095 0.107304
0.7831 0.159165 0.107321
0.787229 0.217705 0.107248
0.849763 0.0300869 0.107228
0.845687 0.0966866 0.107284
0.84975 0.155041 0.107313
0.845593 0.221704 0.107207
0.90834 0.0340321 0.107162
0.912367 0.0925252 0.107307
0.908198 0.159136 0.107305
0.912195 0.217704 0.107225
0.974878 0.0300223 0.107259
0.970593 0.096611 0.107313
0.974762 0.155082 0.107298
0.970607 0.221757 0.107265
0.787297 0.0302793 0.144575
0.782819 0.0967748 0.144579
0.787167 0.155312 0.144564
0.782751 0.221851 0.144525
0.845503 0.0342997 0.144528
0.849878 0.0925936 0.144577
0.845439 0.159324 0.144567
0.849571 0.217797 0.144463
0.912305 0.0302911 0.144577
0.907956 0.096783 0.144585
0.912016 0.155142 0.144549
0.907838 0.221976 0.144465
0.970583 0.034261 0.144569
0.974851 0.0926669 0.144579
0.970434 0.159207 0.144569
0.974612 0.217767 0.144506
0.782854 0.0343918 0.181874
0.787399 0.0928529 0.181872
0.782782 0.159404 0.181805
0.786966 0.217893 0.181764
0.849797 0.0303451 0.181869
0.845103 0.096886 0.181881
0.849633 0.155276 0.181832
0.845263 0.22198 0.181707
0.907837 0.0342998 0.181839
0.912396 0.0929568 0.181871
0.907809 0.159233 0.181827
0.911947 0.217841 0.181722
0.974803 0.0302782 0.181903
0.970323 0.0968431 0.1819
0.974486 0.155315 0.181873
0.970194 0.221826 0.18175
0.787232 0.0304108 0.2192
0.782648 0.0969327 0.219146
0.787119 0.155498 0.219085
0.782698 0.222039 0.21904
0.845221 0.0344108 0.219137
0.84976 0.0929847 0.219119
0.84512 0.159434 0.219089
0.849426 0.218059 0.218988
0.912224 0.0303008 0.219187
0.907576 0.0967941 0.219156
0.912061 0.155491 0.219124
0.907554 0.221922 0.219012
0.970271 0.034459 0.219146
0.974723 0.0929124 0.219145
0.970106 0.159285 0.2191
0.974331 0.217933 0.219019
0.754213 0.0340475 0.0130197
0.754191 0.0927894 0.0148402
0.754116 0.159096 0.0130839
0.754163 0.217579 0.0150919
0.816721 0.0302355 0.0144031
0.81676 0.0965081 0.0129868
0.816714 0.155146 0.0148354
0.816609 0.221962 0.0129373
0.879276 0.0341428 0.0130262
0.87927 0.0927958 0.0148101
0.879157 0.159041 0.0130898
0.879206 0.217576 0.0150387
0.941737 0.0302457 0.0144862
0.941788 0.0966629 0.0129501
0.941765 0.155068 0.0147932
0.941654 0.221929 0.0129603
0.754308 0.0298726 0.0522851
0.754268 0.0975502 0.0502546
0.754242 0.155049 0.0526956
0.754156 0.222573 0.05018
0.816826 0.0350275 0.0502123
0.816818 0.0923732 0.0525476
0.816728 0.160053 0.0502917
0.816758 0.217389 0.052637
0.879418 0.0297832 0.0521833
0.879284 0.097483 0.0502228
0.879335 0.154867 0.0526118
0.87921 0.222596 0.0501873
0.941898 0.0350985 0.0501533
0.941872 0.0923913 0.0526097
0.941749 0.160128 0.050361
0.941769 0.217426 0.0525535
0.75426 0.0352158 0.0874198
0.754191 0.0924722 0.089969
0.754058 0.160139 0.0875615
0.754106 0.217612 0.0899541
0.816804 0.0298684 0.0897747
0.816659 0.0975775 0.0875071
0.816599 0.155049 0.0900131
0.816578 0.222756 0.087435
0.879307 0.0351744 0.0874549
0.879271 0.0925409 0.0900311
0.879076 0.160011 0.0875527
0.879095 0.217659 0.0899148
0.941827 0.0298931 0.0897303
0.941724 0.0974997 0.0874644
0.941642 0.155121 0.0899856
0.941594 0.222722 0.0874362
0.754119 0.0302914 0.127198
0.753992 0.0977224 0.124672
0.753874 0.15522 0.127331
0.753801 0.222812 0.124624
0.816596 0.0353688 0.124724
0.816463 0.0928199 0.127298
0.816369 0.160152 0.12482
0.816329 0.217665 0.12718
0.879131 0.0302299 0.127139
0.879017 0.097661 0.124767
0.878796 0.155245 0.127234
0.878876 0.222874 0.124641
0.941577 0.0352264 0.124727
0.941478 0.09273 0.127331
0.941358 0.160214 0.12482
0.941342 0.217678 0.127231
0.75394 0.0355604 0.161961
0.753832 0.0927562 0.164625
0.753766 0.160537 0.162024
0.753706 0.217734 0.164443
0.816414 0.0302669 0.164539
0.816379 0.0978571 0.161905
0.816269 0.155229 0.164562
0.816222 0.223046 0.161952
0.878946 0.0354701 0.16195
0.878905 0.0927694 0.164686
0.878719 0.160456 0.162013
0.878758 0.217801 0.164414
0.941506 0.0301851 0.164551
0.941395 0.0979389 0.16198
0.941236 0.155293 0.164521
0.941207 0.223049 0.161939
0.753908 0.0303144 0.201928
0.753847 0.0980058 0.199193
0.753752 0.155377 0.201831
0.753595 0.22313 0.199167
0.816384 0.0355663 0.199189
0.81632 0.0928267 0.201966
0.816242 0.160604 0.19919
0.816199 0.217877 0.201678
0.878917 0.0303017 0.201892
0.878813 0.0980748 0.199133
0.878714 0.155276 0.20182
0.878614 0.22312 0.199113
0.941399 0.035556 0.199223
0.941317 0.0928414 0.201951
0.941224 0.160486 0.199275
0.941094 0.217828 0.201744
0.753821 0.0354518 0.236584
0.753754 0.0928897 0.239225
0.753663 0.160516 0.236499
0.753442 0.217801 0.23899
0.816312 0.0303605 0.239142
0.816204 0.098042 0.236437
0.816143 0.155332 0.239137
0.816053 0.223238 0.236421
0.878792 0.0355575 0.236523
0.878713 0.0928344 0.239228
0.878582 0.160629 0.236445
0.878501 0.217952 0.239011
0.941273 0.0303935 0.239191
0.941194 0.0980224 0.236514
0.941147 0.155317 0.239061
0.940963 0.223173 0.236465
0.787912 0.0015205 0.273847
0.782606 0.0640256 0.276296
0.787746 0.126452 0.273956
0.782362 0.188919 0.276121
0.845099 0.00149883 0.276312
0.850317 0.0639297 0.273907
0.845034 0.126418 0.276211
0.850234 0.188916 0.2738
0.912897 0.00147797 0.273819
0.907632 0.0639543 0.276285
0.912769 0.126375 0.273884
0.907334 0.188884 0.276085
0.97015 0.00149782 0.276294
0.975305 0.0639331 0.27389
0.970105 0.126407 0.276184
0.975093 0.188911 0.273807
0.782555 0.00163381 0.313687
0.787757 0.0640778 0.311158
0.782527 0.126543 0.313581
0.787695 0.188979 0.311016
0.850231 0.00152432 0.311174
0.844991 0.0640846 0.313573
0.850188 0.12652 0.311172
0.84471 0.188969 0.31349
0.907585 0.00165634 0.313623
0.912649 0.0640252 0.311174
0.907377 0.126437 0.313501
0.912725 0.18892 0.311064
0.975385 0.00156736 0.311202
0.970106 0.0640731 0.313599
0.975169 0.126456 0.311198
0.969629 0.188893 0.313381
0.787722 0.00171792 0.348461
0.782379 0.0641872 0.35091
0.787646 0.126601 0.348545
0.782045 0.189087 0.350864
0.844929 0.00168491 0.350941
0.850264 0.0641134 0.348475
0.844791 0.126532 0.350851
0.850008 0.189014 0.348393
0.91277 0.00157979 0.348417
0.907415 0.0640841 0.350897
0.912599 0.126534 0.348531
0.906969 0.189002 0.35073
0.969873 0.00164369 0.350942
0.9752 0.0641278 0.34849
0.969684 0.126575 0.35089
0.97497 0.189068 0.348362
0.7823 0.00170673 0.388289
0.787505 0.0640896 0.385795
0.782145 0.126597 0.388232
0.7874 0.189083 0.385774
0.850146 0.00164921 0.385793
0.844679 0.0641449 0.388252
0.849906 0.126602 0.385821
0.844344 0.189123 0.388159
0.90727 0.00166532 0.388298
0.912521 0.0641336 0.385785
0.907058 0.126637 0.388154
0.912337 0.189076 0.385788
0.975083 0.00163309 0.385822
0.969685 0.0641588 0.388207
0.97492 0.126551 0.385872
0.969346 0.189106 0.388144
0.787391 0.00166242 0.423114
0.782193 0.0642292 0.425625
0.787276 0.126691 0.423138
0.781791 0.189298 0.425529
0.84467 0.00163823 0.42552
0.849905 0.0641744 0.423106
0.844463 0.126756 0.425631
0.849865 0.189264 0.423054
0.912394 0.00161832 0.423198
0.907198 0.0641415 0.425657
0.912329 0.126663 0.423124
0.906746 0.189181 0.425425
0.969646 0.00164826 0.425583
0.974791 0.064101 0.423136
0.969393 0.126675 0.425521
0.974761 0.189203 0.423085
0.782149 0.00174513 0.462882
0.787125 0.0643034 0.460472
0.782263 0.126884 0.462901
0.787125 0.189332 0.460454
0.849905 0.00173622 0.46056
0.844829 0.0643355 0.462931
0.849494 0.126862 0.460492
0.844514 0.189407 0.462909
0.907104 0.00172876 0.462833
0.912141 0.064306 0.460489
0.907284 0.126905 0.462977
0.912122 0.189403 0.460554
0.974822 0.00171744 0.460625
0.969702 0.064362 0.462915
0.974525 0.126837 0.460579
0.969375 0.189495 0.46283
0.940581 0.160958 0.498135
0.786874 0.127042 0.497888
0.912199 0.00194177 0.498075
0.849567 0.189372 0.497869
0.787276 0.00194642 0.49818
0.974547 0.189387 0.497921
0.782809 0.0346295 0.256467
0.787205 0.0930685 0.256409
0.78268 0.159376 0.256357
0.786793 0.218077 0.256292
0.849598 0.030444 0.256462
0.845186 0.0969088 0.256383
0.849422 0.155556 0.256383
0.845118 0.221887 0.256334
0.907666 0.0345392 0.256437
0.912146 0.0930264 0.256407
0.907596 0.159299 0.25636
0.911699 0.218036 0.25627
0.974642 0.0305311 0.256454
0.970175 0.0969184 0.256403
0.974449 0.155514 0.256391
0.970122 0.221957 0.256265
0.787074 0.0305456 0.293741
0.782642 0.0971656 0.293726
0.786738 0.155596 0.293718
0.782684 0.222199 0.293574
0.8451 0.0346684 0.293766
0.849479 0.0931191 0.293696
0.845195 0.159501 0.293642
0.848994 0.218018 0.29359
0.911985 0.0305902 0.293723
0.907607 0.0970689 0.293704
0.911651 0.155547 0.293684
0.90768 0.221998 0.293584
0.970251 0.0346834 0.293768
0.974435 0.0932073 0.29371
0.970176 0.159417 0.293657
0.973981 0.217998 0.293564
0.782649 0.0348971 0.331086
0.786776 0.0933296 0.33103
0.78259 0.159647 0.331024
0.786277 0.217889 0.330896
0.849399 0.0307002 0.331036
0.845027 0.0971485 0.331022
0.849017 0.155655 0.331008
0.845103 0.222149 0.330931
0.907709 0.034778 0.331073
0.911813 0.0932802 0.331058
0.907516 0.159518 0.330988
0.911286 0.217907 0.33087
0.974434 0.0306678 0.33107
0.970098 0.0972401 0.331058
0.973979 0.155536 0.331028
0.970096 0.222058 0.330886
0.786759 0.030636 0.368369
0.782473 0.097252 0.368363
0.786381 0.155693 0.368358
0.782503 0.222327 0.368241
0.845115 0.034911 0.36835
0.849112 0.0931853 0.368351
0.844823 0.159643 0.368368
0.848473 0.21798 0.368207
0.911761 0.0305338 0.368381
0.90739 0.0972162 0.368318
0.911487 0.155775 0.368307
0.907593 0.222182 0.368201
0.970118 0.0348052 0.368382
0.974178 0.0933664 0.368368
0.969909 0.159693 0.368328
0.973527 0.218034 0.368216
0.782499 0.0347881 0.405728
0.786634 0.0932174 0.40572
0.782295 0.159834 0.405697
0.785703 0.218195 0.405575
0.849115 0.0306734 0.405675
0.844784 0.0973021 0.405708
0.848763 0.155688 0.405666
0.845086 0.2224 0.405559
0.907487 0.03474 0.405719
0.911499 0.0932325 0.40569
0.907207 0.1597 0.405653
0.910752 0.218373 0.405576
0.974092 0.0306694 0.405701
0.969719 0.0971868 0.405689
0.973778 0.155751 0.405649
0.970017 0.222389 0.405573
0.786622 0.0306972 0.443051
0.782251 0.0974233 0.443024
0.786117 0.155836 0.442992
0.782687 0.22259 0.442911
0.844843 0.0347359 0.44307
0.848984 0.0932429 0.443031
0.844792 0.159975 0.442977
0.847995 0.218276 0.442942
0.911536 0.0307481 0.443055
0.907276 0.097453 0.443062
0.911098 0.155863 0.442994
0.907532 0.222447 0.4429
0.969836 0.0346919 0.443083
0.974048 0.0933938 0.443024
0.969817 0.159817 0.442981
0.973011 0.218438 0.442917
0.782351 0.0347699 0.480468
0.786307 0.0934175 0.480386
0.782305 0.160055 0.480383
0.785106 0.218322 0.480353
0.849172 0.0309975 0.480495
0.844825 0.0974933 0.480383
0.848517 0.155991 0.480362
0.845387 0.222582 0.48037
0.907271 0.0347585 0.480457
0.911474 0.093576 0.480412
0.907376 0.160078 0.480404
0.91032 0.218465 0.480346
0.974071 0.0310124 0.480444
0.969666 0.0973606 0.48043
0.973639 0.15612 0.480359
0.970284 0.222565 0.480411
0.753757 0.0304201 0.276449
0.753674 0.0981092 0.273761
0.753587 0.155407 0.276344
0.753523 0.223295 0.273753
0.816219 0.0356952 0.273865
0.816194 0.0929064 0.276442
0.816084 0.160581 0.27382
0.815969 0.2177 0.276194
0.87869 0.0304709 0.276481
0.878665 0.0980847 0.273773
0.878618 0.155347 0.276355
0.878433 0.223281 0.273821
0.941219 0.0355972 0.273873
0.941185 0.0928872 0.276413
0.941073 0.16049 0.273884
0.940942 0.21783 0.276143
0.753704 0.0358382 0.311167
0.753578 0.0931843 0.313704
0.753485 0.160685 0.31119
0.75336 0.217672 0.313468
0.816114 0.0304569 0.313854
0.816066 0.0982125 0.311127
0.816054 0.155406 0.313576
0.81592 0.223292 0.311194
0.878614 0.0356624 0.311215
0.878573 0.0930522 0.313702
0.878502 0.160694 0.311213
0.878379 0.217664 0.313425
0.941215 0.0305715 0.313762
0.941025 0.0981297 0.311168
0.941004 0.155323 0.313626
0.940909 0.223204 0.311136
0.753525 0.0306011 0.351023
0.753479 0.0984322 0.348487
0.753401 0.155547 0.350942
0.753192 0.223326 0.348446
0.816058 0.0359476 0.348503
0.815979 0.0930863 0.351016
0.815903 0.160732 0.348545
0.815677 0.217827 0.350677
0.878593 0.0304985 0.351039
0.878457 0.0983382 0.348457
0.878301 0.155503 0.351008
0.878204 0.223371 0.348489
0.941103 0.0358548 0.348519
0.941008 0.0929978 0.351033
0.940829 0.160858 0.348437
0.940699 0.217781 0.350672
0.753488 0.0359048 0.385817
0.753366 0.0930922 0.388355
0.753198 0.160755 0.385866
0.753026 0.217748 0.387973
0.81595 0.030499 0.388276
0.815871 0.0982888 0.38577
0.815704 0.155481 0.388332
0.815515 0.223408 0.385911
0.878486 0.0358406 0.385841
0.878323 0.0930374 0.388393
0.87819 0.160765 0.385839
0.87806 0.217711 0.387885
0.940945 0.0305068 0.388325
0.940762 0.0982514 0.385789
0.940689 0.155416 0.388304
0.940513 0.223388 0.385876
0.75336 0.0307159 0.425728
0.753268 0.0984172 0.423158
0.753101 0.155645 0.425546
0.752896 0.223502 0.423395
0.81584 0.0358643 0.423177
0.815746 0.0931232 0.425747
0.815631 0.160921 0.423248
0.815468 0.217932 0.425186
0.878332 0.0306009 0.425694
0.878184 0.0984254 0.42322
0.878079 0.155517 0.425564
0.877938 0.223641 0.423376
0.940851 0.0358173 0.423181
0.940647 0.0931673 0.425752
0.940528 0.160853 0.423208
0.940448 0.217852 0.425163
0.753352 0.0358423 0.460519
0.753229 0.0935672 0.46303
0.753025 0.160835 0.460594
0.752956 0.218174 0.462433
0.815828 0.0308928 0.463093
0.815684 0.0982489 0.460552
0.815543 0.155921 0.462858
0.81545 0.223482 0.460814
0.878313 0.0359072 0.460578
0.878231 0.0935459 0.463095
0.878064 0.160843 0.46064
0.878011 0.218121 0.462513
0.94078 0.0308126 0.463085
0.940645 0.0982852 0.460523
0.940603 0.155985 0.462884
0.940413 0.223667 0.460841
0.877997 0.223412 0.498626
0.878203 0.0984321 0.497979
0.753189 0.098449 0.498034
0.940701 0.0359783 0.497974
0.849615 0.0645382 0.497955
0.815732 0.03604 0.498003
0.974473 0.064519 0.498052
0.911942 0.127042 0.497918
0.815543 0.160784 0.498141
0.940404 0.218247 0.499825
0.752974 0.223378 0.498695
0.81544 0.21812 0.499759
0.784276 0.249888 0.65355
0.907098 0.189426 0.50026
0.782287 0.00239307 0.537606
0.786655 0.0647578 0.535857
0.782706 0.126834 0.537921
0.786641 0.188814 0.535854
0.849347 0.00235745 0.535886
0.845076 0.0647112 0.53774
0.849075 0.126851 0.535793
0.845074 0.188753 0.538005
0.907309 0.00235095 0.537617
0.911582 0.0647936 0.535888
0.907679 0.126843 0.537834
0.911679 0.188822 0.535956
0.974274 0.00228648 0.535815
0.970022 0.0646994 0.537663
0.974037 0.126883 0.535873
0.97013 0.188776 0.53797
0.788338 0.00280968 0.573714
0.781125 0.0649427 0.575388
0.788795 0.126668 0.573926
0.781248 0.188118 0.575834
0.843323 0.00279996 0.574973
0.851147 0.064909 0.573901
0.843717 0.126525 0.575568
0.851238 0.188073 0.574131
0.913352 0.00277087 0.573666
0.905991 0.0649418 0.575306
0.913818 0.126655 0.574013
0.906152 0.188128 0.575837
0.968359 0.00277904 0.574793
0.976081 0.0649789 0.573915
0.968534 0.126609 0.575559
0.976336 0.188222 0.574141
0.7837 0.00318585 0.613808
0.784575 0.0649485 0.61372
0.784174 0.126319 0.614674
0.784949 0.187658 0.614023
0.783892 0.249413 0.614446
0.847224 0.00314804 0.613299
0.846648 0.0649088 0.614295
0.847191 0.126311 0.614014
0.846642 0.187676 0.6146
0.847401 0.249388 0.613898
0.908784 0.00303747 0.613697
0.909481 0.0649577 0.613788
0.90906 0.126317 0.614714
0.909847 0.1877 0.614028
0.908874 0.249512 0.61446
0.97205 0.00315124 0.613255
0.971394 0.0649127 0.614234
0.972154 0.126288 0.614134
0.971562 0.187708 0.614641
0.972418 0.249396 0.613988
0.784456 0.00224805 0.652991
0.784314 0.0641113 0.65399
0.784321 0.126099 0.65417
0.784132 0.188046 0.654205
0.846858 0.00225639 0.653156
0.847006 0.0640403 0.65382
0.846653 0.126003 0.654299
0.846887 0.187981 0.654133
0.909414 0.00229543 0.652945
0.909245 0.0641134 0.653843
0.909314 0.126 0.654229
0.909152 0.188018 0.654219
0.971746 0.00225531 0.653113
0.972033 0.0641426 0.653861
0.971718 0.126052 0.65424
0.971784 0.188005 0.654144
0.784082 9.68365e-04 0.693865
0.784163 0.0633255 0.694216
0.784341 0.125839 0.694601
0.784224 0.188352 0.694465
0.84681 0.00106962 0.693747
0.846674 0.0633776 0.69429
0.846727 0.125884 0.694479
0.846757 0.188367 0.69458
0.909348 0.00102796 0.693714
0.909307 0.0634496 0.694234
0.909275 0.126027 0.694506
0.909312 0.188448 0.694552
0.971775 0.0010646 0.693691
0.971862 0.0635155 0.694184
0.971683 0.125975 0.694473
0.971746 0.18833 0.694553
0.784228 6.51877e-04 0.734742
0.784504 0.0630785 0.734852
0.784512 0.125779 0.735057
0.78441 0.188466 0.735164
0.847093 6.38579e-04 0.73474
0.846905 0.0631315 0.734986
0.846955 0.125844 0.735073
0.846933 0.188511 0.735036
0.909618 6.69194e-04 0.734811
0.909492 0.0632099 0.734895
0.909398 0.125842 0.735051
0.909499 0.188493 0.735127
0.971936 7.37923e-04 0.734628
0.971946 0.0632003 0.734841
0.971886 0.125789 0.735048
0.971853 0.188414 0.735181
0.786353 0.0316277 0.517909
0.782349 0.0975391 0.517888
0.78588 0.155956 0.517919
0.783534 0.222181 0.517987
0.844832 0.0348445 0.517934
0.848656 0.0938765 0.517862
0.845126 0.159918 0.51789
0.847072 0.217992 0.517973
0.911412 0.0315613 0.517956
0.907319 0.0975699 0.517903
0.910765 0.156131 0.517901
0.908389 0.222145 0.517969
0.969689 0.034854 0.51792
0.973796 0.0939745 0.517886
0.970026 0.159772 0.517887
0.972095 0.218154 0.518003
0.782604 0.0348574 0.555736
0.785378 0.0941304 0.555833
0.783119 0.159221 0.555928
0.783953 0.217942 0.556043
0.848275 0.0321612 0.555731
0.845212 0.0969672 0.555863
0.847575 0.156024 0.555926
0.846682 0.221028 0.556065
0.90749 0.0347556 0.555771
0.910541 0.0942965 0.555843
0.908154 0.159018 0.555927
0.908875 0.218001 0.556105
0.973321 0.032301 0.555688
0.970108 0.0969688 0.555811
0.972588 0.15617 0.555944
0.971608 0.220892 0.556032
0.785365 0.03351 0.59379
0.783496 0.0969658 0.594067
0.784833 0.156081 0.594209
0.785042 0.219353 0.594232
0.845697 0.0351409 0.593819
0.847791 0.0948934 0.594007
0.846587 0.157996 0.594139
0.846467 0.217685 0.594246
0.910436 0.0335516 0.593778
0.908536 0.0968291 0.594125
0.909877 0.156105 0.594252
0.909938 0.219378 0.594259
0.970755 0.0351235 0.593765
0.972582 0.0950608 0.594083
0.97169 0.157941 0.594239
0.97148 0.217668 0.59429
0.783847 0.0343735 0.633143
0.78468 0.0951285 0.633844
0.784361 0.157179 0.633926
0.784083 0.218036 0.63356
0.847334 0.0336331 0.633106
0.846367 0.095673 0.633791
0.846958 0.156669 0.63398
0.847184 0.2186 0.633633
0.908881 0.0340945 0.633067
0.90964 0.0953589 0.633743
0.909335 0.157147 0.633965
0.909007 0.218257 0.633591
0.972283 0.0338161 0.63312
0.971589 0.0955689 0.633768
0.97195 0.156786 0.633958
0.971983 0.218572 0.633632
0.784331 0.0324601 0.673748
0.784149 0.0949606 0.674162
0.784186 0.156926 0.674329
0.784327 0.219442 0.674148
0.846781 0.0327661 0.673721
0.846872 0.0947238 0.674149
0.846645 0.157036 0.674267
0.846566 0.219087 0.6741
0.90948 0.0327595 0.673639
0.909162 0.0949438 0.674149
0.909301 0.157128 0.674258
0.909148 0.219357 0.674108
0.971692 0.032744 0.673639
0.971995 0.094991 0.674123
0.97182 0.157109 0.674261
0.97166 0.21919 0.674115
0.784146 0.031836 0.714464
0.784419 0.0945335 0.714718
0.784347 0.157264 0.71485
0.784166 0.219531 0.714792
0.846842 0.0320347 0.714468
0.846757 0.0944699 0.714677
0.846821 0.157216 0.714783
0.847126 0.219846 0.714736
0.909372 0.032123 0.714449
0.909458 0.0946891 0.714621
0.909458 0.157159 0.714757
0.909291 0.219921 0.714801
0.971806 0.0320066 0.714345
0.971884 0.0946345 0.714672
0.971748 0.157092 0.714823
0.971767 0.219556 0.714752
0.753239 0.03102 0.50047
0.815659 0.0938227 0.500328
0.87825 0.0310458 0.500521
0.909363 0.249927 0.653677
0.940654 0.0938504 0.500541
0.75315 0.0360475 0.535724
0.753085 0.0941681 0.537883
0.753025 0.159777 0.536139
0.752974 0.217632 0.537184
0.815636 0.031683 0.538036
0.815611 0.0981141 0.535896
0.815577 0.156082 0.537784
0.815492 0.221866 0.536882
0.87815 0.0359972 0.535761
0.878095 0.0942011 0.537903
0.878078 0.159961 0.536162
0.87799 0.217517 0.537194
0.94061 0.0317937 0.538023
0.940614 0.0980614 0.535889
0.940553 0.156086 0.537765
0.940477 0.221806 0.536871
0.753068 0.031032 0.575408
0.753228 0.100112 0.573909
0.75321 0.15346 0.575014
0.753205 0.221963 0.575176
0.815646 0.0384674 0.573575
0.815684 0.0924603 0.575457
0.815742 0.161023 0.574334
0.815655 0.214528 0.574459
0.878087 0.0308944 0.575491
0.878264 0.100085 0.57393
0.878258 0.153537 0.575005
0.878127 0.22203 0.575229
0.940641 0.0384846 0.57355
0.940662 0.092423 0.575451
0.940708 0.16118 0.574347
0.940689 0.214632 0.574518
0.752937 0.03501 0.613152
0.752992 0.0955385 0.614386
0.75305 0.157184 0.614106
0.75309 0.217721 0.613911
0.815489 0.0341944 0.613933
0.815531 0.0959598 0.613769
0.8156 0.156511 0.614332
0.815633 0.218567 0.614309
0.87802 0.0349046 0.613169
0.877962 0.0956874 0.614406
0.878056 0.157006 0.6141
0.878102 0.217764 0.613913
0.940444 0.0341549 0.613929
0.940451 0.0961399 0.613859
0.940558 0.156574 0.614329
0.940533 0.218693 0.614319
0.753095 0.0333107 0.653559
0.753058 0.09511 0.654013
0.753031 0.15687 0.654232
0.753034 0.21885 0.653884
0.815555 0.0335072 0.653283
0.815554 0.0950108 0.654189
0.815478 0.157087 0.654216
0.815407 0.218696 0.653779
0.878099 0.0333006 0.653477
0.878012 0.0952124 0.65394
0.878023 0.156911 0.65424
0.878001 0.218841 0.653959
0.940611 0.0335704 0.653224
0.940537 0.0951113 0.654054
0.940493 0.15706 0.654154
0.940447 0.218675 0.653835
0.752893 0.0321284 0.69408
0.752957 0.0946562 0.694526
0.753018 0.15691 0.694684
0.752979 0.219467 0.69451
0.815454 0.0322271 0.69409
0.815495 0.0946188 0.694456
0.815517 0.157099 0.694664
0.815546 0.219538 0.69453
0.878006 0.0323773 0.694021
0.878009 0.0946567 0.694565
0.877965 0.157162 0.694593
0.878005 0.219477 0.694506
0.940506 0.0324175 0.694026
0.94048 0.0947255 0.69444
0.940494 0.15712 0.694606
0.940466 0.219585 0.69449
0.753038 0.0319704 0.734974
0.753224 0.0944171 0.735093
0.753171 0.157048 0.735176
0.753126 0.219711 0.735192
0.815694 0.031803 0.734902
0.81573 0.0945029 0.735118
0.815695 0.157162 0.735226
0.815753 0.219741 0.73513
0.878238 0.031982 0.73488
0.878185 0.0944449 0.735063
0.878152 0.15724 0.735121
0.87814 0.219729 0.73523
0.940731 0.0319844 0.734883
0.94069 0.0944759 0.735092
0.940623 0.157117 0.735252
0.940598 0.219794 0.735233
0.878042 0.156134 0.500279
0.846706 0.249838 0.653772
0.753034 0.156212 0.500294
0.969746 0.127092 0.500165
0.782092 0.1894 0.500286
0.971629 0.249982 0.653737
0.788615 0.249928 0.574179
0.913459 0.249898 0.574261
0.844819 0.126999 0.500228
0.843711 0.249863 0.575729
0.782269 0.06454 0.500237
0.969593 0.00190518 0.500132
0.907318 0.0645608 0.50022
0.844561 0.00186701 0.500183
0.968708 0.249874 0.575722
0.784534 7.44787e-04 0.776068
0.784513 0.063248 0.775934
0.784636 0.125879 0.775795
0.784455 0.188486 0.77601
0.84714 7.05842e-04 0.776076
0.847094 0.0632262 0.775827
0.84706 0.125948 0.775887
0.847098 0.188524 0.775974
0.909629 6.8932e-04 0.77595
0.909468 0.0632685 0.775935
0.909487 0.125898 0.775823
0.909616 0.18854 0.776004
0.972089 7.4125e-04 0.776018
0.972103 0.0633361 0.775856
0.972083 0.125939 0.775913
0.972068 0.188541 0.776002
0.784619 8.57015e-04 0.817131
0.784628 0.063432 0.816781
0.784727 0.126103 0.816784
0.784735 0.188604 0.81694
0.847198 7.9161e-04 0.817017
0.847116 0.0635058 0.81688
0.84717 0.126125 0.81668
0.847388 0.188625 0.817015
0.909447 8.22825e-04 0.817101
0.909681 0.0634334 0.816776
0.909705 0.126064 0.816807
0.909759 0.188611 0.816974
0.972252 9.28499e-04 0.817113
0.972149 0.0634097 0.816844
0.972255 0.126099 0.816732
0.972227 0.188653 0.816975
0.78457 0.00102383 0.857791
0.784595 0.0635244 0.857379
0.784638 0.126037 0.857291
0.784757 0.188489 0.857697
0.847236 0.00103368 0.857713
0.847079 0.0636096 0.857331
0.847153 0.126102 0.857365
0.847332 0.18856 0.857638
0.909597 0.00106066 0.857817
0.909647 0.0636203 0.857399
0.909636 0.126017 0.857227
0.909687 0.188535 0.857626
0.972108 0.00103577 0.857797
0.972179 0.0635625 0.857373
0.972217 0.12604 0.857242
0.972286 0.188494 0.857662
0.784739 0.00139402 0.89802
0.784716 0.0637892 0.897725
0.784785 0.125955 0.897648
0.784791 0.188117 0.89814
0.847262 0.00147578 0.898119
0.847244 0.0638191 0.897632
0.847332 0.125931 0.897709
0.847413 0.188142 0.898082
0.909697 0.00146469 0.898028
0.909761 0.0638138 0.897725
0.909803 0.125911 0.897637
0.90988 0.18812 0.898028
0.97227 0.00136693 0.898164
0.972158 0.0637112 0.897611
0.972244 0.125908 0.897668
0.972231 0.188118 0.898029
0.78504 0.00170973 0.937641
0.784908 0.063826 0.937028
0.784955 0.125758 0.93745
0.785292 0.187765 0.937482
0.784721 0.249919 0.938126
0.84734 0.00170861 0.937286
0.847577 0.0637846 0.937464
0.847434 0.125767 0.93706
0.847256 0.187759 0.937773
0.8481 0.2499 0.937871
0.910152 0.00167788 0.937524
0.909812 0.0637057 0.937131
0.909943 0.125738 0.937502
0.910271 0.187737 0.937464
0.972637 0.00159381 0.937168
0.972556 0.0637588 0.937444
0.972637 0.125703 0.937054
0.972272 0.187686 0.937684
0.78537 0.00140265 0.975972
0.785055 0.0635263 0.976658
0.785467 0.125592 0.975901
0.784685 0.187689 0.976959
0.847618 0.00131466 0.97696
0.84782 0.0635528 0.975757
0.847274 0.125573 0.976831
0.848098 0.187661 0.976034
0.910416 0.00133874 0.975965
0.910102 0.0634992 0.976648
0.910351 0.125635 0.975919
0.909802 0.1877 0.976969
0.972717 0.00127453 0.976823
0.972889 0.0635433 0.975749
0.972447 0.125526 0.97674
0.973128 0.18761 0.976044
0.786131 0.031455 0.994717
0.783875 0.0956668 0.994887
0.786202 0.15544 0.995003
0.783672 0.219475 0.995088
0.846725 0.0339762 0.994775
0.848923 0.0931356 0.994881
0.846482 0.157658 0.994962
0.849096 0.21743 0.99511
0.911278 0.0314039 0.994719
0.908994 0.0955995 0.994875
0.9112 0.155306 0.994989
0.908766 0.219613 0.995081
0.971781 0.0338286 0.994747
0.973846 0.0931388 0.994834
0.971621 0.157635 0.994943
0.974125 0.21734 0.995077
0.784556 0.0317495 0.755607
0.784613 0.0942159 0.755518
0.78446 0.157474 0.755546
0.784536 0.219814 0.755701
0.847071 0.0317785 0.755565
0.847107 0.0946488 0.755519
0.847099 0.157342 0.755565
0.846943 0.219812 0.755674
0.90963 0.0319422 0.755588
0.909418 0.0944153 0.755497
0.909483 0.157352 0.755551
0.909556 0.219862 0.755714
0.972025 0.0318107 0.755508
0.972045 0.0945792 0.755484
0.972043 0.15716 0.755596
0.971901 0.220008 0.755715
0.784542 0.0318794 0.796599
0.784704 0.0947878 0.796453
0.784868 0.15735 0.796499
0.784643 0.219968 0.79673
0.847229 0.032287 0.796588
0.847124 0.0945439 0.796486
0.8472 0.157579 0.796496
0.847383 0.220028 0.796768
0.909575 0.0319758 0.796575
0.909644 0.0947613 0.796461
0.90991 0.157218 0.796529
0.909804 0.220161 0.796854
0.972138 0.0320323 0.796612
0.972126 0.0945515 0.79649
0.972169 0.157531 0.79654
0.972163 0.220162 0.79683
0.784578 0.0321836 0.837329
0.784607 0.0948225 0.837047
0.784637 0.15758 0.837248
0.784786 0.219989 0.837717
0.847075 0.0322546 0.837265
0.847168 0.0949062 0.837072
0.847285 0.157373 0.837233
0.847272 0.220038 0.837673
0.909657 0.0321364 0.837283
0.909511 0.094695 0.837047
0.909711 0.157425 0.837159
0.90965 0.22001 0.837675
0.972004 0.0321722 0.837257
0.972198 0.0947546 0.837037
0.972249 0.157485 0.837216
0.972371 0.22007 0.837669
0.784391 0.0324197 0.877686
0.784848 0.0949093 0.87739
0.784689 0.157194 0.877615
0.784827 0.219546 0.878182
0.84714 0.0324774 0.877652
0.846851 0.0949831 0.877391
0.847267 0.157385 0.877601
0.847197 0.219644 0.87827
0.909606 0.032443 0.877707
0.909802 0.0948529 0.877376
0.909734 0.157219 0.87754
0.909723 0.219492 0.878081
0.972169 0.0323926 0.877661
0.971952 0.0948777 0.87738
0.972256 0.157173 0.877539
0.97243 0.219529 0.878128
0.784949 0.0322967 0.917354
0.784503 0.0951007 0.9172
0.785161 0.156634 0.917423
0.784471 0.219279 0.917903
0.847025 0.0328923 0.917399
0.847482 0.0944317 0.917249
0.846951 0.15709 0.91743
0.847754 0.218918 0.917904
0.909914 0.0323214 0.917336
0.909506 0.0950474 0.917258
0.910217 0.156647 0.917432
0.909568 0.219217 0.917913
0.972271 0.0328591 0.917374
0.972502 0.0943054 0.917246
0.971945 0.157091 0.917388
0.972748 0.218896 0.91786
0.784617 0.0329981 0.956299
0.785544 0.0940558 0.956267
0.784433 0.157133 0.956457
0.785835 0.218722 0.956907
0.847943 0.0318079 0.956346
0.846976 0.0950644 0.956337
0.848108 0.156015 0.95647
0.846878 0.219715 0.956821
0.909711 0.032762 0.956299
0.91054 0.0941221 0.956289
0.909453 0.157107 0.956489
0.910861 0.218788 0.956858
0.973064 0.0317831 0.956283
0.971997 0.095024 0.956252
0.973126 0.156105 0.956447
0.972049 0.219488 0.956794
0.753297 0.0319394 0.776119
0.753368 0.094628 0.775995
0.753285 0.157133 0.776043
0.753325 0.219849 0.776106
0.815828 0.0319457 0.776034
0.815844 0.0945428 0.775971
0.815772 0.157244 0.775988
0.815813 0.219678 0.776136
0.878344 0.0319489 0.776049
0.87828 0.0946562 0.776052
0.878338 0.15735 0.776021
0.878321 0.219813 0.776099
0.940839 0.0320744 0.776016
0.940761 0.094587 0.775939
0.940817 0.157333 0.776026
0.940813 0.219871 0.776168
0.753411 0.0321654 0.816963
0.75345 0.0948026 0.816803
0.753465 0.157368 0.816868
0.753529 0.219896 0.817255
0.8159 0.0320566 0.816967
0.815853 0.0947732 0.816832
0.815954 0.157469 0.816941
0.81601 0.219931 0.817174
0.878397 0.0321543 0.817001
0.878407 0.0948114 0.81683
0.878555 0.1574 0.816897
0.878513 0.22007 0.817193
0.940839 0.0320221 0.816972
0.940886 0.0947566 0.816876
0.941065 0.157395 0.816968
0.941022 0.220077 0.817286
0.753324 0.0322182 0.857625
0.75337 0.0947603 0.857356
0.753453 0.157344 0.857509
0.753536 0.219874 0.858035
0.815886 0.0321282 0.857558
0.815855 0.0948274 0.857302
0.815997 0.157404 0.85748
0.81605 0.219883 0.858053
0.87838 0.0322614 0.857567
0.878298 0.0947602 0.85737
0.878452 0.157311 0.857474
0.87852 0.220039 0.858056
0.94086 0.03216 0.857594
0.9409 0.094747 0.857208
0.94095 0.157376 0.857466
0.941056 0.219891 0.857927
0.75342 0.0323923 0.89789
0.7535 0.0947929 0.897518
0.753489 0.157022 0.897849
0.753555 0.219352 0.898366
0.815936 0.0325222 0.897811
0.816005 0.0948098 0.897717
0.816095 0.157112 0.897759
0.816056 0.219227 0.898487
0.878447 0.032568 0.897907
0.878446 0.0947822 0.897519
0.878592 0.157039 0.897855
0.878645 0.219407 0.898367
0.940975 0.0323218 0.89785
0.940985 0.094817 0.897746
0.941053 0.15696 0.897745
0.941115 0.21942 0.898385
0.753578 0.0323797 0.937071
0.753553 0.0946955 0.937382
0.75358 0.157069 0.937159
0.753658 0.218795 0.938098
0.816075 0.0325346 0.937387
0.816096 0.0945473 0.937002
0.816087 0.156727 0.937659
0.81619 0.21954 0.937466
0.87862 0.0322391 0.937093
0.878569 0.0946851 0.937359
0.878613 0.157003 0.937139
0.878757 0.218868 0.938047
0.941164 0.0324586 0.937351
0.941104 0.0945853 0.937038
0.941165 0.156673 0.937551
0.941256 0.219477 0.937516
0.753911 0.0320824 0.976365
0.753868 0.0947568 0.975677
0.753822 0.156451 0.976758
0.75382 0.219945 0.975903
0.816463 0.0322079 0.9757
0.816381 0.0943338 0.976607
0.816329 0.157198 0.975867
0.816445 0.218704 0.977097
0.879004 0.0320257 0.976394
0.878899 0.0946676 0.975671
0.878854 0.156501 0.976734
0.878906 0.219862 0.975922
0.941515 0.0321907 0.975669
0.941414 0.0943326 0.976555
0.941416 0.157045 0.975817
0.941446 0.218667 0.977076
0.97317 0.249895 0.93786
0.909745 0.25 0.938119
0.783278 0.250615 0.0147263
0.787986 0.313504 0.0128567
0.782317 0.376703 0.0140261
0.787413 0.439645 0.0119821
0.850489 0.250633 0.0129738
0.845395 0.313497 0.0147364
0.850375 0.376548 0.0124144
0.844649 0.439656 0.0135492
0.908251 0.250672 0.0147779
0.913017 0.31356 0.0128545
0.907267 0.376728 0.0139444
0.912341 0.43966 0.0120326
0.975427 0.250577 0.012896
0.970381 0.313492 0.0147408
0.975355 0.376605 0.0123908
0.969652 0.439622 0.013591
0.788177 0.250907 0.0500652
0.782607 0.31367 0.0522038
0.787938 0.376435 0.0497213
0.781868 0.439217 0.0511702
0.845441 0.25101 0.0523312
0.850896 0.313634 0.0498719
0.844534 0.376462 0.0517169
0.849941 0.439275 0.0492807
0.913327 0.25092 0.0500146
0.907546 0.313656 0.0521549
0.913028 0.376349 0.0496755
0.906973 0.439232 0.0512464
0.970449 0.251022 0.0523101
0.97585 0.313645 0.0498704
0.969582 0.376495 0.0516886
0.97498 0.439249 0.0492063
0.782803 0.251166 0.0896871
0.788309 0.313793 0.0872872
0.782142 0.376517 0.0891632
0.78751 0.439169 0.0865091
0.850625 0.251169 0.0872984
0.845011 0.3138 0.0897088
0.850354 0.376423 0.086894
0.844489 0.439218 0.0886097
0.907772 0.25115 0.0896941
0.9133 0.313724 0.0872469
0.907237 0.376518 0.0891515
0.912498 0.43916 0.0865372
0.975674 0.251146 0.0872435
0.969986 0.31369 0.0896657
0.975381 0.376445 0.0869133
0.969429 0.439264 0.088691
0.787973 0.251199 0.12453
0.782289 0.313819 0.127016
0.78761 0.376443 0.124188
0.781925 0.439183 0.1261
0.845141 0.251262 0.12694
0.850461 0.313861 0.124467
0.844443 0.376622 0.126558
0.849793 0.439192 0.123725
0.912939 0.251241 0.1245
0.907279 0.313824 0.126989
0.912708 0.376432 0.12417
0.906862 0.439168 0.126116
0.970158 0.251247 0.127059
0.975526 0.313787 0.124481
0.969427 0.376487 0.126531
0.974875 0.439179 0.123734
0.782429 0.251346 0.164287
0.787898 0.313858 0.161785
0.781625 0.376562 0.163913
0.787232 0.43915 0.161083
0.850389 0.25137 0.161734
0.844503 0.313913 0.164363
0.850179 0.376495 0.161528
0.844294 0.43916 0.163482
0.907384 0.251372 0.164271
0.912954 0.313873 0.161724
0.906626 0.376568 0.163896
0.912306 0.439123 0.161068
0.975336 0.25135 0.161806
0.969598 0.313891 0.164427
0.975157 0.376443 0.1615
0.969221 0.439145 0.163422
0.787683 0.251414 0.199111
0.782011 0.313962 0.201637
0.787512 0.376535 0.198819
0.781723 0.439216 0.200804
0.844901 0.251457 0.20153
0.850314 0.313888 0.199005
0.844154 0.376571 0.20124
0.849647 0.439156 0.198376
0.912669 0.251409 0.199021
0.907009 0.313947 0.201671
0.912583 0.376565 0.198858
0.906733 0.439186 0.200784
0.969743 0.251397 0.201481
0.975296 0.313919 0.199023
0.969221 0.376583 0.201194
0.9746 0.439183 0.198462
0.782099 0.251534 0.238801
0.787749 0.314067 0.236352
0.781503 0.376652 0.238464
0.787085 0.439196 0.235727
0.850166 0.25152 0.236385
0.844474 0.314029 0.23886
0.84995 0.376568 0.236066
0.843927 0.439211 0.238136
0.907219 0.251496 0.238805
0.912857 0.313976 0.236364
0.906531 0.37667 0.23849
0.91216 0.439173 0.235792
0.975114 0.251414 0.236323
0.969437 0.314019 0.238896
0.974991 0.376565 0.236107
0.968996 0.439174 0.238135
0.7834 0.2838 0.0324993
0.784818 0.343392 0.0324033
0.786783 0.409366 0.0314491
0.782634 0.469091 0.0313948
0.849565 0.280207 0.0324682
0.84763 0.346743 0.0323845
0.845455 0.406316 0.0314157
0.849438 0.472165 0.0313675
0.908357 0.283869 0.0324179
0.909827 0.343308 0.0324014
0.911773 0.409393 0.0314069
0.907639 0.46906 0.0313949
0.974651 0.280142 0.0324413
0.97255 0.346768 0.0324041
0.970345 0.406201 0.031411
0.974424 0.472152 0.0314049
0.786933 0.280385 0.0697714
0.785216 0.346881 0.0697694
0.782649 0.405971 0.0688052
0.787085 0.472164 0.0687197
0.845861 0.284448 0.0698056
0.847038 0.342993 0.069824
0.849401 0.40949 0.0687825
0.845026 0.468688 0.0687592
0.911896 0.280328 0.0697611
0.910257 0.346876 0.0697605
0.907717 0.405955 0.0688164
0.912062 0.472162 0.0687994
0.97101 0.284357 0.0697515
0.972124 0.343037 0.0698048
0.974385 0.409609 0.068753
0.969967 0.468615 0.0687671
0.783226 0.284401 0.107063
0.784347 0.343026 0.107186
0.786808 0.409726 0.106152
0.782537 0.46837 0.106156
0.849221 0.28025 0.107062
0.84764 0.347212 0.10711
0.845161 0.405912 0.106157
0.849566 0.472212 0.1061
0.908258 0.284454 0.107051
0.909289 0.343024 0.107126
0.911826 0.40969 0.10614
0.90761 0.468371 0.106165
0.974247 0.280231 0.107098
0.972643 0.347025 0.107114
0.970112 0.405758 0.10614
0.974595 0.472252 0.106134
0.786521 0.280338 0.144297
0.785052 0.347287 0.144432
0.78243 0.405728 0.143506
0.786822 0.472269 0.143521
0.845567 0.284596 0.144323
0.846555 0.342965 0.144444
0.849087 0.409865 0.143481
0.845051 0.468241 0.143525
0.911445 0.280349 0.144347
0.910059 0.347295 0.144425
0.907557 0.405717 0.143469
0.911906 0.472344 0.143508
0.970523 0.2846 0.144387
0.971562 0.343012 0.144456
0.974164 0.409724 0.14346
0.970071 0.468185 0.14351
0.783 0.284723 0.181677
0.783783 0.343009 0.181707
0.786528 0.409843 0.180823
0.782542 0.468086 0.180833
0.848831 0.280261 0.18162
0.847615 0.347327 0.181701
0.844911 0.40563 0.180845
0.849189 0.472293 0.180836
0.907851 0.284701 0.181637
0.908794 0.342921 0.181744
0.911563 0.4098 0.180847
0.90767 0.468161 0.180825
0.973967 0.280375 0.181629
0.972785 0.347283 0.181691
0.969806 0.405678 0.180824
0.974217 0.472227 0.180846
0.786323 0.280538 0.21896
0.785407 0.347309 0.219007
0.78233 0.405884 0.218152
0.786575 0.472353 0.2182
0.845423 0.284802 0.218949
0.846039 0.342961 0.219008
0.849072 0.409837 0.218131
0.845044 0.46815 0.218155
0.911266 0.280503 0.218939
0.910412 0.347351 0.218983
0.907307 0.405847 0.218154
0.911603 0.472307 0.218158
0.970469 0.284665 0.218945
0.970901 0.343024 0.219026
0.974181 0.409794 0.218145
0.969933 0.468283 0.218196
0.753993 0.285053 0.0128929
0.753879 0.34285 0.0140966
0.753625 0.411094 0.0137326
0.753521 0.468794 0.011334
0.816589 0.280184 0.0150437
0.816301 0.348032 0.0138349
0.816187 0.405643 0.0115815
0.816036 0.473825 0.0137258
0.879045 0.285108 0.0128379
0.878894 0.342848 0.0139998
0.878621 0.411038 0.0136342
0.878528 0.468897 0.0113644
0.941582 0.280208 0.0150164
0.941306 0.34805 0.0138543
0.941171 0.405622 0.0115418
0.94105 0.473834 0.0137258
0.754074 0.279937 0.052298
0.753808 0.348071 0.0514263
0.75354 0.405011 0.0488615
0.75342 0.473602 0.0513807
0.816554 0.285383 0.0501056
0.816373 0.342324 0.051056
0.816047 0.410857 0.0512363
0.815985 0.468138 0.048722
0.879095 0.279906 0.0522676
0.878743 0.34824 0.0513295
0.878597 0.40498 0.0487851
0.878517 0.473509 0.0513503
0.941564 0.285498 0.05008
0.941371 0.342282 0.0510722
0.941058 0.410875 0.0512461
0.941005 0.468187 0.0486608
0.753998 0.2856 0.0873884
0.753769 0.342404 0.088373
0.753524 0.410851 0.0885767
0.753483 0.46813 0.0860462
0.816474 0.279945 0.0895382
0.81622 0.348329 0.088829
0.816043 0.405214 0.0860925
0.816013 0.473494 0.0887357
0.879006 0.28551 0.0873765
0.878806 0.342331 0.0883941
0.87853 0.410822 0.0885766
0.878545 0.468151 0.0860822
0.941489 0.280077 0.0895192
0.941247 0.348167 0.0888011
0.941024 0.405147 0.0860382
0.940991 0.473504 0.0888016
0.753719 0.280037 0.126842
0.753513 0.348263 0.126174
0.753434 0.40511 0.123423
0.753474 0.473483 0.12603
0.816229 0.285646 0.124675
0.816046 0.342494 0.125661
0.815889 0.410817 0.125902
0.815969 0.468202 0.123457
0.878785 0.280055 0.126774
0.878491 0.34832 0.126155
0.878414 0.405191 0.12344
0.878473 0.473346 0.12607
0.941241 0.285588 0.124723
0.941043 0.342353 0.125671
0.940903 0.410884 0.125894
0.941008 0.468142 0.123432
0.75357 0.285688 0.161975
0.753416 0.342282 0.162823
0.753254 0.410977 0.163306
0.753348 0.46809 0.160894
0.816022 0.280153 0.163992
0.815846 0.348397 0.163471
0.815824 0.405035 0.160857
0.8159 0.473411 0.163419
0.87853 0.285843 0.161993
0.878375 0.342332 0.162866
0.87831 0.410937 0.163249
0.878426 0.46808 0.160894
0.941024 0.280079 0.16408
0.940817 0.348289 0.163513
0.940783 0.405078 0.160784
0.940911 0.47345 0.163345
0.753462 0.280088 0.201347
0.753292 0.348358 0.200863
0.753207 0.405233 0.198144
0.753311 0.473521 0.200708
0.815943 0.285784 0.199326
0.815847 0.342383 0.199952
0.815717 0.410946 0.200596
0.815826 0.468083 0.198251
0.878408 0.280297 0.201348
0.878333 0.348395 0.200893
0.878257 0.404991 0.198152
0.878309 0.47345 0.200603
0.940941 0.285798 0.199212
0.940862 0.342459 0.19993
0.940784 0.410916 0.200687
0.94087 0.468072 0.198236
0.753343 0.285891 0.236611
0.753296 0.342485 0.237125
0.753125 0.410986 0.237982
0.753188 0.467986 0.235613
0.81585 0.280171 0.238608
0.815765 0.34847 0.238284
0.815631 0.40511 0.235437
0.815712 0.473531 0.238045
0.878398 0.285877 0.236634
0.878345 0.342458 0.237072
0.878131 0.410997 0.23793
0.878217 0.467881 0.235597
0.940888 0.280179 0.238556
0.940777 0.348523 0.238335
0.940672 0.40517 0.235406
0.940715 0.473507 0.238058
0.787795 0.251535 0.27357
0.781914 0.313902 0.276282
0.78729 0.376483 0.27343
0.781596 0.439102 0.27543
0.84452 0.251521 0.276089
0.850192 0.313985 0.27355
0.844113 0.376584 0.275787
0.849411 0.439077 0.272971
0.912655 0.251428 0.273606
0.906982 0.313969 0.276168
0.912331 0.376516 0.273359
0.906528 0.439156 0.27545
0.969648 0.251471 0.276053
0.975116 0.313969 0.273537
0.969081 0.376502 0.275765
0.974502 0.439082 0.273007
0.782013 0.251374 0.313533
0.787616 0.313791 0.310867
0.781655 0.376411 0.313085
0.786763 0.438987 0.310274
0.850198 0.251483 0.310866
0.844401 0.313845 0.313544
0.849725 0.376346 0.310775
0.844145 0.43893 0.312768
0.906911 0.251396 0.313396
0.912654 0.313827 0.310849
0.90667 0.376393 0.313111
0.911766 0.438934 0.310375
0.975058 0.251413 0.310833
0.969449 0.313801 0.313583
0.974731 0.376385 0.310691
0.969053 0.438978 0.312683
0.787416 0.251533 0.348187
0.781842 0.313816 0.350987
0.787149 0.376323 0.348106
0.781454 0.438907 0.349977
0.844372 0.251451 0.350817
0.849976 0.313898 0.348267
0.844183 0.376401 0.350461
0.849324 0.438923 0.347722
0.912571 0.251487 0.348195
0.906803 0.313853 0.350896
0.912199 0.376315 0.348108
0.906368 0.438967 0.349981
0.969337 0.25155 0.350792
0.974959 0.313889 0.348275
0.969094 0.376438 0.350358
0.974353 0.438933 0.347683
0.781665 0.251534 0.388233
0.78737 0.313923 0.385681
0.781392 0.376475 0.387764
0.786878 0.438941 0.385017
0.849946 0.251546 0.385617
0.844105 0.313948 0.388194
0.849635 0.376394 0.385458
0.843706 0.438926 0.387247
0.906657 0.251528 0.388081
0.912496 0.313911 0.385689
0.906438 0.376449 0.387723
0.911905 0.43889 0.384999
0.97492 0.251565 0.38569
0.969105 0.313934 0.388206
0.974596 0.376333 0.385431
0.968668 0.438856 0.387299
0.78724 0.251715 0.42299
0.781681 0.313995 0.425665
0.786963 0.376399 0.422842
0.781192 0.438772 0.424628
0.844137 0.251647 0.42557
0.849828 0.313934 0.423136
0.843865 0.37637 0.425064
0.84912 0.438789 0.422354
0.912371 0.251693 0.42311
0.906588 0.314016 0.425605
0.912038 0.376304 0.422801
0.906202 0.438787 0.424578
0.969101 0.251687 0.425527
0.974983 0.314033 0.423242
0.968848 0.376375 0.425047
0.974134 0.438821 0.422286
0.781738 0.251766 0.462989
0.787377 0.314017 0.460637
0.781365 0.37639 0.462515
0.786493 0.438669 0.459796
0.849919 0.251786 0.460573
0.844148 0.313979 0.463097
0.849519 0.376288 0.460392
0.843626 0.438641 0.461993
0.906598 0.251817 0.462928
0.912421 0.314137 0.46072
0.906317 0.376383 0.462525
0.911593 0.438679 0.459824
0.974816 0.25181 0.460563
0.969077 0.314052 0.463068
0.974435 0.376308 0.460417
0.968562 0.438642 0.461935
0.752902 0.472675 0.499313
0.787004 0.376148 0.498014
0.849183 0.438601 0.497465
0.912176 0.251682 0.498023
0.911911 0.376225 0.498029
0.974133 0.438606 0.497544
0.78293 0.28497 0.256238
0.78334 0.342887 0.256328
0.786519 0.409815 0.255471
0.782531 0.468222 0.255511
0.848591 0.280457 0.256163
0.847872 0.34738 0.256266
0.844779 0.405695 0.255461
0.849102 0.472287 0.255504
0.907899 0.284762 0.25621
0.908334 0.343005 0.256307
0.911505 0.409888 0.255451
0.90747 0.46816 0.255504
0.973632 0.280387 0.256183
0.972995 0.34732 0.256212
0.969704 0.405707 0.255483
0.974143 0.472252 0.255505
0.785834 0.280251 0.293499
0.785391 0.347236 0.293593
0.782152 0.405646 0.292779
0.786446 0.472122 0.292816
0.845485 0.284923 0.293461
0.845747 0.342844 0.293639
0.848952 0.409687 0.292763
0.844861 0.467977 0.292841
0.910816 0.280274 0.293454
0.910336 0.347297 0.293581
0.907252 0.405625 0.292763
0.911427 0.47227 0.292832
0.970522 0.284898 0.293465
0.970721 0.342873 0.293612
0.973875 0.409634 0.29273
0.969888 0.468096 0.292782
0.783288 0.284923 0.330818
0.783064 0.342836 0.331007
0.786554 0.409556 0.330033
0.782266 0.468025 0.330129
0.847921 0.280387 0.3308
0.847905 0.347278 0.330965
0.844619 0.405602 0.330074
0.849042 0.472036 0.330106
0.908255 0.284859 0.330776
0.908096 0.342768 0.330976
0.911517 0.409502 0.330097
0.90724 0.467989 0.330128
0.972901 0.280334 0.330775
0.972873 0.347189 0.330918
0.969606 0.405517 0.330044
0.973951 0.47199 0.330084
0.785049 0.280361 0.368211
0.785565 0.347181 0.368304
0.782011 0.405655 0.367443
0.786402 0.471879 0.367434
0.845945 0.284877 0.368157
0.845307 0.342947 0.368346
0.849076 0.409488 0.367397
0.844868 0.468007 0.367455
0.910005 0.280431 0.368171
0.910544 0.347095 0.36832
0.907027 0.40567 0.36743
0.911321 0.471799 0.367354
0.97084 0.284952 0.368154
0.970293 0.342952 0.368334
0.974133 0.409454 0.36741
0.969692 0.468016 0.367433
0.783614 0.285023 0.405522
0.782388 0.343002 0.405716
0.786588 0.409467 0.404808
0.782361 0.467923 0.404803
0.847152 0.28061 0.405569
0.848298 0.346886 0.405689
0.844414 0.405671 0.404778
0.848713 0.471763 0.404761
0.908477 0.284813 0.405562
0.907419 0.343007 0.405724
0.91159 0.409426 0.404768
0.907224 0.46803 0.404762
0.972132 0.280746 0.405559
0.97325 0.346992 0.405713
0.969462 0.405583 0.404773
0.973809 0.471758 0.404729
0.784021 0.280826 0.442984
0.786084 0.347094 0.44319
0.781762 0.405611 0.442151
0.786209 0.471609 0.442156
0.846425 0.284967 0.442974
0.844679 0.343107 0.443259
0.849078 0.409232 0.442158
0.844741 0.467898 0.442138
0.909058 0.280882 0.443023
0.911154 0.347054 0.443197
0.906873 0.405593 0.442138
0.911045 0.471537 0.442141
0.971474 0.284879 0.44296
0.969696 0.343106 0.44323
0.974083 0.409231 0.442154
0.969794 0.467734 0.442126
0.78462 0.284953 0.480505
0.782004 0.343136 0.480766
0.786416 0.409221 0.479694
0.782366 0.467586 0.479604
0.846077 0.280776 0.480562
0.848897 0.346695 0.480751
0.844471 0.405595 0.479697
0.848512 0.47129 0.479608
0.909574 0.284866 0.480451
0.906971 0.343249 0.480776
0.911346 0.409171 0.479675
0.907393 0.467694 0.479611
0.971167 0.280906 0.480534
0.973847 0.346722 0.480714
0.969409 0.40568 0.479673
0.973506 0.47123 0.479556
0.753304 0.280121 0.275815
0.75318 0.348269 0.275634
0.753117 0.405153 0.272754
0.753166 0.473372 0.275293
0.815806 0.285919 0.274009
0.81573 0.342514 0.274403
0.81561 0.410774 0.27524
0.815632 0.468026 0.272877
0.878304 0.280104 0.27578
0.878185 0.348438 0.275653
0.878117 0.405296 0.272708
0.878162 0.473308 0.275399
0.940847 0.285784 0.273966
0.940759 0.342475 0.274366
0.940605 0.410834 0.275274
0.940653 0.468005 0.272925
0.753259 0.285614 0.31139
0.753222 0.342366 0.311713
0.753045 0.410564 0.312611
0.75311 0.467901 0.310206
0.815742 0.279949 0.312914
0.815643 0.348138 0.313008
0.815563 0.405148 0.309977
0.81561 0.473019 0.312677
0.878242 0.285766 0.311342
0.878145 0.342295 0.31173
0.878093 0.410516 0.312561
0.878123 0.46802 0.310156
0.940752 0.280046 0.31289
0.940623 0.348035 0.313007
0.940581 0.405163 0.310008
0.94055 0.47315 0.312628
0.75312 0.280088 0.350103
0.753072 0.348101 0.350495
0.75302 0.405039 0.347281
0.753024 0.473166 0.350085
0.815683 0.285757 0.348898
0.815592 0.342389 0.349005
0.815522 0.410597 0.349933
0.815554 0.467819 0.347514
0.878141 0.279993 0.350016
0.878062 0.34816 0.35044
0.878049 0.404957 0.347289
0.878033 0.473269 0.349931
0.940573 0.285893 0.348853
0.940619 0.342379 0.348973
0.940529 0.41075 0.349911
0.940577 0.46788 0.347458
0.752954 0.285859 0.386441
0.753014 0.342474 0.386206
0.752948 0.410802 0.387386
0.752928 0.467765 0.384907
0.815517 0.280054 0.387339
0.815476 0.348307 0.387948
0.8155 0.405011 0.384665
0.815484 0.473223 0.387223
0.877979 0.285914 0.386433
0.878022 0.342426 0.386189
0.877985 0.410758 0.387323
0.877987 0.46767 0.384899
0.940494 0.280049 0.387333
0.940462 0.348183 0.387967
0.940499 0.404935 0.384593
0.940432 0.473296 0.387238
0.752863 0.280106 0.424384
0.752994 0.348021 0.425551
0.752923 0.405029 0.421967
0.752866 0.472913 0.424614
0.815389 0.285898 0.424026
0.8155 0.342444 0.423482
0.815399 0.410563 0.424806
0.815401 0.467607 0.422265
0.877897 0.280043 0.424483
0.877933 0.348166 0.425585
0.877873 0.405036 0.421967
0.877884 0.472941 0.424585
0.940438 0.286059 0.424026
0.940444 0.342367 0.423484
0.94035 0.410609 0.424797
0.940337 0.467674 0.422206
0.75292 0.285905 0.461808
0.753005 0.342327 0.460705
0.752783 0.410396 0.462286
0.752784 0.467501 0.459683
0.815417 0.280163 0.461632
0.815505 0.347986 0.463261
0.815333 0.404856 0.459497
0.81527 0.472755 0.462009
0.877917 0.286084 0.461799
0.878014 0.342429 0.460745
0.877829 0.410529 0.462249
0.877804 0.467391 0.459767
0.940407 0.280169 0.46162
0.940487 0.348138 0.463215
0.940297 0.40494 0.459455
0.940321 0.472763 0.461951
0.75294 0.404867 0.497144
0.815334 0.467187 0.497381
0.877872 0.404915 0.497159
0.940396 0.467295 0.497301
0.877891 0.47281 0.4993
0.849824 0.313877 0.498371
0.940367 0.410259 0.499655
0.81535 0.410299 0.49961
0.878021 0.280138 0.498822
0.940477 0.285523 0.499773
0.787211 0.251686 0.498025
0.974736 0.31392 0.498291
0.815618 0.342371 0.49825
0.940541 0.342407 0.498254
0.843993 0.376263 0.499933
0.753019 0.280249 0.498794
0.906228 0.438601 0.499619
0.781247 0.438549 0.49972
0.969025 0.376283 0.499955
0.815529 0.28552 0.499819
0.782012 0.313889 0.500543
0.844392 0.251531 0.500439
0.906824 0.313909 0.500476
0.969456 0.251625 0.500455
0.78234 0.250744 0.538082
0.787063 0.312844 0.536134
0.78173 0.375476 0.537574
0.786217 0.438299 0.534835
0.84945 0.250657 0.535955
0.844477 0.312856 0.537972
0.849358 0.375416 0.535872
0.844203 0.43826 0.536744
0.9073 0.250694 0.538035
0.912154 0.312842 0.536163
0.906556 0.375427 0.537475
0.911182 0.438265 0.534905
0.9743 0.250717 0.53598
0.969457 0.312906 0.537977
0.974353 0.37548 0.535818
0.969083 0.438259 0.536816
0.781451 0.312145 0.575308
0.786048 0.375281 0.572628
0.78345 0.438485 0.573618
0.8503 0.31203 0.573967
0.844748 0.375273 0.573908
0.847372 0.438338 0.57241
0.90642 0.312125 0.57531
0.910981 0.375224 0.572669
0.908505 0.438444 0.573559
0.975207 0.312027 0.573997
0.969615 0.375281 0.573989
0.972404 0.438379 0.572446
0.784897 0.311909 0.613357
0.783924 0.37528 0.612278
0.784312 0.438863 0.611167
0.84621 0.31195 0.61391
0.84707 0.375275 0.611617
0.846921 0.438797 0.611596
0.909924 0.311957 0.613488
0.908789 0.375336 0.612197
0.909434 0.438684 0.611282
0.971196 0.311997 0.613909
0.972143 0.375328 0.611463
0.971773 0.438653 0.611769
0.784281 0.311835 0.652966
0.784529 0.375554 0.650042
0.784646 0.438668 0.65054
0.846929 0.311877 0.652935
0.847218 0.375565 0.650461
0.847193 0.438635 0.650565
0.90932 0.311905 0.653135
0.909304 0.375414 0.650307
0.909556 0.438489 0.650783
0.971885 0.311954 0.653052
0.971598 0.375454 0.650839
0.971916 0.438587 0.650456
0.784357 0.25075 0.694407
0.784411 0.312925 0.693759
0.784343 0.375628 0.689888
0.784513 0.438016 0.690779
0.84686 0.250808 0.694223
0.847318 0.313126 0.693583
0.84795 0.375403 0.691013
0.846926 0.43826 0.690805
0.90925 0.250846 0.694388
0.909407 0.31323 0.693655
0.909393 0.375315 0.692583
0.909541 0.438502 0.690641
0.971785 0.250825 0.694312
0.971612 0.313189 0.693939
0.971174 0.375658 0.690814
0.972058 0.438302 0.690797
0.784492 0.250977 0.73504
0.784192 0.313201 0.735205
0.784699 0.375939 0.733277
0.784137 0.438617 0.731803
0.847108 0.251169 0.735056
0.846617 0.313495 0.735192
0.844355 0.375759 0.73327
0.846576 0.438323 0.731733
0.90929 0.251146 0.735158
0.90968 0.313591 0.735223
0.910531 0.375813 0.734405
0.909231 0.438422 0.731786
0.971848 0.250997 0.735066
0.971845 0.3134 0.735141
0.972911 0.375825 0.734584
0.972246 0.438685 0.731965
0.78298 0.28045 0.518183
0.786507 0.346216 0.518363
0.782436 0.405274 0.517271
0.785704 0.471624 0.517078
0.847818 0.283988 0.518137
0.844631 0.343017 0.518333
0.848423 0.408753 0.51724
0.845312 0.467821 0.517138
0.908081 0.280556 0.518162
0.911494 0.346188 0.518353
0.907476 0.405442 0.51728
0.91082 0.471524 0.517065
0.972651 0.284199 0.518124
0.96958 0.342951 0.518335
0.973562 0.408713 0.517273
0.970263 0.467952 0.517128
0.78557 0.282881 0.556033
0.78273 0.342371 0.555885
0.785423 0.408763 0.554694
0.783411 0.468392 0.554738
0.845471 0.279924 0.556079
0.848553 0.344858 0.555874
0.84566 0.405974 0.554818
0.847781 0.471094 0.554639
0.910554 0.282697 0.556016
0.907673 0.342483 0.555849
0.910419 0.408514 0.554707
0.908262 0.468556 0.554717
0.970228 0.279954 0.55611
0.97351 0.344874 0.555873
0.970745 0.405827 0.554863
0.972854 0.471088 0.554664
0.783257 0.279492 0.594195
0.785329 0.343436 0.593675
0.783863 0.405429 0.592682
0.784909 0.47022 0.592741
0.848062 0.280972 0.594081
0.845837 0.342102 0.593694
0.847335 0.406538 0.59253
0.84645 0.469258 0.592787
0.908389 0.279612 0.5942
0.910306 0.343379 0.593784
0.908883 0.405419 0.592558
0.909887 0.470194 0.592818
0.972885 0.28097 0.594135
0.970675 0.342037 0.593776
0.972284 0.406636 0.592553
0.971303 0.469143 0.59287
0.784762 0.280665 0.632896
0.783944 0.342598 0.632326
0.784776 0.406681 0.630601
0.784505 0.469689 0.631523
0.84627 0.280183 0.633079
0.847259 0.343201 0.632514
0.846846 0.406172 0.630735
0.847261 0.469887 0.631551
0.909712 0.280738 0.633088
0.90887 0.342573 0.63249
0.909839 0.406606 0.63084
0.909329 0.469444 0.631566
0.971255 0.280321 0.633078
0.972202 0.343331 0.632474
0.971448 0.40595 0.630911
0.97221 0.469982 0.631584
0.784176 0.281015 0.673615
0.784284 0.343138 0.672321
0.784582 0.405805 0.669783
0.784861 0.469548 0.671114
0.846918 0.281072 0.673478
0.847172 0.34353 0.672295
0.847367 0.405884 0.670087
0.84708 0.469549 0.671144
0.909227 0.280919 0.673612
0.909393 0.344218 0.672588
0.909064 0.405364 0.670179
0.909579 0.469842 0.671166
0.971942 0.281114 0.673646
0.971128 0.343514 0.672649
0.972349 0.405933 0.669959
0.971863 0.469367 0.671041
0.78443 0.282102 0.714537
0.784597 0.344109 0.714359
0.784229 0.405029 0.710507
0.784106 0.46922 0.71149
0.847157 0.282493 0.71461
0.847223 0.345072 0.714358
0.845957 0.405736 0.71059
0.846581 0.469287 0.711536
0.909211 0.282534 0.714667
0.90969 0.34605 0.714627
0.910317 0.407176 0.710739
0.909499 0.469183 0.711527
0.971779 0.282335 0.714653
0.97111 0.345419 0.714575
0.972631 0.405643 0.710644
0.971951 0.469814 0.711618
0.753114 0.347872 0.500948
0.878047 0.347867 0.500936
0.753034 0.283938 0.538009
0.753151 0.341456 0.536005
0.752895 0.409074 0.536673
0.752873 0.467253 0.535147
0.815621 0.279057 0.536302
0.815614 0.346636 0.538425
0.815453 0.404189 0.53502
0.815365 0.471424 0.536506
0.878045 0.283984 0.537884
0.878112 0.34132 0.535965
0.877888 0.408989 0.53666
0.877897 0.467246 0.535098
0.940558 0.279013 0.536298
0.94055 0.346666 0.53848
0.940431 0.404136 0.535072
0.940326 0.471573 0.536515
0.753205 0.276592 0.573969
0.753095 0.345212 0.575395
0.753044 0.405069 0.572866
0.753014 0.469717 0.573547
0.815591 0.283564 0.575787
0.815606 0.339979 0.573695
0.815461 0.407326 0.573757
0.815532 0.468979 0.572855
0.878177 0.276551 0.573968
0.878068 0.345102 0.575426
0.878008 0.40514 0.572678
0.87805 0.469655 0.573504
0.940573 0.283543 0.575814
0.94056 0.340004 0.57371
0.94047 0.407342 0.573578
0.940589 0.469061 0.572797
0.752976 0.280324 0.61413
0.752981 0.341865 0.612547
0.753113 0.406216 0.611612
0.753289 0.469814 0.611576
0.815567 0.279242 0.613148
0.81558 0.342898 0.613452
0.815705 0.406041 0.611232
0.815789 0.469382 0.612019
0.877966 0.280506 0.614205
0.877956 0.341812 0.612598
0.878153 0.406386 0.611535
0.878269 0.469513 0.611688
0.940498 0.279391 0.613341
0.940472 0.343047 0.61351
0.94057 0.406018 0.611214
0.94077 0.469324 0.612092
0.753044 0.280472 0.653018
0.753139 0.342506 0.65204
0.753249 0.406825 0.649738
0.753247 0.469733 0.651036
0.81546 0.280666 0.653421
0.815544 0.342386 0.651905
0.815841 0.406674 0.650001
0.815857 0.469691 0.650974
0.87803 0.280562 0.6532
0.878159 0.34251 0.65227
0.87824 0.406507 0.650073
0.878385 0.469679 0.651102
0.940512 0.280766 0.653538
0.940601 0.342445 0.651983
0.940724 0.406258 0.650515
0.940773 0.4696 0.650991
0.752959 0.281684 0.693951
0.753066 0.343292 0.692411
0.753208 0.406641 0.689953
0.753202 0.469262 0.691153
0.815692 0.281805 0.693989
0.815675 0.343474 0.692322
0.815669 0.406309 0.689949
0.815712 0.469409 0.691236
0.878077 0.281698 0.694053
0.878294 0.344184 0.693427
0.878304 0.406276 0.69064
0.878178 0.469522 0.691279
0.94046 0.281765 0.694047
0.940515 0.344356 0.693693
0.940817 0.40646 0.690234
0.940785 0.469511 0.691193
0.753062 0.281943 0.735106
0.753381 0.34499 0.735199
0.753234 0.406543 0.731823
0.753041 0.469786 0.732015
0.815644 0.28214 0.735072
0.81539 0.344302 0.735114
0.815293 0.407081 0.73152
0.815459 0.469636 0.732159
0.878191 0.282557 0.735283
0.878065 0.344108 0.734516
0.878078 0.407201 0.7319
0.87808 0.469507 0.731979
0.940621 0.282125 0.735189
0.94086 0.344719 0.735459
0.940818 0.407711 0.733128
0.940598 0.469512 0.732136
0.78446 0.251068 0.776227
0.784477 0.31367 0.776399
0.784606 0.375661 0.776658
0.784428 0.438747 0.77306
0.846963 0.251002 0.776148
0.846596 0.313434 0.776353
0.847466 0.375816 0.775749
0.847118 0.438732 0.77328
0.909585 0.251075 0.776209
0.909263 0.313392 0.776496
0.907208 0.375941 0.774784
0.909189 0.438521 0.773444
0.972113 0.251041 0.776308
0.972366 0.313386 0.776504
0.973433 0.375658 0.775767
0.971692 0.438748 0.773267
0.784764 0.251073 0.817361
0.784755 0.313636 0.818057
0.784728 0.375685 0.818411
0.784506 0.43879 0.81472
0.847164 0.251064 0.817359
0.847154 0.313626 0.817899
0.847079 0.375615 0.818378
0.847146 0.438615 0.814607
0.909835 0.251191 0.817448
0.909088 0.313513 0.81792
0.909895 0.375773 0.81611
0.909866 0.438322 0.814722
0.97229 0.251231 0.817439
0.972745 0.313484 0.818165
0.971964 0.375762 0.816312
0.971617 0.438346 0.814887
0.784881 0.251002 0.858345
0.784881 0.313597 0.859227
0.784673 0.376003 0.860331
0.784622 0.438938 0.856553
0.847197 0.251008 0.858294
0.847209 0.313623 0.859275
0.847409 0.376006 0.860286
0.847049 0.438834 0.856381
0.909826 0.25101 0.858243
0.909755 0.31349 0.859194
0.910564 0.376136 0.859062
0.91002 0.438652 0.856357
0.972372 0.250984 0.858269
0.972384 0.31348 0.859153
0.97147 0.376085 0.859179
0.971654 0.438665 0.856252
0.784863 0.312952 0.899783
0.78465 0.37613 0.899935
0.784501 0.440084 0.897344
0.847478 0.313084 0.899637
0.847417 0.376177 0.90013
0.847039 0.440064 0.897198
0.90985 0.313058 0.899612
0.90976 0.376215 0.899849
0.909614 0.440142 0.897173
0.972424 0.313017 0.899595
0.972173 0.376223 0.899992
0.972047 0.440004 0.897065
0.785828 0.312588 0.938641
0.784004 0.376667 0.93847
0.78553 0.440127 0.936254
0.846932 0.312715 0.938925
0.848411 0.376591 0.938038
0.846565 0.44021 0.936625
0.910852 0.312635 0.938648
0.909167 0.3767 0.938533
0.910477 0.440257 0.936174
0.972041 0.312683 0.938867
0.973453 0.376634 0.938108
0.971466 0.440251 0.936609
0.972347 0.250352 0.898732
0.783829 0.313391 0.977428
0.787414 0.376756 0.976106
0.781396 0.440246 0.975944
0.909921 0.25048 0.898657
0.848954 0.313248 0.976446
0.845236 0.376842 0.977172
0.850463 0.440205 0.97494
0.847355 0.250428 0.898904
0.90885 0.313424 0.977389
0.912563 0.376869 0.976117
0.906423 0.440299 0.975826
0.974032 0.313251 0.976388
0.970339 0.376877 0.977172
0.975402 0.440275 0.974898
0.786748 0.280427 0.995136
0.784519 0.346033 0.995041
0.783475 0.40729 0.994095
0.786528 0.472158 0.993746
0.845958 0.28279 0.995101
0.847712 0.343421 0.995134
0.848884 0.409538 0.994028
0.84571 0.469996 0.993796
0.911825 0.280395 0.995139
0.909769 0.345975 0.995016
0.908453 0.407534 0.994051
0.911561 0.472107 0.993749
0.97096 0.282812 0.995083
0.972682 0.343398 0.995119
0.973888 0.409603 0.994022
0.97067 0.470034 0.993776
0.784236 0.282222 0.755893
0.78434 0.346417 0.756059
0.784561 0.407285 0.752495
0.784212 0.46948 0.752538
0.846831 0.282279 0.755806
0.845755 0.345493 0.755894
0.847385 0.406368 0.752118
0.847026 0.469665 0.752457
0.909486 0.282575 0.755911
0.910145 0.344961 0.755947
0.907984 0.407036 0.752462
0.909145 0.469331 0.752533
0.972193 0.282363 0.755905
0.97227 0.345676 0.756039
0.972817 0.407926 0.752748
0.971626 0.46987 0.752606
0.78484 0.282767 0.797276
0.784433 0.346049 0.797823
0.78465 0.408169 0.793865
0.784475 0.469803 0.79381
0.846794 0.282443 0.7972
0.847289 0.345938 0.797577
0.84742 0.407582 0.794119
0.847126 0.469614 0.793963
0.909743 0.282456 0.797196
0.907856 0.344785 0.79712
0.910085 0.406401 0.793844
0.909547 0.469862 0.793887
0.972029 0.282767 0.79731
0.97351 0.344407 0.79734
0.970878 0.407086 0.79375
0.971856 0.469569 0.79392
0.78483 0.282687 0.838443
0.784802 0.34609 0.839575
0.784391 0.408445 0.835717
0.784355 0.469951 0.835322
0.846994 0.282516 0.838386
0.847379 0.346458 0.839613
0.846854 0.408481 0.835541
0.847297 0.469701 0.835181
0.909913 0.282734 0.838369
0.909103 0.345733 0.839241
0.91062 0.406347 0.835419
0.909256 0.469517 0.835167
0.972256 0.282595 0.838319
0.972654 0.345729 0.839193
0.970838 0.406373 0.8356
0.972006 0.469737 0.835162
0.784712 0.282318 0.879031
0.78476 0.34536 0.880315
0.784711 0.408813 0.877902
0.784572 0.47086 0.876569
0.847726 0.28219 0.879073
0.84751 0.34589 0.880351
0.847139 0.408762 0.877752
0.847112 0.470723 0.876566
0.909669 0.282341 0.878933
0.909845 0.345847 0.880167
0.909943 0.408361 0.87755
0.909606 0.470785 0.876394
0.972445 0.282076 0.878979
0.972045 0.345779 0.880176
0.971682 0.408385 0.877421
0.972108 0.470636 0.876422
0.785429 0.281549 0.91865
0.784765 0.345401 0.919638
0.784347 0.408913 0.917779
0.785019 0.472052 0.917163
0.846953 0.281911 0.918704
0.847523 0.345208 0.919624
0.847851 0.409294 0.917791
0.846544 0.471527 0.917156
0.910534 0.281752 0.918672
0.909956 0.345432 0.919631
0.909274 0.408904 0.917694
0.910048 0.472003 0.917042
0.971964 0.281876 0.918631
0.972431 0.345172 0.919579
0.972793 0.409232 0.917722
0.971606 0.471533 0.917059
0.784207 0.282045 0.957353
0.785279 0.345348 0.957492
0.785912 0.409923 0.956355
0.783569 0.471619 0.955794
0.848605 0.281289 0.957336
0.847209 0.346361 0.957494
0.846434 0.409005 0.956361
0.848315 0.472726 0.955786
0.909282 0.282167 0.957339
0.9103 0.34536 0.957496
0.910868 0.410036 0.956342
0.908596 0.471667 0.955771
0.973685 0.2813 0.957286
0.972414 0.346238 0.957464
0.971409 0.409045 0.956338
0.973263 0.472664 0.955761
0.753324 0.282348 0.776545
0.753297 0.345003 0.776711
0.753226 0.407484 0.774
0.753242 0.469748 0.773232
0.815687 0.282181 0.776341
0.815639 0.344924 0.776874
0.81585 0.407682 0.774135
0.815774 0.469753 0.773342
0.878157 0.282177 0.776262
0.877889 0.344497 0.776191
0.878038 0.40718 0.773219
0.878272 0.469982 0.773435
0.940777 0.282428 0.776331
0.940802 0.344127 0.77606
0.940517 0.407597 0.77343
0.940637 0.469787 0.773356
0.753519 0.282568 0.817706
0.753393 0.344877 0.81873
0.753321 0.407605 0.815608
0.753342 0.470118 0.814696
0.815903 0.282392 0.817849
0.815896 0.344903 0.818434
0.815674 0.407698 0.815684
0.815789 0.46988 0.814747
0.878346 0.282205 0.817639
0.878173 0.344925 0.818534
0.878381 0.407529 0.815815
0.878323 0.469701 0.81456
0.940897 0.282834 0.817731
0.940801 0.343565 0.81642
0.940815 0.407006 0.81429
0.940676 0.469867 0.81469
0.753551 0.282521 0.858813
0.753539 0.344989 0.860101
0.75341 0.408345 0.857783
0.753268 0.470428 0.856182
0.815978 0.282441 0.858863
0.815973 0.345216 0.860144
0.815891 0.408207 0.857681
0.815855 0.470342 0.856081
0.87848 0.282434 0.858689
0.878458 0.345194 0.860106
0.878338 0.408244 0.85756
0.87834 0.470022 0.856017
0.941101 0.282448 0.858701
0.941041 0.34505 0.859485
0.940818 0.407346 0.856357
0.940874 0.470331 0.855915
0.753627 0.281872 0.89937
0.753542 0.344927 0.900401
0.753475 0.409324 0.898042
0.75332 0.471606 0.897121
0.816204 0.281923 0.899093
0.816095 0.344941 0.900435
0.815968 0.409361 0.89841
0.815803 0.471432 0.896759
0.878681 0.281823 0.899379
0.878655 0.344963 0.900353
0.87845 0.409375 0.897999
0.878301 0.471428 0.897005
0.941125 0.281852 0.89906
0.941074 0.345041 0.900227
0.940933 0.409499 0.898323
0.940786 0.471432 0.896651
0.753784 0.282484 0.937912
0.753792 0.344731 0.938966
0.753648 0.410472 0.937606
0.753443 0.471833 0.935932
0.8163 0.281253 0.938732
0.816215 0.346443 0.938555
0.816212 0.408757 0.936708
0.815947 0.473073 0.936828
0.878806 0.28246 0.937957
0.878776 0.344867 0.93889
0.878709 0.410433 0.937542
0.878469 0.471856 0.935906
0.941365 0.281248 0.938737
0.941223 0.346516 0.938633
0.941062 0.408932 0.936674
0.940923 0.473273 0.936808
0.753886 0.281214 0.977552
0.753681 0.347359 0.97654
0.753691 0.406835 0.974732
0.753457 0.475844 0.97597
0.816346 0.283293 0.975969
0.816272 0.344039 0.976949
0.816152 0.412323 0.976158
0.815994 0.468814 0.974026
0.878928 0.281193 0.977521
0.878749 0.347546 0.97653
0.878717 0.406807 0.974632
0.878486 0.475861 0.975983
0.94134 0.283422 0.975899
0.941382 0.344014 0.976878
0.941189 0.412277 0.976136
0.94107 0.468949 0.974026
0.784877 0.250448 0.89875
0.910916 0.250136 0.976541
0.847003 0.250249 0.977392
0.785866 0.250125 0.976585
0.97193 0.250252 0.9773
0.782307 0.502394 0.0134423
0.786492 0.564723 0.0115418
0.782519 0.626839 0.0133211
0.786577 0.688774 0.0112436
0.849355 0.502335 0.0117154
0.84489 0.564767 0.013306
0.848855 0.626794 0.0113047
0.844925 0.688732 0.0133478
0.907353 0.502421 0.0133642
0.911578 0.564708 0.0115178
0.907635 0.626848 0.0132698
0.911652 0.688785 0.0111954
0.974457 0.502347 0.0117424
0.970025 0.564751 0.0132859
0.97392 0.626849 0.0113343
0.969999 0.688762 0.0133348
0.787038 0.501963 0.0491185
0.782206 0.564601 0.0511511
0.786891 0.627092 0.0490665
0.782075 0.689455 0.0512376
0.844519 0.502031 0.0510538
0.849376 0.564605 0.0490801
0.844765 0.627088 0.051272
0.849606 0.689429 0.0489811
0.912089 0.50196 0.0491466
0.907188 0.564611 0.0511303
0.911832 0.62712 0.0490301
0.90718 0.689451 0.0512756
0.969509 0.502005 0.0510741
0.974343 0.564595 0.0490262
0.969754 0.627002 0.0512396
0.974634 0.689455 0.0489299
0.782011 0.501811 0.0885511
0.786983 0.564456 0.086348
0.782145 0.626999 0.0886362
0.787402 0.689493 0.0862927
0.849677 0.501835 0.0863711
0.844536 0.564403 0.0886456
0.84956 0.626951 0.0863663
0.844634 0.68942 0.0886767
0.906983 0.501871 0.0885356
0.911907 0.564429 0.0863068
0.907155 0.626941 0.0887323
0.912195 0.689469 0.0863191
0.974645 0.501866 0.0863953
0.969549 0.564391 0.0886392
0.974561 0.626963 0.086311
0.969711 0.689386 0.0886399
0.787181 0.501748 0.123668
0.782029 0.564222 0.126048
0.78728 0.626831 0.123691
0.782117 0.689279 0.126151
0.844541 0.501764 0.126022
0.849575 0.564366 0.123653
0.84455 0.626801 0.126008
0.850181 0.689316 0.123718
0.912179 0.501745 0.123722
0.907094 0.564256 0.126052
0.912314 0.626794 0.123665
0.906973 0.68928 0.126102
0.969594 0.501722 0.126068
0.974606 0.564314 0.123672
0.9696 0.626799 0.126057
0.975096 0.689304 0.123647
0.781911 0.501719 0.163434
0.787126 0.564242 0.160976
0.782076 0.626607 0.163361
0.787525 0.68915 0.161038
0.849609 0.501692 0.160939
0.84453 0.56419 0.163509
0.84965 0.626666 0.160928
0.84461 0.689114 0.163443
0.906815 0.50174 0.163429
0.912206 0.564214 0.160935
0.907099 0.626695 0.163345
0.912564 0.689169 0.161026
0.974625 0.50176 0.161004
0.969359 0.564173 0.163427
0.974841 0.626692 0.161004
0.96966 0.689166 0.163462
0.787088 0.501739 0.198299
0.781679 0.56416 0.200838
0.787232 0.626597 0.198379
0.781989 0.689139 0.200779
0.844171 0.50169 0.200803
0.849577 0.564202 0.198302
0.844386 0.626625 0.200727
0.849872 0.689098 0.198427
0.911965 0.501774 0.198287
0.906797 0.564161 0.200758
0.912227 0.626601 0.198359
0.906895 0.68911 0.200848
0.969341 0.501706 0.200747
0.974599 0.564199 0.198352
0.969453 0.626575 0.200692
0.974891 0.689047 0.198448
0.781437 0.501631 0.238027
0.786909 0.564146 0.235664
0.781618 0.626556 0.23808
0.787242 0.68898 0.235804
0.849442 0.501678 0.235629
0.844056 0.564137 0.23809
0.84951 0.626586 0.235674
0.844278 0.689023 0.238177
0.906515 0.501708 0.238007
0.911972 0.564123 0.235684
0.906626 0.626541 0.238091
0.912128 0.689064 0.235712
0.974484 0.50172 0.235668
0.96912 0.564152 0.238091
0.974446 0.626553 0.235652
0.969255 0.688887 0.238165
0.786816 0.534919 0.0313324
0.78282 0.594035 0.0313284
0.786598 0.659763 0.0312819
0.784812 0.71827 0.031222
0.84512 0.531725 0.0313479
0.849317 0.597466 0.0312947
0.845886 0.656013 0.0312897
0.84812 0.722101 0.0312238
0.911916 0.534841 0.0313412
0.907777 0.594105 0.0312887
0.911753 0.65986 0.0312989
0.909789 0.718111 0.0312526
0.970103 0.531716 0.0313564
0.97438 0.597475 0.0312954
0.970953 0.655938 0.031324
0.973155 0.722127 0.0312545
0.782575 0.531321 0.0687773
0.787029 0.597525 0.06877
0.782986 0.656229 0.0688452
0.786253 0.722662 0.0688124
0.849449 0.534726 0.0687371
0.845182 0.593709 0.0687779
0.849432 0.660099 0.0688133
0.846601 0.718543 0.0688384
0.907568 0.531318 0.0687694
0.911951 0.597596 0.0687871
0.908043 0.656238 0.0688287
0.911314 0.722642 0.0688146
0.974505 0.534773 0.0687569
0.97023 0.593667 0.0688102
0.974517 0.66 0.0688599
0.971762 0.718389 0.0688298
0.786955 0.534731 0.106114
0.782778 0.593427 0.106202
0.78707 0.660087 0.106218
0.783807 0.718322 0.106254
0.845204 0.530786 0.106158
0.849503 0.597422 0.10618
0.845523 0.655963 0.106228
0.849181 0.722548 0.106261
0.911878 0.53488 0.106131
0.907803 0.593473 0.106188
0.912215 0.660009 0.106215
0.908867 0.718343 0.106242
0.970172 0.530861 0.106212
0.974515 0.597449 0.10619
0.970574 0.65596 0.106203
0.974123 0.722494 0.106256
0.782829 0.530734 0.143532
0.78702 0.597369 0.143513
0.783014 0.655758 0.143531
0.786916 0.722297 0.143686
0.849317 0.534882 0.143519
0.845316 0.593265 0.143527
0.849637 0.659862 0.143513
0.846182 0.71833 0.14364
0.907735 0.530694 0.143499
0.912096 0.597433 0.143535
0.908031 0.655869 0.143521
0.91194 0.722399 0.143648
0.974324 0.534967 0.143517
0.970346 0.593291 0.143518
0.974699 0.659889 0.143568
0.971213 0.718281 0.143633
0.786752 0.534952 0.18088
0.782801 0.593274 0.180894
0.786942 0.659742 0.18091
0.783449 0.718051 0.180991
0.845281 0.530596 0.180867
0.849354 0.597442 0.180876
0.845458 0.655764 0.180827
0.849499 0.722265 0.180988
0.911852 0.534882 0.180842
0.9079 0.593301 0.180842
0.912014 0.659734 0.18087
0.908467 0.717996 0.180986
0.970225 0.53077 0.180852
0.974368 0.597301 0.180877
0.970386 0.655753 0.180862
0.974368 0.722374 0.181023
0.782611 0.53077 0.218195
0.78677 0.597255 0.218211
0.782889 0.655724 0.218211
0.786748 0.722123 0.21834
0.849203 0.534824 0.218223
0.845172 0.593245 0.218182
0.849367 0.659622 0.218212
0.845623 0.717977 0.218356
0.90762 0.530765 0.218185
0.911785 0.597335 0.218217
0.907848 0.655655 0.218192
0.911844 0.722199 0.218348
0.974209 0.534909 0.218217
0.970237 0.593224 0.218226
0.974291 0.659645 0.218221
0.970667 0.717951 0.218336
0.753422 0.536092 0.0134777
0.753423 0.59407 0.0112051
0.753565 0.659879 0.0130189
0.753697 0.717557 0.0120527
0.815914 0.531776 0.0112306
0.815959 0.598082 0.0133848
0.816088 0.656081 0.0114456
0.816142 0.72173 0.0121963
0.878447 0.536145 0.0136315
0.878451 0.594094 0.0112356
0.878612 0.659877 0.0130571
0.878749 0.717464 0.0120633
0.941011 0.531641 0.0112385
0.940984 0.59804 0.01336
0.941104 0.655985 0.0115237
0.941218 0.721856 0.0122669
0.753432 0.531181 0.0487442
0.753517 0.598535 0.0512133
0.753613 0.6561 0.0489278
0.753838 0.723429 0.0504686
0.815923 0.536023 0.0512623
0.815995 0.593907 0.048698
0.816137 0.660946 0.051063
0.816293 0.71816 0.0495557
0.878462 0.531122 0.0486761
0.878487 0.598485 0.0512417
0.878674 0.656209 0.0488876
0.878761 0.723415 0.0504986
0.940939 0.536067 0.0513375
0.940956 0.593917 0.0487618
0.941181 0.660992 0.0511243
0.941295 0.71831 0.0495329
0.753464 0.536016 0.0887022
0.753527 0.593494 0.0860918
0.753711 0.661063 0.0886881
0.753831 0.718238 0.0867653
0.815974 0.530916 0.0860915
0.816077 0.598419 0.088664
0.816134 0.655962 0.0862412
0.816417 0.723666 0.0883818
0.878486 0.535931 0.0887032
0.878513 0.59358 0.0860944
0.878646 0.660803 0.0886727
0.878832 0.718182 0.0867466
0.940979 0.530918 0.0861316
0.941039 0.598403 0.0886333
0.941179 0.656051 0.0862546
0.941373 0.723559 0.0882675
0.753481 0.530678 0.123551
0.753631 0.598427 0.126029
0.753747 0.655656 0.123563
0.753986 0.723607 0.125878
0.81599 0.535952 0.125957
0.816102 0.593416 0.123533
0.816253 0.660967 0.126044
0.816422 0.717817 0.124012
0.878458 0.530801 0.123559
0.878635 0.5984 0.126001
0.878785 0.655551 0.123567
0.878936 0.723762 0.125875
0.941051 0.535884 0.126036
0.941133 0.593351 0.12353
0.941256 0.66106 0.126109
0.941393 0.717923 0.124031
0.753394 0.535845 0.163356
0.753549 0.593157 0.160911
0.753718 0.660808 0.163357
0.753899 0.717863 0.161313
0.816017 0.530654 0.160958
0.816072 0.598343 0.163326
0.81615 0.655689 0.160877
0.816422 0.723384 0.163357
0.878483 0.535874 0.163324
0.87857 0.593219 0.160865
0.878759 0.66078 0.163332
0.878895 0.717783 0.161265
0.940974 0.530611 0.160887
0.941113 0.598429 0.163314
0.941189 0.655578 0.160908
0.941411 0.723387 0.163306
0.753364 0.530548 0.198269
0.753472 0.598321 0.200774
0.753643 0.655525 0.198272
0.753696 0.723412 0.200706
0.815833 0.536011 0.200682
0.815979 0.593002 0.19827
0.81611 0.660877 0.200676
0.816286 0.717905 0.198564
0.878374 0.530613 0.198275
0.878529 0.59835 0.200735
0.878534 0.655516 0.198242
0.878711 0.723442 0.20073
0.940905 0.53585 0.200733
0.94096 0.593167 0.198282
0.941034 0.66082 0.200672
0.94126 0.717811 0.198563
0.753237 0.536018 0.23801
0.753285 0.592953 0.235604
0.753463 0.660818 0.238018
0.753533 0.717779 0.235882
0.815732 0.530574 0.235583
0.815806 0.598364 0.238036
0.815923 0.655358 0.235672
0.816053 0.723271 0.238134
0.878237 0.536009 0.238104
0.878284 0.5931 0.235564
0.878414 0.660737 0.238058
0.878504 0.717863 0.235888
0.940736 0.530555 0.235625
0.940841 0.598432 0.238076
0.940861 0.65549 0.235685
0.941082 0.723321 0.238158
0.786864 0.501622 0.27296
0.781522 0.564011 0.275414
0.78692 0.626463 0.273043
0.78183 0.68892 0.275518
0.843971 0.501564 0.275456
0.849423 0.564061 0.27303
0.844183 0.626492 0.275435
0.849559 0.688943 0.273145
0.91185 0.501599 0.272958
0.906596 0.56398 0.275336
0.911899 0.626451 0.272995
0.90684 0.688925 0.275449
0.969167 0.501578 0.275351
0.97441 0.564087 0.272974
0.969241 0.626462 0.27537
0.974672 0.688963 0.273107
0.781698 0.501447 0.312708
0.786823 0.563926 0.310333
0.781702 0.626357 0.312785
0.787019 0.688931 0.310461
0.849242 0.501442 0.310263
0.844227 0.563935 0.312693
0.849416 0.626387 0.310317
0.844295 0.688858 0.312792
0.906707 0.501454 0.312718
0.911924 0.563938 0.310271
0.906677 0.626439 0.312724
0.912109 0.68893 0.310489
0.97419 0.50149 0.310299
0.969226 0.563939 0.312648
0.974306 0.626373 0.310321
0.969241 0.688908 0.312786
0.786666 0.501415 0.347602
0.781465 0.563911 0.350029
0.786891 0.626367 0.34761
0.781777 0.688875 0.350095
0.843969 0.501491 0.350001
0.849262 0.563916 0.347588
0.844141 0.626369 0.350042
0.849593 0.688887 0.347745
0.911762 0.5015 0.347642
0.906468 0.563904 0.349974
0.911867 0.626387 0.347601
0.906661 0.688832 0.350129
0.968853 0.501456 0.349949
0.974252 0.563964 0.347568
0.969078 0.62638 0.350021
0.974641 0.688862 0.347812
0.781323 0.501261 0.387269
0.786652 0.563778 0.384993
0.781517 0.626284 0.387308
0.787015 0.688775 0.385011
0.849144 0.501341 0.384865
0.843992 0.563789 0.387311
0.849224 0.626241 0.384858
0.844153 0.688715 0.387427
0.906411 0.501323 0.387169
0.911711 0.563839 0.38494
0.90659 0.626287 0.387284
0.911924 0.688723 0.384996
0.974107 0.501382 0.3848
0.968991 0.56386 0.387245
0.974348 0.626229 0.384942
0.969255 0.688725 0.387315
0.786418 0.501159 0.422278
0.781617 0.563642 0.424558
0.786509 0.626152 0.422178
0.781723 0.688639 0.424614
0.84393 0.501182 0.424496
0.848952 0.563575 0.422232
0.844175 0.626034 0.424711
0.849265 0.688621 0.422295
0.911409 0.501159 0.422292
0.906566 0.563631 0.424526
0.911533 0.626083 0.42224
0.906669 0.688535 0.424674
0.968733 0.501119 0.424465
0.973878 0.563605 0.422227
0.969101 0.626059 0.424617
0.974251 0.688627 0.422266
0.781163 0.500959 0.461959
0.786497 0.563431 0.459516
0.78139 0.6259 0.461798
0.786716 0.688524 0.459559
0.848928 0.50095 0.459707
0.843727 0.563375 0.461759
0.84912 0.625878 0.459445
0.844165 0.688454 0.46188
0.90623 0.501003 0.461915
0.911429 0.563467 0.459546
0.906475 0.625864 0.461819
0.911624 0.688471 0.459563
0.973974 0.50092 0.459648
0.968892 0.56334 0.461719
0.974055 0.625929 0.459437
0.969057 0.68845 0.461909
0.786467 0.500915 0.497047
0.786516 0.625796 0.496769
0.848943 0.563385 0.496864
0.849134 0.688288 0.496915
0.911493 0.500966 0.497071
0.911498 0.625812 0.496702
0.97389 0.563332 0.496838
0.974166 0.688297 0.496865
0.78651 0.534743 0.255496
0.782495 0.593215 0.25555
0.786724 0.659502 0.255581
0.782889 0.717962 0.255674
0.84505 0.530623 0.255559
0.849151 0.597156 0.255533
0.845282 0.655632 0.255563
0.849305 0.722157 0.25571
0.911628 0.534697 0.255517
0.907528 0.593195 0.255529
0.911799 0.659503 0.255567
0.907899 0.717927 0.255689
0.970005 0.530709 0.255537
0.97433 0.597214 0.255484
0.970257 0.655584 0.255564
0.974342 0.722103 0.255675
0.7824 0.530464 0.292813
0.786837 0.597046 0.292883
0.782515 0.655468 0.292893
0.786857 0.722065 0.292977
0.849012 0.534666 0.292841
0.844831 0.593154 0.292865
0.849355 0.65952 0.292893
0.845255 0.718004 0.292991
0.907528 0.530542 0.292797
0.911817 0.597064 0.292786
0.907563 0.655516 0.292884
0.911783 0.722025 0.292967
0.974125 0.534547 0.292843
0.96982 0.593154 0.292824
0.974366 0.659532 0.292884
0.970184 0.718048 0.292981
0.78664 0.534462 0.330146
0.782257 0.592898 0.330177
0.786826 0.659481 0.330215
0.782586 0.717928 0.330296
0.844873 0.530426 0.330113
0.849336 0.596983 0.330151
0.844939 0.655372 0.330173
0.849476 0.72197 0.330265
0.91169 0.534609 0.330125
0.907422 0.593006 0.330143
0.911876 0.65938 0.330167
0.9076 0.717892 0.330312
0.969837 0.530567 0.330127
0.974241 0.59702 0.33016
0.969947 0.655469 0.330176
0.974279 0.721983 0.330275
0.782261 0.530436 0.36745
0.786826 0.596924 0.367459
0.782578 0.655363 0.367504
0.786633 0.721896 0.367575
0.849148 0.534455 0.367419
0.844684 0.5929 0.367445
0.849288 0.659398 0.367523
0.845077 0.717815 0.367615
0.907273 0.530522 0.367433
0.911795 0.596959 0.367416
0.907492 0.655357 0.367447
0.911665 0.721987 0.367605
0.974006 0.534471 0.367429
0.969797 0.592963 0.367418
0.97431 0.65933 0.367504
0.970112 0.717831 0.367594
0.786452 0.534217 0.404773
0.782221 0.592788 0.404753
0.786635 0.659287 0.404782
0.78252 0.717867 0.404886
0.844725 0.530302 0.404737
0.849185 0.596764 0.404715
0.845009 0.655097 0.404787
0.849224 0.721822 0.404851
0.911435 0.534196 0.404728
0.907182 0.592782 0.40471
0.911655 0.659293 0.404771
0.907659 0.717731 0.404884
0.969601 0.530383 0.404718
0.97415 0.596756 0.404724
0.969979 0.655329 0.40476
0.974238 0.721766 0.404856
0.782235 0.530213 0.442095
0.786527 0.596518 0.442021
0.782458 0.655223 0.442058
0.786665 0.72171 0.442123
0.84888 0.533954 0.442105
0.844672 0.592562 0.442009
0.849092 0.659059 0.44206
0.844826 0.717721 0.442113
0.907227 0.530228 0.442049
0.91154 0.59656 0.442028
0.907455 0.655141 0.442034
0.91168 0.721687 0.442138
0.973812 0.533833 0.442026
0.969684 0.592565 0.441989
0.97413 0.659117 0.442043
0.96991 0.717679 0.442139
0.786174 0.533839 0.479454
0.782309 0.592568 0.479302
0.786508 0.658907 0.47928
0.782213 0.717492 0.479451
0.844859 0.530038 0.479438
0.848891 0.596113 0.479299
0.844962 0.65506 0.479262
0.849137 0.721418 0.479427
0.91122 0.533764 0.479429
0.907177 0.592484 0.479276
0.911442 0.65886 0.479274
0.907297 0.717519 0.479404
0.969866 0.530068 0.479381
0.974024 0.596111 0.479253
0.96995 0.655037 0.479245
0.974091 0.72149 0.479437
0.753183 0.530415 0.272896
0.7533 0.598184 0.275441
0.753388 0.655436 0.272944
0.753468 0.723309 0.275504
0.81568 0.535813 0.27529
0.81573 0.592968 0.272861
0.815868 0.660498 0.275438
0.815976 0.717812 0.273072
0.878175 0.530484 0.272892
0.878259 0.598238 0.275427
0.878363 0.655457 0.272946
0.878489 0.723165 0.275507
0.940713 0.535794 0.275358
0.940804 0.593013 0.272807
0.940921 0.660658 0.275444
0.940901 0.717729 0.273062
0.753206 0.535512 0.312724
0.753226 0.59294 0.310134
0.753352 0.660545 0.312845
0.75346 0.717881 0.310324
0.815668 0.530506 0.310181
0.815746 0.597941 0.312847
0.815798 0.655344 0.310242
0.815973 0.723157 0.312888
0.878208 0.535561 0.31267
0.878286 0.592864 0.310091
0.878373 0.660556 0.312835
0.878444 0.717706 0.310337
0.940732 0.530446 0.310183
0.940728 0.598089 0.312807
0.940864 0.655375 0.310206
0.940927 0.723209 0.312845
0.753104 0.530289 0.347466
0.753171 0.598164 0.350121
0.753298 0.655451 0.347503
0.753368 0.723143 0.350156
0.815607 0.535656 0.350046
0.815691 0.592852 0.3474
0.815861 0.660579 0.350073
0.815922 0.717801 0.347565
0.878099 0.530455 0.347397
0.878215 0.598106 0.350069
0.878285 0.655367 0.347439
0.878426 0.723113 0.350178
0.940565 0.535696 0.350049
0.940691 0.592872 0.347407
0.940831 0.660573 0.350072
0.940885 0.717701 0.347656
0.753072 0.535477 0.38738
0.753132 0.592769 0.384689
0.753246 0.660626 0.387323
0.753366 0.717695 0.38491
0.815491 0.530326 0.38477
0.815623 0.597887 0.387373
0.815736 0.655243 0.384843
0.815834 0.723078 0.387414
0.878014 0.535556 0.387319
0.878177 0.592857 0.384665
0.878274 0.660451 0.387324
0.878375 0.717743 0.384922
0.940548 0.530401 0.384709
0.940628 0.597973 0.387375
0.940783 0.655261 0.384787
0.940843 0.722919 0.387425
0.752947 0.530282 0.422129
0.753072 0.597591 0.424616
0.753258 0.655229 0.422089
0.753298 0.722812 0.424696
0.815487 0.535185 0.424615
0.815586 0.592775 0.421976
0.815758 0.660241 0.424617
0.815779 0.717658 0.422118
0.877993 0.530251 0.422119
0.878088 0.59762 0.424586
0.878236 0.655106 0.422088
0.878311 0.722792 0.424689
0.940451 0.535179 0.424538
0.940562 0.592751 0.421962
0.940759 0.660125 0.42455
0.940771 0.717537 0.42214
0.752845 0.535135 0.461952
0.753015 0.592409 0.4593
0.753176 0.660049 0.461822
0.753134 0.717593 0.45937
0.815329 0.529801 0.459605
0.815525 0.597587 0.461831
0.81563 0.655018 0.45935
0.815619 0.722687 0.462049
0.877906 0.535065 0.4619
0.877963 0.592416 0.459299
0.878159 0.659988 0.461777
0.878132 0.7176 0.45935
0.940369 0.52987 0.459546
0.940583 0.597416 0.46181
0.94065 0.655029 0.459302
0.940588 0.722663 0.461992
0.752845 0.52983 0.496974
0.753063 0.654944 0.496708
0.815449 0.592394 0.496698
0.815541 0.717434 0.496768
0.877866 0.529802 0.497003
0.87801 0.654813 0.496709
0.940473 0.592426 0.496643
0.940502 0.717323 0.496681
0.940419 0.53515 0.499193
0.815361 0.535042 0.499173
0.753052 0.722658 0.499308
0.878096 0.722623 0.499295
0.752976 0.597538 0.499108
0.877998 0.597515 0.499109
0.815587 0.659981 0.498976
0.940587 0.660001 0.49899
0.843617 0.500926 0.499341
0.781242 0.56336 0.499149
0.968499 0.500948 0.499365
0.781495 0.68832 0.499231
0.84377 0.625724 0.498929
0.906291 0.563394 0.499119
0.968854 0.625626 0.498916
0.906404 0.688214 0.499199
0.781634 0.500923 0.536679
0.78589 0.563256 0.53457
0.781807 0.625503 0.536331
0.786189 0.687941 0.53445
0.848386 0.5009 0.534791
0.844291 0.563223 0.536341
0.848463 0.625466 0.534467
0.84428 0.687798 0.536214
0.906702 0.500897 0.536635
0.910788 0.563202 0.53455
0.906954 0.625423 0.536278
0.911205 0.687769 0.534304
0.973357 0.500845 0.534772
0.96936 0.563257 0.536364
0.973554 0.625431 0.534404
0.969385 0.687732 0.536168
0.784605 0.50114 0.572443
0.784304 0.563339 0.573599
0.784865 0.625403 0.572666
0.783939 0.687602 0.573287
0.846625 0.501097 0.573414
0.847044 0.56331 0.572784
0.846601 0.625438 0.573482
0.84741 0.687644 0.57235
0.909614 0.501016 0.572569
0.909234 0.563302 0.573583
0.909775 0.625377 0.572611
0.908997 0.687572 0.573265
0.971593 0.501102 0.573504
0.972144 0.563188 0.57276
0.971671 0.625399 0.573433
0.972394 0.687545 0.57234
0.784712 0.501443 0.61211
0.784538 0.563514 0.611913
0.784569 0.6255 0.612121
0.784905 0.687536 0.611543
0.846856 0.501391 0.611895
0.847312 0.563484 0.612232
0.847263 0.625559 0.611917
0.846785 0.687647 0.611783
0.909744 0.5013 0.61213
0.909592 0.563514 0.611844
0.909605 0.625599 0.61224
0.909685 0.687629 0.611537
0.908973 0.749804 0.611393
0.971856 0.501361 0.611881
0.972301 0.563579 0.612233
0.972327 0.625548 0.611875
0.971831 0.687548 0.611813
0.783697 0.749851 0.611428
0.784663 0.501306 0.651322
0.784605 0.563693 0.65171
0.784533 0.625825 0.651605
0.784472 0.687928 0.65125
0.847163 0.501265 0.651349
0.847066 0.563691 0.65162
0.847078 0.625821 0.651541
0.84704 0.687973 0.651307
0.909562 0.501313 0.651235
0.909651 0.563613 0.651724
0.909601 0.625772 0.651599
0.909544 0.687974 0.651244
0.972109 0.501249 0.65132
0.972087 0.563677 0.651561
0.972128 0.625847 0.651618
0.971945 0.687912 0.651232
0.784436 0.500941 0.691656
0.784395 0.563573 0.692029
0.784502 0.626079 0.691992
0.784204 0.688532 0.691669
0.846926 0.500988 0.691629
0.847009 0.563569 0.691952
0.846908 0.626024 0.692043
0.84695 0.68842 0.691598
0.909528 0.501014 0.691627
0.909475 0.563558 0.692052
0.909526 0.626051 0.691989
0.90933 0.688526 0.691684
0.97194 0.500984 0.691577
0.972191 0.56361 0.691983
0.971959 0.62615 0.69198
0.972082 0.688559 0.691675
0.784314 0.501151 0.732374
0.784458 0.563583 0.732496
0.784229 0.626186 0.732589
0.784318 0.688756 0.732288
0.84686 0.500899 0.732302
0.846842 0.563593 0.732601
0.846939 0.626184 0.732501
0.846876 0.688764 0.732298
0.909286 0.500919 0.732354
0.909413 0.563546 0.732444
0.909389 0.626168 0.732701
0.909394 0.688806 0.732211
0.971782 0.501108 0.732347
0.971875 0.563674 0.732545
0.971969 0.626223 0.732555
0.971799 0.688851 0.732338
0.782645 0.530197 0.516811
0.786358 0.596075 0.516689
0.782756 0.654853 0.516633
0.786398 0.721162 0.51675
0.848474 0.533802 0.516815
0.844978 0.592548 0.516627
0.848701 0.658277 0.516628
0.844889 0.717414 0.516751
0.907654 0.530204 0.516856
0.911264 0.596065 0.516642
0.907799 0.654779 0.516583
0.911363 0.72111 0.516737
0.973572 0.533753 0.516826
0.970093 0.592463 0.51664
0.973722 0.658236 0.516587
0.970026 0.717339 0.516684
0.785497 0.53366 0.554588
0.783279 0.593089 0.554491
0.785719 0.657464 0.554415
0.783025 0.717451 0.55429
0.84599 0.531256 0.554643
0.84838 0.59547 0.554463
0.846008 0.655139 0.554335
0.848555 0.719624 0.554265
0.910454 0.53349 0.554577
0.908432 0.593037 0.554462
0.910698 0.65749 0.554359
0.908094 0.717272 0.554238
0.970907 0.531117 0.554627
0.973216 0.59542 0.55443
0.970987 0.655215 0.55432
0.973329 0.719554 0.554188
0.78395 0.53159 0.593058
0.785367 0.594705 0.593064
0.78415 0.65613 0.592861
0.785339 0.719494 0.592463
0.847656 0.532396 0.593078
0.84657 0.593992 0.593066
0.847853 0.657001 0.592873
0.846152 0.718646 0.592457
0.908987 0.531527 0.593103
0.910533 0.594883 0.593038
0.90906 0.656106 0.592857
0.910258 0.719542 0.592455
0.972633 0.532532 0.59314
0.971639 0.593832 0.593047
0.972872 0.657031 0.592817
0.97142 0.718504 0.592373
0.78494 0.532648 0.632022
0.784455 0.594268 0.632087
0.78499 0.656881 0.631869
0.784064 0.718539 0.631315
0.846879 0.532152 0.632061
0.847629 0.594764 0.632032
0.846791 0.656644 0.63185
0.847456 0.719058 0.631322
0.909971 0.532604 0.631999
0.909462 0.594158 0.632049
0.910038 0.656993 0.631881
0.909173 0.718878 0.63135
0.971869 0.5322 0.632009
0.972566 0.594852 0.632061
0.971902 0.656473 0.631861
0.972555 0.719097 0.631371
0.784448 0.532335 0.671703
0.784647 0.594855 0.671946
0.78441 0.657234 0.671705
0.784552 0.71943 0.671075
0.847162 0.532453 0.671705
0.847007 0.594829 0.671896
0.846928 0.656971 0.671725
0.84686 0.719512 0.671115
0.909525 0.532162 0.671711
0.909861 0.594713 0.671905
0.909543 0.657205 0.671716
0.909583 0.71946 0.67118
0.972148 0.532436 0.671678
0.972006 0.594733 0.67188
0.972043 0.657158 0.671741
0.97197 0.719456 0.671128
0.784439 0.532292 0.712131
0.784331 0.594977 0.712307
0.784164 0.657478 0.712139
0.784218 0.720226 0.711607
0.846829 0.532202 0.712075
0.847067 0.594797 0.712223
0.846871 0.657563 0.712114
0.846775 0.71989 0.711608
0.909399 0.532151 0.712095
0.909361 0.594926 0.712241
0.909356 0.657378 0.712109
0.909428 0.720077 0.711569
0.971939 0.532263 0.712094
0.972136 0.594994 0.712268
0.972014 0.65757 0.712139
0.972054 0.720153 0.711594
0.972383 0.749705 0.61109
0.847381 0.749958 0.611132
0.752946 0.534085 0.536399
0.753034 0.592607 0.53449
0.753051 0.659313 0.53629
0.753036 0.717556 0.53432
0.815418 0.529968 0.534842
0.815546 0.596656 0.536447
0.815485 0.655052 0.534579
0.815605 0.721933 0.536464
0.877938 0.534009 0.53636
0.878003 0.592573 0.534508
0.878052 0.659066 0.536198
0.878075 0.717358 0.534286
0.940408 0.530082 0.534798
0.940512 0.596504 0.536265
0.940556 0.654919 0.534484
0.940587 0.721834 0.536373
0.75311 0.531834 0.572897
0.753247 0.594545 0.573686
0.753183 0.656362 0.572583
0.75314 0.720027 0.573574
0.815623 0.532156 0.573677
0.815729 0.594051 0.572696
0.815804 0.657185 0.57351
0.815633 0.718638 0.572164
0.878143 0.531801 0.572954
0.878257 0.594478 0.5737
0.878289 0.656311 0.572604
0.878199 0.719902 0.573434
0.940643 0.532042 0.573715
0.940762 0.594071 0.572694
0.940724 0.657057 0.573478
0.940708 0.7186 0.572227
0.75335 0.532106 0.612321
0.753442 0.594428 0.611855
0.753397 0.657002 0.612139
0.753295 0.718555 0.611089
0.815864 0.532354 0.611961
0.815945 0.594394 0.612358
0.815912 0.656547 0.611661
0.815818 0.719565 0.611873
0.878396 0.531924 0.612413
0.87852 0.594562 0.611838
0.878445 0.656824 0.612169
0.8783 0.718741 0.611163
0.940904 0.532232 0.611934
0.941017 0.594405 0.612357
0.940973 0.656498 0.611703
0.940808 0.719273 0.611751
0.753293 0.532327 0.651526
0.753327 0.594674 0.651767
0.753239 0.657016 0.65141
0.753195 0.719127 0.650986
0.815818 0.532359 0.651626
0.815834 0.594679 0.651566
0.815768 0.656924 0.651564
0.815784 0.719163 0.650805
0.878342 0.53234 0.651417
0.878352 0.594654 0.651758
0.878257 0.656912 0.651469
0.878304 0.71924 0.65097
0.940846 0.532273 0.651562
0.940888 0.594733 0.651522
0.9408 0.656837 0.651534
0.94072 0.719225 0.650865
0.753236 0.532118 0.6918
0.753164 0.594861 0.691982
0.753078 0.657285 0.691843
0.753061 0.719949 0.691297
0.815661 0.532186 0.69175
0.815636 0.594728 0.692072
0.815597 0.65741 0.691873
0.815551 0.71976 0.691309
0.878238 0.53216 0.691813
0.878278 0.594762 0.691953
0.878189 0.657194 0.691886
0.878088 0.719904 0.691315
0.940757 0.532196 0.69182
0.940808 0.594713 0.691998
0.940662 0.657344 0.691887
0.94079 0.719807 0.691318
0.753109 0.532308 0.732493
0.753137 0.594759 0.732506
0.753066 0.657602 0.732453
0.753068 0.720097 0.732131
0.815676 0.532243 0.732437
0.81567 0.594982 0.732429
0.815527 0.657496 0.732371
0.815591 0.720101 0.732123
0.87804 0.532138 0.732344
0.878173 0.59486 0.732489
0.878157 0.657579 0.73245
0.878084 0.72007 0.73195
0.940546 0.532243 0.732428
0.940644 0.594944 0.732462
0.940638 0.657579 0.732459
0.940653 0.720365 0.731981
0.971101 0.749972 0.572776
0.784541 0.501036 0.773395
0.784488 0.563598 0.773638
0.784412 0.626067 0.77343
0.784507 0.688707 0.773418
0.846952 0.500977 0.773485
0.847 0.563476 0.77347
0.847048 0.6261 0.773547
0.8471 0.688694 0.773268
0.909401 0.501003 0.773462
0.909518 0.563552 0.773584
0.909573 0.626114 0.77341
0.909497 0.688787 0.773357
0.971956 0.500974 0.773489
0.972003 0.563517 0.773565
0.972005 0.626126 0.773623
0.971951 0.688772 0.773299
0.78461 0.500966 0.814742
0.784504 0.563454 0.814478
0.78454 0.62605 0.814384
0.784542 0.688502 0.814428
0.847127 0.500894 0.814647
0.847007 0.563448 0.814482
0.84703 0.626013 0.8144
0.847144 0.688608 0.814303
0.909352 0.500902 0.814658
0.909472 0.563354 0.814452
0.909494 0.626001 0.814366
0.909461 0.688623 0.814349
0.97202 0.50078 0.814612
0.97193 0.563281 0.814483
0.971828 0.625985 0.814367
0.972037 0.688605 0.814291
0.784592 0.501147 0.85565
0.784631 0.563487 0.855155
0.784442 0.625828 0.855038
0.784587 0.688343 0.855122
0.847262 0.501006 0.855701
0.84697 0.563461 0.855228
0.847031 0.625955 0.854924
0.846974 0.68831 0.855145
0.909493 0.501069 0.855613
0.909537 0.563415 0.855153
0.909479 0.625869 0.85497
0.909468 0.688301 0.855054
0.972047 0.50104 0.85565
0.971955 0.563459 0.855217
0.971976 0.625925 0.854921
0.971837 0.688322 0.854993
0.784521 0.502002 0.896216
0.784196 0.563869 0.89563
0.784389 0.625783 0.89513
0.784252 0.687777 0.895454
0.846937 0.502029 0.896439
0.846995 0.563891 0.895546
0.84676 0.625838 0.895276
0.846953 0.687817 0.895251
0.90946 0.502042 0.896132
0.90925 0.563893 0.89558
0.909478 0.625846 0.895121
0.909298 0.687803 0.89538
0.972023 0.502022 0.896277
0.972005 0.563946 0.895443
0.971755 0.625892 0.89529
0.971944 0.687829 0.895285
0.783986 0.502855 0.936051
0.784609 0.564653 0.935023
0.783937 0.62611 0.935378
0.784757 0.68757 0.934709
0.783931 0.749408 0.935431
0.847523 0.5028 0.935548
0.846516 0.564711 0.935596
0.847054 0.62607 0.934625
0.846386 0.687465 0.935385
0.847486 0.74941 0.934997
0.908999 0.502968 0.935964
0.909693 0.564657 0.934996
0.909021 0.626076 0.935314
0.909709 0.6875 0.934705
0.909101 0.749333 0.93537
0.972644 0.502791 0.935503
0.971576 0.564693 0.935543
0.972251 0.626046 0.93462
0.971448 0.687469 0.935291
0.788053 0.502681 0.974432
0.780312 0.564797 0.975362
0.787631 0.626411 0.973654
0.780214 0.688098 0.975098
0.84316 0.502686 0.975577
0.850256 0.56481 0.973917
0.842589 0.626554 0.975206
0.85026 0.68806 0.973419
0.913009 0.502723 0.974392
0.905355 0.564796 0.975337
0.912753 0.626467 0.973669
0.905284 0.688085 0.975072
0.968148 0.502741 0.975565
0.97521 0.564798 0.973948
0.967667 0.626522 0.975215
0.975194 0.688047 0.973413
0.783127 0.532277 0.993543
0.786337 0.596873 0.993397
0.783964 0.656119 0.993285
0.784844 0.720928 0.993158
0.84905 0.534665 0.993518
0.845779 0.59417 0.993311
0.848496 0.659128 0.993276
0.847828 0.717898 0.993161
0.908139 0.532297 0.993552
0.911339 0.596793 0.993337
0.909001 0.656177 0.993275
0.909924 0.720907 0.993188
0.974117 0.53462 0.993508
0.97083 0.594199 0.993376
0.973415 0.659017 0.993296
0.972757 0.717938 0.993181
0.784414 0.532543 0.752823
0.784434 0.594755 0.752847
0.784331 0.657707 0.752824
0.784429 0.719994 0.752568
0.847043 0.532118 0.752826
0.846831 0.595009 0.752883
0.846887 0.657505 0.752779
0.847055 0.720224 0.752449
0.909179 0.532418 0.752786
0.909423 0.594619 0.752939
0.909377 0.657816 0.752828
0.90938 0.720181 0.752361
0.971848 0.532305 0.75282
0.971865 0.594909 0.752888
0.972026 0.657491 0.752785
0.971881 0.720271 0.752487
0.784493 0.532116 0.793902
0.784561 0.59488 0.793957
0.784505 0.657422 0.793784
0.78471 0.720051 0.793741
0.846968 0.532313 0.793908
0.846932 0.594648 0.793898
0.847072 0.657608 0.79379
0.8472 0.719917 0.793625
0.909608 0.531964 0.793895
0.909616 0.594857 0.793835
0.909515 0.657444 0.793728
0.909522 0.720175 0.793664
0.971946 0.532041 0.793947
0.972097 0.594534 0.793931
0.971989 0.657576 0.793846
0.971902 0.719956 0.79365
0.784642 0.53229 0.835016
0.78455 0.594659 0.834775
0.784436 0.657167 0.834775
0.784651 0.719588 0.834827
0.8472 0.532221 0.834962
0.84703 0.59483 0.834757
0.847072 0.65742 0.834686
0.846938 0.71968 0.834817
0.909526 0.532057 0.834961
0.909475 0.594762 0.834706
0.909302 0.65733 0.834673
0.909555 0.719737 0.834825
0.971832 0.532021 0.83498
0.971811 0.594624 0.834704
0.97187 0.657165 0.834637
0.971936 0.71967 0.834753
0.784597 0.532673 0.875712
0.784494 0.594533 0.875366
0.784437 0.656963 0.87531
0.7846 0.719047 0.87557
0.846797 0.532613 0.875773
0.846875 0.594856 0.875289
0.84687 0.656874 0.875356
0.846968 0.719285 0.875531
0.909445 0.532641 0.875742
0.909283 0.594596 0.875329
0.909509 0.656823 0.875259
0.90947 0.718966 0.875576
0.971807 0.532463 0.875728
0.971935 0.594858 0.875347
0.971787 0.656994 0.875235
0.971897 0.719133 0.875478
0.783807 0.533381 0.916228
0.784554 0.595555 0.915591
0.784267 0.656472 0.915521
0.784186 0.718497 0.915858
0.847536 0.533954 0.916282
0.846574 0.594908 0.915649
0.846883 0.657067 0.915432
0.847194 0.717984 0.915896
0.908878 0.533486 0.916174
0.90972 0.595509 0.915616
0.909277 0.656478 0.91545
0.909048 0.718464 0.915878
0.97246 0.533923 0.916195
0.971606 0.59491 0.915564
0.971778 0.656982 0.915501
0.972197 0.718016 0.915925
0.785599 0.534861 0.955477
0.78335 0.594759 0.955215
0.784586 0.657864 0.955113
0.785095 0.717575 0.955012
0.845969 0.533322 0.955452
0.847663 0.596542 0.955182
0.846326 0.655937 0.955062
0.846427 0.719241 0.955051
0.910614 0.534972 0.955443
0.908591 0.594681 0.955206
0.909663 0.65783 0.955073
0.910137 0.717592 0.955028
0.970786 0.53328 0.955488
0.972887 0.596585 0.955182
0.97159 0.655881 0.955014
0.97135 0.719205 0.955032
0.753266 0.532257 0.773448
0.753235 0.594869 0.773448
0.753259 0.657451 0.773311
0.753357 0.720095 0.773282
0.815708 0.532291 0.773401
0.81577 0.59487 0.773423
0.815762 0.657494 0.773332
0.81583 0.719894 0.773151
0.878279 0.532228 0.773466
0.878243 0.594888 0.773396
0.878269 0.657459 0.773303
0.878261 0.720004 0.773156
0.940781 0.532297 0.773383
0.94081 0.594879 0.77341
0.940827 0.657582 0.773289
0.940756 0.720085 0.773159
0.753278 0.532384 0.814625
0.7532 0.594746 0.814384
0.753232 0.657288 0.814307
0.753394 0.719847 0.814461
0.815805 0.532276 0.814524
0.815755 0.594744 0.814287
0.815772 0.657398 0.814316
0.815879 0.71964 0.814288
0.878238 0.532397 0.814482
0.878242 0.594706 0.814289
0.878248 0.65737 0.81422
0.878325 0.719893 0.814351
0.940694 0.532131 0.814548
0.940674 0.594671 0.814195
0.940675 0.657462 0.814296
0.940751 0.719816 0.814291
0.7533 0.532574 0.855386
0.753187 0.594537 0.855028
0.75321 0.657106 0.854968
0.753304 0.719372 0.855291
0.815839 0.532256 0.855401
0.815748 0.594879 0.854982
0.81569 0.65702 0.85493
0.815777 0.719483 0.855129
0.878269 0.532483 0.855415
0.878239 0.594721 0.854941
0.87822 0.657164 0.854939
0.87825 0.719466 0.855177
0.940772 0.532288 0.855361
0.940735 0.594729 0.854965
0.940575 0.657005 0.854815
0.940724 0.719364 0.855154
0.753126 0.533077 0.895789
0.753133 0.595022 0.895416
0.753149 0.656609 0.895281
0.753207 0.718704 0.895573
0.815709 0.533255 0.896175
0.815627 0.594848 0.89536
0.815558 0.656887 0.895288
0.815664 0.718524 0.895754
0.878136 0.533123 0.895828
0.878136 0.595062 0.895474
0.87819 0.656663 0.895236
0.878163 0.718622 0.895605
0.940704 0.533281 0.89612
0.94063 0.594877 0.895317
0.940631 0.656839 0.895274
0.940729 0.718439 0.895766
0.753297 0.534681 0.936128
0.753162 0.595319 0.934867
0.753159 0.656993 0.935084
0.753217 0.717662 0.935483
0.815807 0.533872 0.935301
0.815609 0.595792 0.935506
0.815592 0.656299 0.934975
0.815768 0.718518 0.934956
0.878322 0.534767 0.93614
0.878255 0.595271 0.934942
0.87817 0.656813 0.935237
0.878281 0.717583 0.935499
0.940814 0.533824 0.935273
0.94082 0.595794 0.935498
0.940691 0.656268 0.934977
0.940794 0.718392 0.935032
0.753372 0.530819 0.973782
0.753215 0.599865 0.9754
0.753163 0.653274 0.974221
0.753399 0.721919 0.973997
0.815763 0.538279 0.975717
0.815608 0.592362 0.973687
0.815724 0.660951 0.97486
0.815888 0.714623 0.974758
0.878348 0.53084 0.973811
0.878193 0.599956 0.975313
0.878278 0.653276 0.974214
0.878386 0.721805 0.973971
0.940806 0.538275 0.975747
0.940755 0.592323 0.973728
0.940782 0.660963 0.974854
0.940918 0.71469 0.974802
0.971952 0.749769 0.895967
0.97253 0.749392 0.93494
0.909634 0.749746 0.895781
0.843206 0.749955 0.975059
0.846944 0.749781 0.895945
0.787881 0.74996 0.973538
0.784462 0.749809 0.895814
0.968204 0.749937 0.97502
0.912681 0.749884 0.973579
0.782316 0.750766 0.0132114
0.787423 0.812985 0.0112888
0.782545 0.875525 0.0133529
0.787958 0.938306 0.0124228
0.849315 0.750633 0.0111666
0.844575 0.812869 0.0132151
0.85037 0.875555 0.0117073
0.845817 0.93839 0.0144381
0.907208 0.750714 0.0131925
0.912387 0.812857 0.0112352
0.90756 0.875413 0.013338
0.912885 0.938361 0.0124669
0.974394 0.750698 0.0111689
0.969794 0.812853 0.0131373
0.97522 0.875547 0.0117134
0.971007 0.938402 0.0143655
0.787406 0.751635 0.0487466
0.782126 0.813944 0.0508964
0.787949 0.876249 0.0493032
0.782941 0.938656 0.0517533
0.844501 0.751711 0.0511991
0.849968 0.813936 0.0486892
0.845122 0.876237 0.0511799
0.850856 0.938633 0.049499
0.912375 0.751698 0.0487248
0.907044 0.813946 0.0508667
0.912993 0.876293 0.0492963
0.908065 0.938619 0.0517259
0.969574 0.751759 0.051151
0.975067 0.813889 0.0486358
0.970042 0.876233 0.051242
0.975983 0.938631 0.0495643
0.782079 0.751792 0.0885962
0.787806 0.814034 0.0862225
0.782488 0.876408 0.0888643
0.788604 0.938728 0.0872484
0.850232 0.751904 0.0862153
0.844468 0.8141 0.0884366
0.850671 0.876445 0.086636
0.845514 0.938758 0.0895079
0.907039 0.751824 0.0886542
0.91278 0.814105 0.0861801
0.907485 0.876386 0.0888306
0.913647 0.938771 0.0871939
0.975149 0.751781 0.0861952
0.969592 0.814105 0.0884927
0.975776 0.876437 0.0866808
0.970494 0.938757 0.0895058
0.787898 0.751659 0.1237
0.782016 0.81396 0.125994
0.788116 0.876466 0.12412
0.78283 0.938872 0.126916
0.844405 0.751711 0.126085
0.85031 0.814013 0.12364
0.844888 0.876353 0.126319
0.850882 0.938818 0.124472
0.912907 0.751712 0.123684
0.907073 0.813977 0.125989
0.913051 0.876421 0.124072
0.907842 0.938832 0.126898
0.969429 0.751695 0.126136
0.975353 0.813984 0.123573
0.969878 0.876331 0.126358
0.975863 0.938771 0.124571
0.782198 0.751628 0.16365
0.787851 0.813946 0.161
0.782447 0.876317 0.163777
0.788313 0.938936 0.162016
0.850314 0.751535 0.161076
0.844577 0.813856 0.163526
0.850677 0.87645 0.161405
0.845294 0.938922 0.164326
0.907056 0.751567 0.163612
0.912967 0.813973 0.160953
0.907448 0.876324 0.163752
0.913281 0.938886 0.161878
0.975314 0.751546 0.161033
0.969492 0.813904 0.163463
0.975752 0.876433 0.161517
0.970239 0.938897 0.16429
0.787688 0.751503 0.198459
0.782072 0.813839 0.200955
0.787996 0.876333 0.198813
0.782683 0.93886 0.201594
0.8445 0.751557 0.201087
0.850239 0.813794 0.198299
0.844939 0.876266 0.201205
0.850703 0.93882 0.199247
0.912578 0.751469 0.198326
0.907018 0.813851 0.20097
0.913023 0.876287 0.198764
0.907763 0.938898 0.201652
0.969565 0.751486 0.201033
0.975379 0.813798 0.198273
0.969797 0.876221 0.201127
0.97563 0.938806 0.199302
0.781791 0.751432 0.238386
0.78765 0.813791 0.235671
0.782231 0.876283 0.238545
0.787992 0.938857 0.236505
0.849832 0.751445 0.235796
0.844364 0.813706 0.238417
0.8504 0.876228 0.236064
0.845239 0.938843 0.23892
0.906846 0.751461 0.238406
0.912588 0.813791 0.235596
0.907218 0.876266 0.238557
0.912837 0.938832 0.236465
0.974864 0.751416 0.235794
0.969382 0.813747 0.23831
0.975368 0.876256 0.236169
0.970284 0.938816 0.238895
0.783982 0.784055 0.0310996
0.787091 0.843075 0.0309229
0.783439 0.908825 0.0319986
0.786795 0.967958 0.032135
0.848783 0.780467 0.0310698
0.845522 0.846279 0.0309182
0.849572 0.905454 0.0319901
0.846532 0.971798 0.0321582
0.908978 0.784055 0.0310661
0.912229 0.843 0.030911
0.908491 0.908693 0.0319829
0.911661 0.967986 0.0320808
0.973752 0.780486 0.0310635
0.970599 0.846172 0.0308872
0.974552 0.905442 0.0319556
0.971515 0.971641 0.0321657
0.785779 0.780835 0.0686605
0.783027 0.846757 0.0684819
0.787471 0.90567 0.0695189
0.783863 0.971395 0.069663
0.847319 0.78497 0.0687006
0.849955 0.843254 0.068438
0.845691 0.909328 0.0695419
0.849567 0.967566 0.0696178
0.910611 0.780801 0.0686571
0.907971 0.846775 0.0684774
0.912602 0.905688 0.0695536
0.908812 0.971405 0.06964
0.972372 0.784903 0.0687325
0.974882 0.843129 0.0684309
0.970662 0.909187 0.069569
0.974699 0.967654 0.0696174
0.785466 0.784942 0.106258
0.787322 0.843204 0.10598
0.783042 0.909295 0.107077
0.787249 0.967818 0.10712
0.847648 0.780936 0.106198
0.845823 0.846983 0.106006
0.850185 0.905582 0.107013
0.846033 0.971793 0.107092
0.910514 0.784914 0.106232
0.912364 0.84325 0.106
0.907986 0.909433 0.107032
0.912258 0.967845 0.107083
0.972706 0.780845 0.106177
0.970788 0.847037 0.106021
0.97526 0.905535 0.107065
0.971082 0.971695 0.107121
0.784866 0.780675 0.143647
0.78377 0.847035 0.143488
0.787548 0.905566 0.144474
0.783406 0.971857 0.144496
0.848442 0.784862 0.143653
0.84946 0.843032 0.143457
0.845477 0.909583 0.14444
0.849771 0.967791 0.14446
0.909723 0.780749 0.143629
0.908822 0.847093 0.143493
0.912607 0.905591 0.144426
0.908349 0.971905 0.14448
0.973429 0.78497 0.143625
0.974599 0.843007 0.143481
0.970522 0.909417 0.144432
0.974692 0.967852 0.144472
0.786228 0.784901 0.181092
0.786746 0.843015 0.180874
0.782909 0.909365 0.18181
0.78729 0.967946 0.181839
0.846958 0.780345 0.181065
0.846581 0.847189 0.180903
0.850002 0.905477 0.181796
0.84564 0.971913 0.181827
0.911188 0.784959 0.181028
0.911618 0.842923 0.18085
0.907934 0.909521 0.181801
0.912307 0.967866 0.181846
0.971966 0.780412 0.181032
0.971529 0.847017 0.180926
0.975097 0.90555 0.181798
0.970576 0.971839 0.181884
0.784171 0.780271 0.218439
0.78425 0.847178 0.218278
0.78732 0.905466 0.219166
0.783254 0.971972 0.219192
0.84878 0.784884 0.218457
0.848899 0.842602 0.218284
0.845524 0.909405 0.219163
0.84964 0.967801 0.219143
0.909023 0.780243 0.218382
0.909226 0.84712 0.218329
0.912449 0.905337 0.219132
0.908133 0.971989 0.219156
0.973799 0.784856 0.218415
0.973861 0.842705 0.218247
0.970574 0.909288 0.219153
0.974844 0.96782 0.219173
0.753776 0.784087 0.0112948
0.753729 0.841411 0.0132213
0.754037 0.909044 0.0125702
0.754184 0.967485 0.0142198
0.816188 0.779125 0.0129667
0.816304 0.846858 0.01097
0.81655 0.904222 0.0142343
0.816722 0.971655 0.0127882
0.878698 0.784036 0.0112878
0.878791 0.841408 0.013252
0.879073 0.909013 0.0126993
0.879252 0.967331 0.0141164
0.941189 0.779076 0.0130075
0.941335 0.84656 0.0108993
0.941499 0.904243 0.0142355
0.941807 0.971486 0.0128236
0.753846 0.780211 0.0503921
0.753823 0.847912 0.0483528
0.754081 0.904809 0.0520293
0.754307 0.972788 0.0500232
0.816278 0.785608 0.0494049
0.816389 0.842497 0.0509578
0.81666 0.910248 0.0496531
0.816832 0.967338 0.051804
0.878812 0.780176 0.0503525
0.8789 0.847948 0.0483116
0.879158 0.90494 0.0520329
0.879324 0.972748 0.050015
0.941288 0.785612 0.0494517
0.941352 0.842476 0.0509504
0.941794 0.910359 0.0496503
0.941837 0.96721 0.0517813
0.754011 0.786016 0.0873478
0.753922 0.842389 0.0884228
0.754231 0.910773 0.0870736
0.754341 0.967462 0.0893998
0.816467 0.780077 0.0875294
0.816446 0.848201 0.0859322
0.816709 0.904984 0.0897155
0.816826 0.972929 0.0873292
0.878957 0.786097 0.0874916
0.878907 0.842509 0.0884917
0.879284 0.910726 0.0869748
0.879316 0.967494 0.0894251
0.94145 0.78024 0.0875114
0.941459 0.848168 0.0859729
0.941792 0.904873 0.0897147
0.941906 0.972986 0.0872864
0.754024 0.78004 0.124728
0.754128 0.848265 0.123682
0.754119 0.905024 0.127219
0.754165 0.973076 0.124717
0.816562 0.786089 0.125162
0.81651 0.842486 0.125709
0.816629 0.910701 0.124522
0.816681 0.967651 0.126917
0.878976 0.780109 0.124637
0.879021 0.848112 0.123674
0.879137 0.904944 0.127218
0.87916 0.973066 0.12467
0.941553 0.786083 0.125217
0.941527 0.842404 0.125762
0.941638 0.910655 0.12447
0.941696 0.967625 0.126935
0.754063 0.785899 0.162839
0.754076 0.842374 0.162969
0.754143 0.910728 0.161933
0.754054 0.96771 0.164376
0.816512 0.780083 0.161883
0.816608 0.848207 0.161316
0.816614 0.905039 0.164547
0.816587 0.973196 0.16196
0.879037 0.785938 0.162824
0.879011 0.842375 0.162977
0.879102 0.910762 0.161871
0.879083 0.96779 0.164392
0.941494 0.779981 0.161865
0.941575 0.848312 0.161301
0.941643 0.904858 0.164522
0.94159 0.973171 0.16197
0.753904 0.779958 0.19917
0.754 0.848128 0.198837
0.754028 0.904943 0.201904
0.754024 0.973084 0.199339
0.816407 0.785821 0.200367
0.816453 0.84226 0.200199
0.816519 0.910548 0.199289
0.816495 0.967709 0.20175
0.878877 0.780025 0.199097
0.878992 0.848021 0.198858
0.879086 0.90502 0.20185
0.878979 0.973107 0.199318
0.941364 0.785797 0.200302
0.941386 0.842185 0.200223
0.941539 0.910567 0.19927
0.9415 0.967833 0.201859
0.753681 0.785726 0.237836
0.753805 0.842257 0.237503
0.753897 0.910496 0.236732
0.753844 0.967753 0.238991
0.816229 0.779987 0.236341
0.816408 0.848074 0.236226
0.816446 0.904885 0.239219
0.816445 0.97308 0.236671
0.878734 0.785687 0.237925
0.878841 0.842253 0.237526
0.87894 0.910435 0.236659
0.878899 0.967845 0.239009
0.94127 0.780004 0.236244
0.941377 0.848108 0.23626
0.941433 0.905064 0.239179
0.941457 0.972959 0.236604
0.787329 0.751396 0.273177
0.781817 0.813945 0.275641
0.787806 0.876515 0.273447
0.782478 0.938998 0.276262
0.844292 0.751457 0.275731
0.850028 0.813923 0.273047
0.844679 0.876432 0.27593
0.850421 0.938944 0.273806
0.912327 0.751447 0.273181
0.906721 0.813891 0.275743
0.912744 0.876464 0.273434
0.907488 0.939007 0.276243
0.969282 0.751442 0.27564
0.975033 0.813866 0.273091
0.969723 0.876389 0.275829
0.975403 0.938958 0.273854
0.781793 0.751439 0.312931
0.787615 0.813916 0.31033
0.782041 0.876426 0.313192
0.787874 0.939043 0.311074
0.849853 0.751455 0.310469
0.84429 0.8139 0.31294
0.850294 0.876479 0.310769
0.844957 0.939081 0.31352
0.906761 0.751396 0.313002
0.912608 0.813895 0.310312
0.907111 0.876411 0.313175
0.912949 0.939046 0.311069
0.974813 0.751415 0.310508
0.969214 0.81388 0.312936
0.975331 0.876506 0.310781
0.969906 0.939083 0.313497
0.787249 0.751416 0.347806
0.78162 0.813872 0.350306
0.787809 0.876512 0.348118
0.782394 0.939143 0.350908
0.844281 0.751372 0.350324
0.850109 0.81387 0.347641
0.844341 0.876425 0.35046
0.850244 0.939051 0.348385
0.912257 0.751379 0.347809
0.906549 0.813849 0.350256
0.91287 0.87648 0.348032
0.90724 0.93906 0.350845
0.969259 0.751364 0.350287
0.974964 0.81389 0.347612
0.969471 0.876413 0.350456
0.975353 0.938996 0.348515
0.781677 0.751322 0.3876
0.787387 0.813902 0.384951
0.781855 0.876461 0.387741
0.787733 0.939124 0.385805
0.849614 0.751374 0.385138
0.844076 0.813839 0.387632
0.850245 0.876481 0.385374
0.844667 0.93909 0.388152
0.906768 0.751285 0.38755
0.912385 0.81384 0.384954
0.906826 0.876428 0.38771
0.91271 0.939057 0.385806
0.974564 0.751334 0.385101
0.969073 0.81379 0.387611
0.975276 0.876486 0.38537
0.969683 0.939081 0.388148
0.787003 0.751277 0.422423
0.781461 0.813839 0.424881
0.787481 0.876464 0.422776
0.782153 0.939089 0.425506
0.844215 0.751226 0.424839
0.8497 0.813785 0.42229
0.84429 0.876424 0.425116
0.85007 0.938994 0.423124
0.911971 0.751183 0.4224
0.906505 0.813777 0.424852
0.9126 0.87646 0.422789
0.907162 0.939054 0.425472
0.969082 0.751205 0.424809
0.97477 0.813758 0.422318
0.969293 0.876389 0.425133
0.97495 0.939124 0.423149
0.781507 0.751151 0.462119
0.78711 0.813736 0.45974
0.781642 0.876439 0.462508
0.787493 0.93915 0.460628
0.849371 0.751152 0.459712
0.843755 0.813737 0.462133
0.849941 0.876461 0.460185
0.844426 0.93914 0.462792
0.906485 0.751122 0.462107
0.912178 0.813702 0.459682
0.906547 0.876408 0.462463
0.912445 0.939088 0.460635
0.974366 0.751067 0.45968
0.96877 0.813677 0.462107
0.97497 0.876523 0.4602
0.969322 0.939139 0.462794
0.786751 0.751016 0.497013
0.787414 0.876515 0.497646
0.849442 0.813657 0.497269
0.911762 0.750952 0.496983
0.912355 0.876373 0.497565
0.974349 0.813553 0.497146
0.786414 0.784772 0.255783
0.786315 0.842766 0.255602
0.783048 0.909646 0.256495
0.78704 0.967891 0.256461
0.84616 0.780265 0.255823
0.84667 0.847129 0.255665
0.849776 0.905343 0.256468
0.845518 0.972167 0.256446
0.911507 0.784853 0.255742
0.911302 0.842674 0.255631
0.908094 0.90958 0.256483
0.912045 0.967879 0.256443
0.971042 0.780374 0.255774
0.971659 0.847048 0.255672
0.974701 0.905517 0.256486
0.97047 0.972055 0.256441
0.78341 0.780387 0.293076
0.78408 0.84718 0.292996
0.787237 0.90553 0.293773
0.782862 0.972273 0.29375
0.848964 0.784826 0.293071
0.848821 0.842809 0.292967
0.845381 0.909677 0.293813
0.849469 0.968035 0.293737
0.908421 0.780265 0.293079
0.909213 0.84739 0.292989
0.912288 0.905551 0.293803
0.907853 0.97223 0.293748
0.974037 0.784745 0.293074
0.973741 0.842989 0.29293
0.97039 0.90952 0.29379
0.974646 0.968082 0.293739
0.786625 0.784678 0.330361
0.786056 0.842853 0.330289
0.782812 0.909762 0.33111
0.787049 0.968039 0.331101
0.845802 0.780353 0.330382
0.846725 0.847228 0.330319
0.849695 0.905591 0.331075
0.845325 0.97224 0.331039
0.911563 0.784644 0.330376
0.911072 0.842822 0.330265
0.907745 0.909739 0.331076
0.911999 0.96798 0.331057
0.970674 0.780323 0.330382
0.97151 0.847221 0.330313
0.974727 0.905605 0.33108
0.970254 0.97211 0.331064
0.782997 0.780208 0.367745
0.784288 0.847211 0.367575
0.787131 0.905607 0.368458
0.782708 0.972347 0.368394
0.849038 0.784677 0.367745
0.848267 0.84278 0.367601
0.845278 0.909728 0.368449
0.84948 0.968092 0.3684
0.908142 0.780348 0.367721
0.909225 0.847168 0.367622
0.912008 0.905701 0.368458
0.907778 0.972253 0.368411
0.97405 0.78466 0.367668
0.973359 0.842798 0.367585
0.970282 0.90969 0.368436
0.974475 0.968116 0.36842
0.786467 0.784634 0.405008
0.785581 0.843019 0.404888
0.782696 0.909682 0.405778
0.786853 0.96815 0.405739
0.845525 0.78023 0.405043
0.846836 0.847193 0.404936
0.849406 0.905608 0.405763
0.845033 0.972201 0.405732
0.911404 0.784509 0.405029
0.910484 0.842983 0.404873
0.907778 0.909531 0.40575
0.911823 0.968122 0.405739
0.970552 0.780287 0.40503
0.971733 0.847204 0.404923
0.974367 0.905583 0.405764
0.970061 0.972236 0.405719
0.782862 0.780439 0.442317
0.784186 0.847136 0.442229
0.786757 0.905762 0.443181
0.782402 0.972174 0.443115
0.848755 0.784485 0.442346
0.847877 0.842967 0.44222
0.845083 0.909617 0.443125
0.849247 0.96822 0.443068
0.907858 0.780418 0.442301
0.909234 0.847161 0.442199
0.911697 0.9058 0.443158
0.907349 0.972042 0.443111
0.973915 0.784357 0.442312
0.972836 0.842982 0.442177
0.970157 0.909576 0.443121
0.974192 0.968268 0.443115
0.786212 0.784418 0.479618
0.784927 0.842934 0.479593
0.782484 0.909653 0.480577
0.786696 0.968557 0.48051
0.845193 0.780377 0.479615
0.846713 0.846839 0.47955
0.849109 0.905933 0.480516
0.844628 0.972111 0.480487
0.911214 0.784421 0.479595
0.910044 0.842897 0.479552
0.907489 0.909506 0.480588
0.911791 0.968442 0.480506
0.970245 0.780255 0.479591
0.971753 0.846842 0.479566
0.974016 0.905926 0.480482
0.969686 0.97206 0.480478
0.753634 0.780091 0.273534
0.753872 0.8483 0.273626
0.753856 0.905066 0.276565
0.753844 0.973313 0.273976
0.816123 0.78571 0.275314
0.816271 0.842455 0.274901
0.81641 0.91069 0.273999
0.8163 0.967885 0.276348
0.878655 0.780046 0.2735
0.878794 0.848263 0.273614
0.878893 0.905133 0.276501
0.878789 0.973185 0.273911
0.941159 0.785895 0.275287
0.941237 0.842409 0.27489
0.941366 0.910631 0.273996
0.941331 0.967939 0.276376
0.753596 0.785763 0.312736
0.753721 0.842381 0.31222
0.753841 0.910767 0.311321
0.753785 0.967919 0.313705
0.816135 0.780097 0.310743
0.816267 0.848299 0.310964
0.816302 0.905107 0.313859
0.816193 0.973334 0.311202
0.878572 0.785794 0.312622
0.878786 0.84241 0.312176
0.878837 0.910726 0.311252
0.878809 0.967949 0.313665
0.941126 0.780044 0.31073
0.941257 0.848325 0.310944
0.941329 0.905199 0.313945
0.941254 0.973372 0.311165
0.753567 0.780127 0.348011
0.753702 0.848359 0.34836
0.753746 0.905118 0.3512
0.7537 0.973349 0.348524
0.816054 0.785825 0.350128
0.81616 0.842325 0.349433
0.816249 0.91085 0.348603
0.816208 0.968014 0.351032
0.878588 0.780056 0.348018
0.878694 0.848471 0.348421
0.878713 0.904991 0.351183
0.878686 0.973419 0.348504
0.941042 0.785857 0.350119
0.94111 0.8423 0.349394
0.941227 0.910735 0.348584
0.941217 0.967894 0.351
0.75349 0.785845 0.387376
0.753597 0.842374 0.386576
0.753638 0.910793 0.385937
0.753566 0.968029 0.388334
0.815927 0.780098 0.385298
0.816141 0.848417 0.385787
0.816126 0.905047 0.388503
0.81603 0.973468 0.385851
0.878416 0.785704 0.387427
0.878504 0.842362 0.386593
0.87861 0.910829 0.38597
0.878564 0.967945 0.388397
0.940931 0.780107 0.385302
0.941162 0.848292 0.385753
0.941173 0.904964 0.388487
0.941039 0.973373 0.385876
0.753374 0.780107 0.422561
0.753484 0.848282 0.423073
0.753433 0.905133 0.425824
0.753467 0.973338 0.423225
0.815876 0.785588 0.424695
0.815973 0.842337 0.423804
0.815969 0.910704 0.423348
0.81594 0.968005 0.425807
0.878322 0.78009 0.422595
0.878508 0.848297 0.423099
0.878538 0.905065 0.425776
0.87839 0.973324 0.423158
0.940825 0.785593 0.424696
0.940977 0.842397 0.423748
0.940987 0.910725 0.423372
0.940908 0.968149 0.425781
0.753166 0.785485 0.462025
0.753269 0.842415 0.461033
0.753378 0.910817 0.460715
0.753312 0.968112 0.463165
0.815696 0.779921 0.459886
0.815755 0.848305 0.460501
0.815847 0.905048 0.463252
0.815879 0.973529 0.460548
0.878143 0.785599 0.461996
0.878308 0.842221 0.461069
0.878306 0.910875 0.460734
0.878341 0.968028 0.46319
0.940702 0.779832 0.459883
0.940844 0.848271 0.460518
0.94083 0.905061 0.463136
0.940822 0.973464 0.460538
0.753095 0.780048 0.497119
0.753181 0.848333 0.49805
0.878068 0.780003 0.497133
0.87825 0.848118 0.497936
0.906364 0.813629 0.499515
0.815766 0.910929 0.498128
0.878278 0.973455 0.497875
0.753266 0.973641 0.49786
0.974793 0.939169 0.498046
0.849988 0.939196 0.49813
0.9408 0.910782 0.498164
0.940735 0.842427 0.498284
0.815586 0.785445 0.499294
0.815678 0.842322 0.498278
0.843921 0.87635 0.49965
0.96889 0.750896 0.499348
0.94057 0.785257 0.499314
0.781239 0.813678 0.499572
0.843933 0.750899 0.49941
0.969092 0.876371 0.499656
0.846066 0.750092 0.572855
0.906913 0.939197 0.500102
0.781687 0.750553 0.536517
0.786617 0.813533 0.534654
0.781594 0.8766 0.536992
0.787009 0.939689 0.535756
0.848945 0.750613 0.534652
0.843993 0.81354 0.536569
0.849569 0.876683 0.535358
0.84451 0.939592 0.537385
0.906672 0.75046 0.536508
0.911676 0.813445 0.534628
0.90648 0.876575 0.537018
0.912081 0.939648 0.535652
0.973926 0.750575 0.534558
0.969004 0.813461 0.536582
0.974594 0.876685 0.535303
0.969467 0.939558 0.537312
0.784985 0.750307 0.572016
0.782924 0.813349 0.572996
0.786481 0.87692 0.572219
0.781161 0.940287 0.574419
0.848126 0.813451 0.571925
0.844352 0.876822 0.573337
0.850237 0.940215 0.573455
0.910097 0.750217 0.571877
0.907901 0.813274 0.572956
0.911754 0.876858 0.572121
0.906221 0.940288 0.57438
0.97321 0.813297 0.571862
0.969405 0.876786 0.573266
0.975321 0.940287 0.573388
0.785051 0.81286 0.610527
0.782923 0.876815 0.611328
0.784838 0.94041 0.612592
0.846005 0.812813 0.61074
0.847716 0.876815 0.610893
0.845841 0.940334 0.612996
0.909966 0.812618 0.610367
0.908237 0.876709 0.61134
0.910008 0.940355 0.612608
0.971087 0.812551 0.610716
0.972588 0.876727 0.610765
0.971053 0.9403 0.613066
0.78428 0.812997 0.649402
0.784389 0.87658 0.649218
0.784434 0.940451 0.652041
0.847059 0.750334 0.650491
0.847066 0.81301 0.649476
0.847004 0.876321 0.649303
0.847009 0.940421 0.652011
0.909545 0.812904 0.649646
0.909366 0.876322 0.649227
0.909294 0.940243 0.652141
0.971998 0.81288 0.649444
0.971873 0.876252 0.649416
0.97191 0.940414 0.651814
0.784377 0.751046 0.690863
0.784345 0.813755 0.689811
0.784333 0.876218 0.688438
0.784348 0.938892 0.69294
0.846802 0.751011 0.690994
0.846739 0.813569 0.689922
0.847781 0.876256 0.689821
0.847043 0.938725 0.692736
0.90949 0.751007 0.690938
0.909591 0.813609 0.690034
0.908153 0.876331 0.690051
0.909078 0.938749 0.69281
0.972113 0.751067 0.690975
0.972017 0.813744 0.689947
0.97211 0.876106 0.688565
0.971843 0.938853 0.692804
0.784325 0.751179 0.73199
0.784043 0.813733 0.731365
0.784702 0.875806 0.731534
0.784627 0.93862 0.735006
0.847002 0.751343 0.73184
0.846536 0.813704 0.731063
0.844507 0.876021 0.732824
0.846813 0.938246 0.734518
0.909349 0.751319 0.731764
0.909617 0.813863 0.730911
0.910955 0.875881 0.73169
0.909326 0.938438 0.734619
0.972047 0.751273 0.731807
0.972314 0.813686 0.731306
0.972799 0.875806 0.731912
0.97264 0.938585 0.734806
0.782693 0.780043 0.51696
0.784404 0.846907 0.516976
0.786493 0.906268 0.517907
0.782293 0.972262 0.517937
0.8486 0.783781 0.516948
0.847265 0.843307 0.516951
0.845064 0.909337 0.517909
0.84917 0.968975 0.517917
0.907628 0.780044 0.516908
0.909405 0.846814 0.516957
0.911425 0.906115 0.517885
0.907335 0.972221 0.517952
0.973662 0.783752 0.516947
0.972212 0.843139 0.516944
0.97009 0.909426 0.517877
0.974161 0.96901 0.517856
0.785881 0.782905 0.554333
0.784423 0.843526 0.554284
0.782897 0.909633 0.555337
0.786094 0.96993 0.55552
0.845396 0.78042 0.554268
0.84726 0.846058 0.554356
0.84828 0.907373 0.55533
0.845098 0.972205 0.555647
0.910856 0.782873 0.554253
0.909452 0.843387 0.554226
0.907883 0.909576 0.555283
0.910847 0.969934 0.555486
0.970367 0.780355 0.554196
0.972257 0.845969 0.554315
0.973347 0.90734 0.555272
0.970187 0.972159 0.55555
0.783325 0.781413 0.592115
0.784571 0.846282 0.591999
0.785301 0.90915 0.592983
0.783099 0.972943 0.593574
0.847595 0.782314 0.59201
0.846579 0.845405 0.591928
0.845712 0.909952 0.592983
0.847934 0.971794 0.59353
0.908348 0.781151 0.591998
0.90961 0.846369 0.59188
0.910235 0.909058 0.592963
0.908216 0.972792 0.59353
0.972639 0.782071 0.591938
0.971726 0.845171 0.591834
0.970673 0.909955 0.592989
0.972815 0.971771 0.593503
0.78491 0.781819 0.630526
0.784341 0.845335 0.629882
0.783723 0.909644 0.631476
0.784787 0.971798 0.632098
0.846585 0.781711 0.630519
0.846952 0.845414 0.629753
0.847282 0.909219 0.631564
0.846241 0.9722 0.632167
0.909937 0.781815 0.630554
0.909502 0.845007 0.629687
0.908703 0.909461 0.631467
0.909659 0.971678 0.63215
0.97151 0.781263 0.630559
0.97191 0.845455 0.629668
0.972241 0.909008 0.6315
0.97134 0.972446 0.632127
0.784438 0.782132 0.670008
0.78468 0.845862 0.668577
0.784469 0.909057 0.671063
0.784332 0.970887 0.672835
0.847092 0.782248 0.670233
0.847327 0.845686 0.668875
0.846969 0.908556 0.671321
0.846911 0.970969 0.672821
0.909419 0.782093 0.67028
0.909378 0.84595 0.668929
0.90948 0.908461 0.671444
0.909298 0.970954 0.672793
0.971898 0.782287 0.67019
0.971846 0.845387 0.668789
0.971673 0.909139 0.671152
0.971811 0.970736 0.672679
0.784174 0.782499 0.710765
0.78404 0.84716 0.709187
0.785054 0.908439 0.713899
0.784279 0.969287 0.714247
0.846736 0.782788 0.710829
0.845831 0.846041 0.709757
0.847628 0.9066 0.713661
0.847141 0.969737 0.714106
0.909463 0.782846 0.710818
0.910472 0.845961 0.709915
0.908285 0.906967 0.713449
0.909311 0.969765 0.714125
0.97233 0.782812 0.710818
0.972636 0.847057 0.709497
0.973066 0.908141 0.713833
0.97198 0.969387 0.714148
0.753218 0.90504 0.500576
0.971938 0.750339 0.650559
0.784518 0.750199 0.650394
0.81579 0.968182 0.500612
0.878247 0.904878 0.500562
0.909459 0.750298 0.650508
0.940768 0.968275 0.500596
0.753098 0.785098 0.536508
0.753136 0.842766 0.535374
0.753221 0.910973 0.535617
0.753166 0.968948 0.537985
0.815495 0.780227 0.534468
0.81573 0.847987 0.535468
0.815686 0.905671 0.537806
0.815723 0.973775 0.535605
0.878052 0.784998 0.536449
0.878169 0.84272 0.535342
0.878149 0.910948 0.535658
0.878174 0.968909 0.538026
0.940498 0.77999 0.534406
0.940699 0.848071 0.535432
0.940709 0.905675 0.537786
0.940715 0.973694 0.535559
0.75309 0.781311 0.571951
0.753199 0.84751 0.572892
0.753071 0.906871 0.574798
0.753151 0.975917 0.573323
0.815633 0.783378 0.573393
0.815621 0.844142 0.572561
0.815555 0.912367 0.573222
0.815538 0.968915 0.575346
0.878109 0.781126 0.571875
0.878239 0.847474 0.572805
0.878091 0.906802 0.574686
0.878166 0.975867 0.573337
0.940664 0.783186 0.57329
0.940682 0.843916 0.572478
0.940621 0.912354 0.57317
0.940584 0.968918 0.575211
0.753109 0.783034 0.611487
0.753068 0.84502 0.610739
0.752888 0.910745 0.611767
0.752879 0.972201 0.613389
0.815666 0.781186 0.610518
0.81563 0.846799 0.610884
0.815444 0.908883 0.612723
0.815451 0.973508 0.612408
0.87823 0.78255 0.611285
0.87821 0.844948 0.610583
0.87795 0.910645 0.611719
0.877921 0.97201 0.613355
0.940666 0.781159 0.61054
0.940645 0.846511 0.610709
0.940504 0.90883 0.61267
0.940494 0.973312 0.612476
0.753225 0.781737 0.649671
0.753215 0.845551 0.64896
0.753066 0.909744 0.651119
0.753104 0.971782 0.652284
0.815785 0.781852 0.650008
0.815886 0.845168 0.64891
0.81569 0.909814 0.650803
0.815593 0.97161 0.652509
0.878238 0.781752 0.649969
0.878334 0.845016 0.64878
0.878144 0.909541 0.651245
0.878105 0.97176 0.652245
0.940673 0.781653 0.650114
0.940727 0.84497 0.648925
0.940593 0.909659 0.650753
0.940532 0.971596 0.652498
0.753057 0.782535 0.690309
0.753105 0.84549 0.688475
0.753085 0.908523 0.691245
0.752991 0.969992 0.693387
0.815558 0.782541 0.690407
0.815616 0.845433 0.688828
0.815531 0.908467 0.6914
0.815565 0.970219 0.693306
0.878138 0.782544 0.690553
0.878214 0.84523 0.689757
0.877996 0.907752 0.692487
0.878065 0.970303 0.693263
0.940765 0.782452 0.690471
0.94077 0.845527 0.68908
0.940724 0.908126 0.691567
0.940605 0.970115 0.693336
0.753046 0.782487 0.731655
0.753186 0.845175 0.730637
0.753055 0.908203 0.733391
0.753004 0.969366 0.734866
0.815491 0.782539 0.731509
0.815089 0.844732 0.731026
0.8156 0.907196 0.734676
0.815759 0.969822 0.734672
0.878074 0.782928 0.731459
0.878121 0.844492 0.731215
0.878185 0.907484 0.734063
0.878241 0.969657 0.734716
0.940825 0.782652 0.731487
0.941248 0.844873 0.730692
0.940816 0.908213 0.733099
0.94082 0.969528 0.734656
0.78188 0.939281 0.500125
0.784812 0.751104 0.773139
0.784148 0.813346 0.77287
0.784079 0.87615 0.77594
0.784613 0.938254 0.776187
0.846988 0.751236 0.773046
0.847383 0.813633 0.772852
0.846892 0.875677 0.774661
0.84659 0.938301 0.776249
0.909396 0.751193 0.773014
0.909588 0.81365 0.772887
0.909663 0.875517 0.772422
0.909636 0.938466 0.776343
0.972099 0.751147 0.773096
0.971484 0.81331 0.772716
0.97293 0.875886 0.775016
0.972562 0.93824 0.775968
0.784898 0.750979 0.814489
0.784691 0.813106 0.814408
0.784669 0.875952 0.818057
0.784583 0.938159 0.817796
0.847015 0.751009 0.81444
0.847762 0.81338 0.814496
0.847612 0.875964 0.816083
0.846805 0.938299 0.817712
0.909722 0.751046 0.814448
0.909181 0.813402 0.814491
0.910488 0.875829 0.815221
0.909855 0.938539 0.817626
0.971972 0.751165 0.81443
0.97194 0.813407 0.814357
0.969835 0.875776 0.816107
0.972199 0.938363 0.817747
0.784604 0.750729 0.855368
0.784871 0.812973 0.85593
0.784581 0.875832 0.859511
0.784766 0.938174 0.85856
0.847086 0.750783 0.855277
0.847423 0.813075 0.855981
0.848539 0.875611 0.858337
0.847018 0.938299 0.858622
0.909684 0.750701 0.855371
0.909472 0.81306 0.855778
0.909041 0.875828 0.858691
0.909838 0.938361 0.858538
0.971847 0.750667 0.855218
0.972176 0.813085 0.855839
0.972966 0.875545 0.858326
0.971947 0.938303 0.85862
0.784587 0.812011 0.896561
0.78484 0.875809 0.899049
0.784717 0.938866 0.898877
0.847159 0.811926 0.896419
0.847363 0.87581 0.899416
0.847106 0.938778 0.898698
0.909635 0.811905 0.896461
0.909652 0.875754 0.898967
0.909806 0.93882 0.898875
0.972091 0.811905 0.896322
0.972167 0.875763 0.899354
0.972032 0.938703 0.898667
0.785205 0.812086 0.935454
0.784753 0.87545 0.937848
0.785081 0.93919 0.937807
0.846777 0.811995 0.935883
0.847878 0.875491 0.937198
0.84758 0.939158 0.938327
0.910301 0.812094 0.935537
0.909849 0.875476 0.937891
0.91 0.939173 0.937787
0.971716 0.812009 0.935978
0.97284 0.875508 0.937147
0.972661 0.939012 0.938204
0.781649 0.812141 0.975312
0.786956 0.875394 0.975431
0.784736 0.938561 0.976846
0.850141 0.812191 0.974025
0.846011 0.87534 0.976712
0.848349 0.938618 0.975701
0.906581 0.812103 0.975245
0.911934 0.875382 0.975394
0.909672 0.938522 0.976831
0.975054 0.8122 0.974027
0.971055 0.87533 0.97677
0.973429 0.938587 0.975744
0.786426 0.780081 0.993196
0.783582 0.844901 0.993462
0.786239 0.906135 0.994435
0.784224 0.971377 0.994701
0.84612 0.782773 0.993243
0.849101 0.842542 0.993435
0.846669 0.908864 0.994611
0.848678 0.968568 0.994539
0.911332 0.780115 0.993178
0.908452 0.844915 0.993401
0.91106 0.906058 0.994444
0.909366 0.971202 0.994635
0.971171 0.782713 0.993263
0.974128 0.842421 0.99345
0.971607 0.908796 0.994567
0.973747 0.968724 0.994569
0.784479 0.782671 0.752108
0.783334 0.845866 0.751934
0.784922 0.905944 0.755584
0.784476 0.969609 0.755615
0.846613 0.783118 0.751936
0.847304 0.845282 0.751567
0.845708 0.906268 0.755761
0.847073 0.969341 0.755611
0.909435 0.782873 0.751765
0.909358 0.846084 0.751248
0.90986 0.908122 0.755342
0.909602 0.969086 0.755592
0.971977 0.782593 0.751961
0.971469 0.845293 0.751967
0.973073 0.906136 0.755362
0.972156 0.969661 0.755587
0.785004 0.782169 0.793585
0.783944 0.843893 0.793719
0.78457 0.905692 0.797669
0.78444 0.969193 0.79713
0.847467 0.782409 0.793468
0.848097 0.844888 0.793982
0.845826 0.906833 0.796953
0.846981 0.969038 0.796942
0.909442 0.782204 0.793472
0.909872 0.846365 0.793302
0.9104 0.907564 0.796858
0.909571 0.969359 0.796886
0.972137 0.782608 0.793511
0.970254 0.844481 0.793426
0.972657 0.906661 0.79727
0.972222 0.969445 0.796975
0.784777 0.782166 0.835081
0.784568 0.843376 0.835485
0.78489 0.905477 0.838891
0.784465 0.969488 0.837948
0.847296 0.782079 0.834986
0.848111 0.845303 0.835084
0.846842 0.90611 0.838735
0.847238 0.969181 0.837903
0.909447 0.782184 0.834973
0.908666 0.845273 0.835147
0.909968 0.905976 0.83852
0.909471 0.969551 0.837832
0.972056 0.782383 0.835017
0.972624 0.845121 0.835106
0.971082 0.906031 0.838685
0.972151 0.969263 0.837917
0.784552 0.78102 0.876123
0.784852 0.843227 0.877105
0.784802 0.906342 0.879512
0.784945 0.969699 0.878204
0.846981 0.780812 0.876057
0.847499 0.843831 0.877093
0.847284 0.905745 0.879363
0.8471 0.970128 0.878222
0.909749 0.781102 0.876058
0.909249 0.843642 0.876881
0.909447 0.906159 0.879472
0.909822 0.969632 0.878277
0.971929 0.780773 0.875989
0.972441 0.843818 0.877039
0.972112 0.905652 0.879344
0.972073 0.969889 0.878248
0.785133 0.780275 0.916416
0.78442 0.843247 0.916957
0.785082 0.906519 0.918769
0.784539 0.970365 0.917858
0.846596 0.780594 0.916424
0.847662 0.842741 0.916971
0.847013 0.906933 0.918866
0.847516 0.969724 0.917935
0.91016 0.780235 0.916379
0.90949 0.843207 0.917039
0.91007 0.906404 0.918708
0.909573 0.970257 0.917823
0.97168 0.780741 0.916414
0.972616 0.842676 0.916926
0.971983 0.906989 0.918678
0.972524 0.969542 0.917829
0.783374 0.781083 0.955166
0.785926 0.842211 0.955662
0.784607 0.906626 0.956829
0.785631 0.969612 0.956647
0.848346 0.779574 0.955118
0.846487 0.843415 0.955639
0.848016 0.905564 0.956728
0.847102 0.970638 0.956617
0.908626 0.780861 0.955176
0.910878 0.842248 0.955653
0.909638 0.9067 0.956769
0.910602 0.969558 0.956535
0.973368 0.779498 0.955114
0.971554 0.84358 0.955678
0.973059 0.90556 0.956763
0.972078 0.970419 0.95653
0.753336 0.781994 0.773207
0.753356 0.84516 0.772827
0.75345 0.907031 0.776275
0.753428 0.969482 0.776291
0.815884 0.782719 0.772937
0.815841 0.844053 0.774353
0.815559 0.906815 0.776698
0.815722 0.969642 0.776121
0.878296 0.782345 0.772793
0.878386 0.844911 0.772667
0.878272 0.907449 0.775049
0.878337 0.969373 0.776171
0.940727 0.782124 0.772949
0.940578 0.845106 0.772164
0.941005 0.907622 0.775129
0.940915 0.969504 0.77612
0.753476 0.781887 0.814668
0.753339 0.843941 0.815527
0.753477 0.906827 0.818474
0.753404 0.969489 0.817653
0.816046 0.782231 0.814416
0.815947 0.844032 0.815656
0.815848 0.90685 0.818297
0.815832 0.969403 0.817517
0.878376 0.781841 0.814334
0.878623 0.845101 0.813979
0.878411 0.907729 0.816306
0.87831 0.969276 0.817384
0.940792 0.782212 0.814448
0.940586 0.844199 0.814633
0.94088 0.907098 0.81788
0.940846 0.969581 0.817313
0.753347 0.78171 0.855776
0.753347 0.843369 0.857203
0.753399 0.906787 0.859273
0.753407 0.96943 0.858248
0.815903 0.781676 0.855549
0.816063 0.843852 0.857055
0.815933 0.906321 0.859365
0.815918 0.969471 0.858178
0.878389 0.781527 0.855663
0.878405 0.844229 0.855874
0.87845 0.906942 0.858979
0.87838 0.969425 0.858268
0.940781 0.781874 0.855407
0.940813 0.84361 0.857005
0.940754 0.906347 0.859427
0.940856 0.969542 0.858188
0.753293 0.780648 0.896373
0.753446 0.842787 0.897336
0.753459 0.907064 0.899652
0.753463 0.969871 0.898242
0.815784 0.780656 0.896056
0.816033 0.842603 0.897501
0.816009 0.906951 0.899496
0.815975 0.970008 0.898431
0.878373 0.780466 0.896347
0.878416 0.842515 0.89742
0.878384 0.906998 0.899629
0.878433 0.969843 0.89831
0.940884 0.780608 0.896021
0.940874 0.842628 0.897407
0.940916 0.906654 0.899282
0.9409 0.970009 0.898448
0.75345 0.780441 0.935243
0.753639 0.842047 0.936776
0.753784 0.906499 0.937842
0.753685 0.969985 0.937854
0.815915 0.779303 0.936146
0.81615 0.842971 0.935991
0.816254 0.906332 0.938174
0.8161 0.969903 0.937458
0.878527 0.780384 0.935284
0.87871 0.842096 0.936745
0.878757 0.906509 0.937898
0.878691 0.970084 0.937781
0.94098 0.779288 0.936119
0.941196 0.842988 0.93602
0.941256 0.906423 0.93819
0.941227 0.969752 0.937327
0.753502 0.77684 0.975362
0.753826 0.845049 0.97406
0.753929 0.905408 0.976609
0.753957 0.969787 0.975785
0.816136 0.783444 0.973473
0.816305 0.840227 0.975585
0.816516 0.907299 0.97574
0.816463 0.969445 0.976554
0.878546 0.776725 0.975289
0.878762 0.845083 0.973961
0.878885 0.905356 0.976502
0.87902 0.969797 0.975726
0.941085 0.783382 0.973474
0.941234 0.840274 0.975546
0.941481 0.907411 0.97577
0.941511 0.96939 0.976461
0.0349102 0.0328486 0.011607
0.0347161 0.0944958 0.0117685
0.0347848 0.156148 0.0118955
0.034788 0.217887 0.0120172
0.097236 0.0328497 0.0116725
0.0972785 0.0944884 0.011739
0.0972699 0.156116 0.0118383
0.0972675 0.217989 0.0120558
0.159916 0.0329441 0.011598
0.159598 0.0945692 0.0117712
0.159764 0.156235 0.0118625
0.159721 0.218007 0.01203
0.222185 0.0329084 0.0116594
0.222281 0.0945814 0.0117511
0.222234 0.15619 0.0118905
0.222282 0.218029 0.01205
0.0347921 0.0317827 0.049509
0.0347931 0.0938234 0.0497451
0.034649 0.155959 0.0497497
0.0348327 0.218184 0.0496854
0.0973352 0.0315305 0.0495257
0.0971967 0.0937738 0.0496889
0.0972071 0.155857 0.0497677
0.0972097 0.218218 0.049675
0.159773 0.03182 0.0494923
0.15974 0.093793 0.0496632
0.159633 0.155928 0.0497426
0.159735 0.218245 0.0497135
0.222279 0.0315648 0.0494838
0.222108 0.0938647 0.0496614
0.222261 0.155915 0.0498047
0.22217 0.218294 0.0497076
0.0347295 0.0310547 0.0870459
0.0345687 0.0933869 0.0871595
0.0343878 0.155809 0.0872243
0.0344273 0.218401 0.0871249
0.0972706 0.0311394 0.0870498
0.0970831 0.0934949 0.08716
0.0969037 0.155901 0.0871823
0.0970351 0.218362 0.0871287
0.159683 0.0310529 0.0870191
0.159468 0.0934847 0.0871369
0.15946 0.155922 0.0872167
0.159396 0.218474 0.0871638
0.222179 0.0311836 0.0870063
0.222037 0.093433 0.0871626
0.221911 0.155967 0.0871826
0.222082 0.218315 0.0871761
0.0345953 0.031095 0.124433
0.0344625 0.0934667 0.124515
0.0341537 0.156083 0.124497
0.0342015 0.218491 0.124475
0.0971605 0.0310227 0.124484
0.0968811 0.0935914 0.124507
0.0967661 0.155939 0.124554
0.0966021 0.218493 0.124491
0.159628 0.0311852 0.124435
0.159432 0.0934952 0.12447
0.159196 0.156017 0.124539
0.159178 0.218474 0.12448
0.222175 0.0309748 0.124445
0.221862 0.0935177 0.124472
0.22175 0.155871 0.124517
0.221659 0.218485 0.124468
0.0343511 0.0310443 0.161821
0.0341825 0.093643 0.161823
0.0340735 0.15596 0.161865
0.0339836 0.218667 0.16179
0.0969172 0.0311687 0.161788
0.0967533 0.0934952 0.16185
0.0965618 0.156043 0.161813
0.0965235 0.218519 0.161724
0.159439 0.0310548 0.161834
0.159222 0.0935744 0.161862
0.159034 0.155926 0.161865
0.158989 0.218612 0.161765
0.221951 0.0311501 0.1618
0.221757 0.0935392 0.161866
0.221517 0.156098 0.161839
0.221523 0.218581 0.16175
0.0343263 0.0311805 0.199137
0.0342077 0.0935517 0.199158
0.033926 0.156102 0.199084
0.0339443 0.218606 0.199066
0.0968817 0.0310659 0.199153
0.0966586 0.0936783 0.199111
0.0965355 0.156084 0.199158
0.0964328 0.218721 0.199067
0.15935 0.0311738 0.199152
0.159221 0.0935144 0.199173
0.159007 0.156152 0.199066
0.158931 0.218593 0.199048
0.221903 0.0310589 0.199162
0.221625 0.0936366 0.19917
0.221565 0.156062 0.19912
0.221417 0.218651 0.199047
0.0343278 0.0311168 0.236457
0.0340801 0.0936707 0.236354
0.0339987 0.156073 0.236368
0.0338299 0.218697 0.23633
0.0967529 0.0312176 0.236439
0.0967401 0.0936048 0.236407
0.0964208 0.156226 0.23636
0.0964264 0.21867 0.236294
0.159272 0.0310697 0.236479
0.159138 0.0936619 0.236371
0.159038 0.156075 0.236391
0.158886 0.218748 0.236315
0.221789 0.0311777 0.23643
0.221761 0.0935296 0.236406
0.221465 0.156174 0.23635
0.221457 0.218651 0.236302
0.0341137 0.0313041 0.273714
0.0340536 0.0936654 0.273674
0.0339517 0.156237 0.273629
0.0338809 0.218656 0.273567
0.0965923 0.0312054 0.273767
0.0965498 0.0937011 0.273687
0.0964636 0.156097 0.273685
0.0963006 0.218682 0.273595
0.15905 0.0312825 0.273717
0.159086 0.0936466 0.273673
0.158856 0.156204 0.27363
0.158814 0.218681 0.273585
0.221539 0.03122 0.273782
0.221513 0.0937689 0.273641
0.221442 0.156094 0.273673
0.221237 0.218728 0.273604
0.0339376 0.0314061 0.311024
0.0338762 0.0939467 0.310967
0.0338917 0.156255 0.310979
0.0336536 0.218775 0.310892
0.096342 0.0314336 0.311029
0.096468 0.0937741 0.311003
0.09636 0.156343 0.310956
0.0961847 0.218692 0.310879
0.158909 0.0313577 0.311045
0.158899 0.0938834 0.310992
0.158871 0.156246 0.310964
0.158607 0.218794 0.310882
0.221367 0.031466 0.311075
0.221495 0.0937948 0.310999
0.221338 0.156323 0.310964
0.221146 0.21866 0.310857
0.0339411 0.0314632 0.348328
0.0338794 0.0938726 0.34834
0.0337286 0.156365 0.34831
0.0335754 0.218784 0.348172
0.0964472 0.0313801 0.348403
0.0963349 0.0939687 0.348295
0.0963187 0.156283 0.348323
0.0960036 0.218866 0.348216
0.158907 0.0313908 0.348391
0.158902 0.0938708 0.34836
0.158716 0.156371 0.348297
0.158547 0.218765 0.348191
0.221468 0.0314057 0.348409
0.221337 0.0940119 0.34831
0.221243 0.156349 0.348326
0.220992 0.218918 0.348193
0.0338019 0.0314132 0.385729
0.0337342 0.0940054 0.385585
0.0336491 0.156391 0.385643
0.0333545 0.218962 0.385507
0.0962915 0.0314632 0.385655
0.0962873 0.0938556 0.385656
0.0960859 0.156403 0.385613
0.0958506 0.218866 0.385552
0.158825 0.0313384 0.385705
0.158728 0.0939801 0.385644
0.158613 0.156383 0.385665
0.158321 0.21898 0.385517
0.221316 0.0315111 0.385655
0.221295 0.09396 0.385656
0.221081 0.156411 0.385606
0.2209 0.218863 0.385529
0.0337207 0.0314215 0.422978
0.0335789 0.0939528 0.422956
0.0334258 0.15659 0.422893
0.0332281 0.219083 0.422872
0.0961832 0.0313821 0.423012
0.0960583 0.0940066 0.422972
0.096023 0.1565 0.422979
0.0957168 0.21913 0.422842
0.158696 0.0314808 0.422988
0.158614 0.0939621 0.422972
0.158406 0.156635 0.422918
0.158262 0.21901 0.422863
0.221174 0.0314337 0.422973
0.221104 0.0940373 0.422946
0.221012 0.156494 0.422954
0.220734 0.219182 0.422832
0.0337106 0.0314989 0.460333
0.0335206 0.0942134 0.460293
0.0335613 0.156732 0.460278
0.0331975 0.219429 0.460214
0.0961885 0.0316529 0.460337
0.0961702 0.0941208 0.460248
0.0959191 0.156847 0.460207
0.0957148 0.219297 0.460233
0.158686 0.0314276 0.460357
0.15856 0.0941771 0.460251
0.158548 0.156615 0.460272
0.15821 0.219389 0.460174
0.221162 0.0315992 0.460371
0.221087 0.0941262 0.460273
0.220981 0.156903 0.460226
0.220771 0.219327 0.460225
0.0337007 0.0318585 0.497676
0.033688 0.0944136 0.49766
0.0333929 0.157259 0.4976
0.0333373 0.219743 0.497613
0.0962489 0.0316597 0.497696
0.0960689 0.0945321 0.497636
0.0960193 0.157152 0.497551
0.0956851 0.219812 0.497588
0.158705 0.0318126 0.497682
0.158685 0.0943266 0.497627
0.158348 0.157153 0.497553
0.158349 0.219704 0.497607
0.221248 0.0316491 0.497677
0.221003 0.0945566 0.497621
0.221083 0.157121 0.497573
0.220622 0.219819 0.497581
0.0339634 0.032197 0.535068
0.0336576 0.0952622 0.534988
0.0337698 0.15759 0.53498
0.0332169 0.220392 0.53513
0.0962417 0.0324214 0.535063
0.0963988 0.0949925 0.534982
0.0959718 0.157821 0.534966
0.0961354 0.22005 0.535077
0.15888 0.0320823 0.535088
0.158706 0.0951508 0.535011
0.158856 0.157523 0.534969
0.158271 0.220354 0.535139
0.221237 0.0323417 0.535027
0.221396 0.0948913 0.534996
0.220942 0.157739 0.53497
0.221067 0.220014 0.535026
0.0338807 0.0324474 0.572737
0.0337489 0.0951684 0.572802
0.033568 0.157644 0.572939
0.0338927 0.220096 0.57307
0.0962095 0.0323713 0.57274
0.0962834 0.095178 0.572822
0.0962992 0.157708 0.572864
0.0960347 0.220154 0.573055
0.158792 0.0324714 0.572752
0.158732 0.095236 0.572768
0.158503 0.157688 0.572898
0.158892 0.220234 0.573067
0.221186 0.0324061 0.572753
0.221262 0.0951675 0.572815
0.221227 0.157702 0.572876
0.220945 0.220142 0.573077
0.0341579 0.0327423 0.610864
0.0337845 0.0953918 0.611064
0.0340313 0.157168 0.611226
0.0341316 0.219653 0.611344
0.0963915 0.0329269 0.610885
0.0965513 0.0951553 0.611075
0.0964817 0.157457 0.611165
0.0964468 0.219412 0.611332
0.159144 0.0327631 0.610881
0.158866 0.0954672 0.61108
0.159138 0.157292 0.611248
0.159074 0.219807 0.611349
0.221329 0.0330105 0.61085
0.221495 0.0951909 0.611069
0.221521 0.157547 0.611241
0.221422 0.219525 0.611377
0.0341541 0.0328611 0.64978
0.034324 0.0950051 0.650545
0.034307 0.157148 0.650768
0.0341186 0.21936 0.650382
0.0967801 0.0328125 0.64977
0.0967953 0.0950209 0.650476
0.0967703 0.157158 0.65072
0.0967413 0.219429 0.65042
0.159168 0.0329319 0.649789
0.159299 0.0950568 0.6505
0.159313 0.157236 0.650789
0.159232 0.219465 0.65037
0.221749 0.0329097 0.649828
0.221721 0.0951048 0.650479
0.221797 0.157262 0.650755
0.221741 0.219507 0.650397
0.0343021 0.0319296 0.690216
0.0342927 0.0945984 0.690757
0.0342709 0.157027 0.690914
0.0341032 0.219547 0.690705
0.0967431 0.0320644 0.690208
0.0967853 0.0945436 0.690765
0.0967693 0.157127 0.690907
0.0967308 0.219536 0.690683
0.159195 0.0320369 0.690173
0.159288 0.0946115 0.690774
0.1593 0.157121 0.690926
0.159314 0.219666 0.690758
0.221737 0.0321073 0.690223
0.221849 0.0946477 0.690761
0.221788 0.157128 0.690876
0.221752 0.219643 0.690689
0.0345383 0.0317507 0.730918
0.034408 0.0943688 0.731241
0.0344377 0.157154 0.73135
0.0342544 0.219735 0.731338
0.0969477 0.0317898 0.730938
0.0969875 0.0944294 0.731203
0.0969545 0.157161 0.731363
0.0967975 0.219857 0.731288
0.159488 0.0318024 0.730966
0.159535 0.0944193 0.731186
0.159483 0.157185 0.731335
0.159341 0.219816 0.731248
0.221967 0.0318516 0.73092
0.222045 0.0944328 0.731286
0.222023 0.157252 0.731349
0.221789 0.219944 0.731282
0.0344559 0.0319926 0.772095
0.0344944 0.0944903 0.772105
0.0345276 0.157105 0.772179
0.0344343 0.219577 0.772277
0.0969329 0.0321132 0.772046
0.0970266 0.0945268 0.772064
0.0970111 0.157084 0.772104
0.0969428 0.219579 0.772169
0.159573 0.0320573 0.772012
0.159495 0.0945231 0.771987
0.159555 0.157169 0.772074
0.159419 0.219578 0.772079
0.222029 0.0320529 0.772125
0.222012 0.0945084 0.771998
0.222 0.157212 0.772027
0.221945 0.219733 0.772076
0.0346254 0.0322993 0.81314
0.0347329 0.0947389 0.813039
0.0348333 0.157186 0.813147
0.034852 0.219625 0.813407
0.0971536 0.0324707 0.813144
0.0972206 0.094845 0.813026
0.0972948 0.157225 0.813172
0.0973157 0.219521 0.813352
0.159706 0.032406 0.813129
0.159685 0.0948139 0.813013
0.159772 0.157268 0.813047
0.15984 0.219637 0.813251
0.222154 0.0324278 0.813163
0.222194 0.0948351 0.812989
0.222321 0.157351 0.813022
0.22234 0.219813 0.813166
0.0346365 0.0324514 0.853931
0.0346203 0.0948521 0.853774
0.0347651 0.157268 0.853842
0.0348487 0.219539 0.854299
0.0970685 0.0323739 0.8539
0.0971347 0.0948288 0.853724
0.0972452 0.157211 0.853818
0.0974104 0.219641 0.854241
0.159562 0.0323931 0.85394
0.159673 0.0948095 0.85373
0.159723 0.157248 0.853781
0.159768 0.219669 0.854229
0.22201 0.0325121 0.853887
0.222162 0.0949226 0.853642
0.222196 0.157279 0.853778
0.222281 0.219713 0.854153
0.0346744 0.0329618 0.894409
0.0347314 0.0950633 0.89406
0.0347352 0.156952 0.894239
0.0348055 0.218971 0.894837
0.0971279 0.0329255 0.894352
0.0972293 0.0950282 0.894068
0.0972656 0.157047 0.894188
0.097331 0.218995 0.894823
0.159644 0.0330191 0.894339
0.159785 0.0949963 0.894062
0.1598 0.157061 0.894149
0.159923 0.219116 0.89476
0.222098 0.0329646 0.894303
0.222159 0.0949788 0.894063
0.222314 0.157036 0.894144
0.222359 0.21911 0.894744
0.0346076 0.0334976 0.934203
0.0346018 0.095108 0.934032
0.0347616 0.156583 0.934269
0.0347241 0.218151 0.934737
0.0971222 0.033361 0.934224
0.0971533 0.0950348 0.934061
0.0972059 0.156593 0.934266
0.0972703 0.218178 0.934759
0.159606 0.0335157 0.934244
0.159683 0.0951601 0.934024
0.159728 0.156649 0.934206
0.15978 0.218298 0.934724
0.221989 0.0334461 0.934268
0.222133 0.0950221 0.93406
0.222105 0.15669 0.934218
0.222277 0.218223 0.934686
0.0348677 0.0335141 0.973356
0.0348144 0.0949227 0.973281
0.0347636 0.156274 0.97345
0.0349539 0.217738 0.973905
0.0973336 0.0334345 0.973347
0.097268 0.0948095 0.973283
0.0972161 0.156144 0.973484
0.0973293 0.217631 0.973885
0.159786 0.0334867 0.973394
0.159732 0.0949358 0.97327
0.159643 0.156229 0.973517
0.159853 0.217708 0.973958
0.222214 0.0334569 0.973403
0.222195 0.0948861 0.973312
0.222154 0.156248 0.973452
0.222298 0.217727 0.973887
0.0348182 0.280372 0.0121555
0.0349639 0.343051 0.0122693
0.0350811 0.406348 0.0140046
0.0351269 0.469173 0.0141721
0.0972537 0.280278 0.0121348
0.0973873 0.342986 0.0123841
0.0975654 0.406054 0.0138889
0.097742 0.469388 0.0141929
0.159818 0.280411 0.0121558
0.160022 0.343057 0.0123059
0.160038 0.406362 0.0140083
0.160093 0.469185 0.0142008
0.222277 0.280349 0.0120888
0.222341 0.343001 0.0124456
0.222525 0.406018 0.0139442
0.222704 0.469406 0.0142001
0.0346485 0.280649 0.0495302
0.0346095 0.343213 0.0498235
0.0351756 0.405977 0.051326
0.0355449 0.469027 0.051589
0.0971642 0.280603 0.0496163
0.097341 0.343254 0.0496871
0.0975715 0.406098 0.0513187
0.0979773 0.468883 0.0515353
0.159646 0.280648 0.0495712
0.159577 0.343237 0.049838
0.160084 0.405956 0.0513137
0.160412 0.46896 0.0515444
0.222204 0.280637 0.0496305
0.222392 0.343299 0.0497085
0.222506 0.406169 0.0513886
0.222861 0.46887 0.051513
0.0344143 0.280801 0.0870242
0.0346765 0.343441 0.0871397
0.0350864 0.406257 0.0887545
0.0355456 0.468815 0.088876
0.0969052 0.280997 0.0870189
0.096788 0.34335 0.0872672
0.0975652 0.406094 0.0887078
0.0980659 0.468902 0.0888696
0.159382 0.280817 0.0870464
0.159704 0.343428 0.0871727
0.160098 0.406216 0.0887919
0.160546 0.468817 0.0888855
0.221857 0.280967 0.0870375
0.221816 0.34327 0.0873163
0.222622 0.406036 0.0886925
0.223024 0.468961 0.0888974
0.0341056 0.28109 0.124309
0.0339939 0.343478 0.124611
0.0348862 0.40612 0.126044
0.0354937 0.468872 0.126273
0.0966414 0.280911 0.124412
0.0968107 0.343534 0.124524
0.097414 0.406296 0.126113
0.098064 0.468803 0.126217
0.159105 0.281032 0.124328
0.158974 0.343487 0.124664
0.15995 0.406099 0.126067
0.160534 0.468872 0.126259
0.221666 0.280926 0.124391
0.221877 0.343547 0.124515
0.222367 0.406255 0.126085
0.223021 0.468824 0.126211
0.0339435 0.281074 0.161685
0.0341214 0.343661 0.161822
0.0347302 0.406314 0.163444
0.0353847 0.468803 0.163547
0.0963762 0.281117 0.161657
0.0962788 0.343547 0.161958
0.0972248 0.406147 0.163385
0.097928 0.468948 0.163572
0.158969 0.281012 0.161687
0.159149 0.343642 0.161805
0.159763 0.406328 0.163469
0.160348 0.468832 0.163566
0.221421 0.281109 0.161642
0.221315 0.343582 0.161947
0.222217 0.406162 0.16337
0.222881 0.468977 0.163572
0.0337819 0.281186 0.198943
0.0337018 0.343623 0.19925
0.0347248 0.40628 0.200699
0.0353567 0.469017 0.200888
0.0963046 0.281128 0.198936
0.0966 0.343698 0.1991
0.0972849 0.406416 0.20077
0.0978358 0.468942 0.200859
0.158799 0.281251 0.198947
0.15871 0.343671 0.199241
0.15976 0.406232 0.200705
0.160329 0.469032 0.200872
0.221387 0.281099 0.198957
0.221617 0.343739 0.199106
0.222246 0.40644 0.200794
0.222816 0.468958 0.200878
0.0337339 0.281197 0.236259
0.0340612 0.34385 0.236338
0.0349205 0.406558 0.238077
0.0353726 0.468943 0.238206
0.0961788 0.281281 0.236213
0.0961897 0.343789 0.236529
0.0974262 0.406402 0.238007
0.0978423 0.469059 0.238221
0.158763 0.28119 0.236208
0.159078 0.343792 0.236337
0.159918 0.406493 0.238049
0.160387 0.468896 0.238178
0.221182 0.281315 0.236222
0.221184 0.343741 0.236518
0.222408 0.406314 0.238033
0.222805 0.468997 0.238241
0.0336475 0.281287 0.273491
0.0335745 0.343737 0.273808
0.0347885 0.406285 0.275277
0.0351825 0.469022 0.27556
0.0961159 0.281169 0.273466
0.0965363 0.343726 0.273602
0.0973239 0.406375 0.27538
0.0977231 0.468827 0.275522
0.158598 0.28131 0.273455
0.158515 0.343642 0.273801
0.159812 0.406195 0.275312
0.16018 0.468938 0.27552
0.221122 0.28113 0.273488
0.221529 0.343712 0.273627
0.222344 0.406377 0.275348
0.222692 0.468825 0.275474
0.0335448 0.28116 0.310794
0.0339322 0.343683 0.310964
0.0348134 0.406259 0.3127
0.0350544 0.468667 0.312842
0.0959987 0.281196 0.310718
0.0960448 0.343543 0.311087
0.0971881 0.406105 0.312647
0.0975661 0.468832 0.312859
0.158464 0.281097 0.310789
0.158974 0.343572 0.310982
0.159792 0.406203 0.312717
0.160073 0.468659 0.31279
0.220906 0.281211 0.310748
0.221108 0.343474 0.311111
0.222175 0.40605 0.312595
0.222601 0.468802 0.312796
0.0334544 0.281318 0.348063
0.0335759 0.343571 0.348424
0.0348264 0.406168 0.350018
0.0351189 0.468756 0.350115
0.0959195 0.281105 0.34818
0.0965221 0.343655 0.348315
0.0974111 0.406252 0.350074
0.0976066 0.468673 0.350128
0.158399 0.28128 0.348035
0.158623 0.343479 0.348471
0.159773 0.406071 0.349964
0.160073 0.468719 0.350079
0.220889 0.281146 0.348155
0.221561 0.343677 0.348325
0.222402 0.406256 0.350042
0.222598 0.468677 0.350134
0.0333004 0.281349 0.38548
0.0339085 0.343818 0.38569
0.0348815 0.406405 0.387439
0.0351119 0.468687 0.387465
0.0958222 0.281438 0.385435
0.0959756 0.343671 0.38581
0.0973039 0.406142 0.387356
0.0976024 0.468781 0.387477
0.158253 0.28124 0.385507
0.158923 0.343766 0.385645
0.159859 0.406342 0.387443
0.160057 0.46868 0.387443
0.220831 0.281376 0.385395
0.220958 0.343639 0.385817
0.22219 0.406179 0.387363
0.222578 0.468695 0.387486
0.0331931 0.28151 0.422797
0.0334814 0.343798 0.423201
0.0347054 0.406321 0.424799
0.0349619 0.468717 0.424878
0.0956128 0.281423 0.422892
0.0963877 0.34398 0.423072
0.0973065 0.406458 0.424864
0.0974009 0.468683 0.424823
0.158129 0.281624 0.422791
0.158469 0.343781 0.423147
0.159653 0.406272 0.424822
0.159892 0.4687 0.42489
0.220577 0.28142 0.422889
0.221317 0.343898 0.423109
0.222278 0.406332 0.424839
0.222404 0.46866 0.424865
0.0330937 0.281717 0.460345
0.0338676 0.344195 0.460554
0.0347179 0.406631 0.462353
0.0349299 0.468743 0.462377
0.095639 0.281852 0.460227
0.0958354 0.344001 0.460624
0.0971097 0.406426 0.462312
0.0974018 0.468813 0.462341
0.158053 0.281725 0.460377
0.158833 0.344186 0.460524
0.159675 0.406567 0.462391
0.159883 0.468718 0.462361
0.22061 0.281853 0.460239
0.220779 0.34397 0.460659
0.22204 0.406441 0.462361
0.222414 0.468799 0.462344
0.0333028 0.282308 0.497739
0.0957073 0.282162 0.497851
0.15826 0.282311 0.497715
0.220654 0.282046 0.49789
0.0963592 0.344591 0.498119
0.0334219 0.344543 0.49819
0.15839 0.344511 0.498207
0.221313 0.344601 0.498126
0.222422 0.469407 0.499981
0.222197 0.407178 0.499948
0.0972387 0.407156 0.499945
0.160033 0.469498 0.499936
0.0350014 0.469483 0.499933
0.159508 0.407118 0.499991
0.0344583 0.407139 0.499973
0.0974849 0.469437 0.499999
0.0335193 0.282683 0.535373
0.0339422 0.345601 0.535755
0.0344243 0.408505 0.537471
0.0345016 0.470689 0.537738
0.0959525 0.282924 0.53531
0.0962711 0.345463 0.535708
0.0966031 0.408348 0.537615
0.0971711 0.470718 0.537609
0.158427 0.282636 0.535364
0.158939 0.345602 0.535756
0.159433 0.408519 0.537423
0.159575 0.470739 0.537661
0.220925 0.282869 0.535292
0.221233 0.345345 0.535693
0.221691 0.408271 0.537565
0.222184 0.470703 0.537577
0.0338215 0.282754 0.573079
0.0339001 0.346017 0.573119
0.0343529 0.409214 0.575201
0.0345466 0.471522 0.575577
0.096348 0.282706 0.573149
0.0966181 0.346151 0.573182
0.0969543 0.409238 0.575053
0.0971862 0.471616 0.575539
0.158796 0.282806 0.573101
0.158986 0.346076 0.57314
0.15945 0.409289 0.575125
0.159555 0.471564 0.57546
0.221286 0.282738 0.573181
0.221661 0.346118 0.573202
0.221999 0.40933 0.574923
0.222168 0.471649 0.575508
0.0338402 0.282403 0.611317
0.034302 0.346272 0.611048
0.0345507 0.409391 0.613348
0.0347382 0.471474 0.61453
0.096662 0.282664 0.611339
0.0964562 0.346056 0.61101
0.0970535 0.409559 0.613352
0.0970723 0.471427 0.614587
0.158901 0.282624 0.611348
0.15935 0.346339 0.611161
0.15959 0.409346 0.613478
0.159642 0.471406 0.61467
0.221659 0.282727 0.611329
0.221524 0.34619 0.61108
0.221795 0.409457 0.613498
0.222091 0.47139 0.61466
0.0342672 0.281931 0.649861
0.034334 0.345839 0.649431
0.0347046 0.408222 0.652981
0.0345755 0.470783 0.654444
0.0965703 0.281983 0.649828
0.0967533 0.346047 0.649495
0.0969793 0.408176 0.653242
0.0969615 0.470653 0.654484
0.159259 0.282036 0.64981
0.159163 0.345929 0.649475
0.159419 0.408337 0.652957
0.15949 0.470848 0.654474
0.221621 0.282045 0.649928
0.222067 0.346092 0.64965
0.222052 0.408337 0.65328
0.222012 0.470605 0.654486
0.0342909 0.281922 0.690233
0.0339651 0.344456 0.689415
0.0343405 0.407505 0.694156
0.0343305 0.470027 0.695033
0.09679 0.281913 0.690144
0.0971653 0.344182 0.689349
0.0971131 0.407346 0.694174
0.0967908 0.470083 0.69505
0.159225 0.282053 0.690255
0.159252 0.344764 0.689363
0.159278 0.407186 0.69389
0.159348 0.470133 0.694911
0.221705 0.282004 0.690145
0.221268 0.344428 0.6892
0.221491 0.407698 0.693932
0.221895 0.470112 0.694923
0.0342972 0.282067 0.731218
0.0343793 0.344539 0.731395
0.0346476 0.407775 0.736164
0.0343916 0.470051 0.736053
0.0968151 0.28222 0.731201
0.0970187 0.344896 0.731326
0.0968177 0.407015 0.735772
0.0967758 0.469917 0.735966
0.159263 0.282328 0.731032
0.159478 0.344554 0.73083
0.15934 0.407299 0.735416
0.159285 0.469937 0.735836
0.221737 0.282617 0.731051
0.222015 0.345425 0.731109
0.222274 0.406786 0.735336
0.221727 0.46979 0.735861
0.0343718 0.282004 0.772447
0.034132 0.344528 0.772805
0.0339517 0.407482 0.777365
0.0344338 0.469657 0.777369
0.0969755 0.282012 0.772358
0.0967519 0.344918 0.77245
0.096273 0.407055 0.776871
0.096861 0.469819 0.777177
0.159447 0.281849 0.772166
0.159 0.344152 0.772063
0.159109 0.407451 0.776949
0.159456 0.470001 0.777093
0.22212 0.281989 0.772099
0.222344 0.344007 0.772086
0.222207 0.407496 0.777027
0.222019 0.469883 0.777065
0.0348222 0.28195 0.813806
0.0344623 0.344625 0.814389
0.034296 0.407202 0.818927
0.034386 0.469454 0.818546
0.0973049 0.281964 0.813687
0.0968944 0.344497 0.814091
0.0965797 0.407777 0.818785
0.0968462 0.469803 0.818543
0.15984 0.282013 0.813603
0.159666 0.344605 0.813785
0.159779 0.407684 0.818419
0.159455 0.469627 0.818399
0.222207 0.282016 0.813426
0.222141 0.344593 0.813574
0.221899 0.407585 0.818254
0.222074 0.469657 0.818318
0.034895 0.281932 0.854953
0.0348753 0.344616 0.856249
0.0350016 0.406944 0.860997
0.0346612 0.469618 0.859922
0.0974624 0.282042 0.854989
0.0974206 0.344893 0.856108
0.0972948 0.407111 0.861019
0.0971655 0.469652 0.859872
0.159897 0.282138 0.854867
0.159859 0.344918 0.856126
0.159718 0.407167 0.861148
0.15953 0.469603 0.859783
0.222282 0.282115 0.854888
0.222094 0.344889 0.856171
0.221919 0.40713 0.860906
0.222052 0.469504 0.859652
0.0348819 0.280968 0.895653
0.0348132 0.343313 0.897105
0.0347402 0.405593 0.900601
0.0347633 0.46991 0.900258
0.0973729 0.281037 0.895628
0.0973501 0.343359 0.897057
0.0974846 0.405692 0.900605
0.097121 0.469857 0.900259
0.159875 0.281169 0.895594
0.159827 0.343523 0.89704
0.159852 0.405711 0.900608
0.159747 0.470011 0.900229
0.222485 0.281047 0.895625
0.222302 0.343496 0.89713
0.222449 0.405822 0.900742
0.222106 0.469959 0.900278
0.0347742 0.279892 0.93555
0.0349796 0.341964 0.936731
0.0350789 0.405676 0.938883
0.0348263 0.469322 0.93852
0.097315 0.279915 0.935562
0.0973839 0.342023 0.936851
0.0973914 0.405553 0.938902
0.0975316 0.46945 0.938446
0.159842 0.280053 0.935536
0.160051 0.341953 0.93682
0.16001 0.40572 0.938906
0.159874 0.469453 0.938505
0.22237 0.279949 0.935441
0.222435 0.342039 0.936787
0.222434 0.405488 0.93883
0.222517 0.469622 0.938559
0.0347798 0.279477 0.97456
0.0347853 0.342387 0.974988
0.0350899 0.405793 0.976642
0.0351367 0.469478 0.976611
0.0975312 0.27962 0.974548
0.0973274 0.342318 0.974929
0.0976322 0.405866 0.976711
0.0976618 0.469488 0.976655
0.159793 0.279459 0.974543
0.159807 0.342354 0.974944
0.16016 0.405808 0.976669
0.160196 0.469506 0.976642
0.222528 0.279601 0.974526
0.222408 0.342375 0.974917
0.222612 0.405946 0.976744
0.222635 0.469463 0.976681
0.0354434 0.532493 0.0142155
0.035211 0.595007 0.0142395
0.0357805 0.657833 0.0142047
0.0356362 0.720092 0.0141517
0.0977298 0.532235 0.0141888
0.097988 0.595214 0.0142174
0.0978078 0.657614 0.0141829
0.0984976 0.720434 0.0140515
0.160292 0.53241 0.0142604
0.160222 0.594997 0.0142711
0.160715 0.657841 0.0142134
0.160641 0.720042 0.0141286
0.222658 0.532222 0.0142339
0.222938 0.595246 0.0142422
0.222851 0.657571 0.0142421
0.223416 0.720371 0.0140929
0.035431 0.53179 0.0515685
0.0356357 0.594678 0.051631
0.0355687 0.657243 0.05165
0.0360797 0.719918 0.0515946
0.0979801 0.531884 0.051574
0.0980139 0.594526 0.0516133
0.0983077 0.657287 0.0516341
0.0984566 0.719776 0.0515717
0.16041 0.531733 0.0516014
0.160675 0.594658 0.0516296
0.160624 0.657172 0.0516629
0.161083 0.719869 0.051618
0.22295 0.531924 0.0516013
0.222982 0.594543 0.0516925
0.223432 0.657276 0.0516628
0.223483 0.719724 0.0516104
0.0356517 0.531711 0.0889325
0.0356348 0.594253 0.0889455
0.0359208 0.656949 0.0889895
0.0360672 0.719328 0.0889982
0.0980984 0.531541 0.0889573
0.0981885 0.594345 0.0889784
0.0982232 0.656825 0.0889735
0.098546 0.719469 0.0890934
0.160602 0.531707 0.0889568
0.160579 0.5942 0.0890088
0.160875 0.656953 0.0890398
0.161054 0.719352 0.0890101
0.223112 0.531547 0.088958
0.223202 0.594382 0.0890113
0.223314 0.656807 0.0890175
0.223619 0.719401 0.08901
0.0356831 0.531437 0.126288
0.0357484 0.594186 0.126281
0.0358586 0.656671 0.126257
0.0361563 0.719212 0.126391
0.0981526 0.531505 0.126256
0.0982578 0.594083 0.126257
0.098473 0.656709 0.126328
0.0987208 0.719105 0.1264
0.160665 0.531425 0.126258
0.160825 0.594117 0.126323
0.160868 0.656629 0.126258
0.16123 0.719241 0.126347
0.223215 0.531537 0.126278
0.223236 0.594033 0.126267
0.22348 0.656674 0.126344
0.223701 0.719076 0.126354
0.0355143 0.531533 0.163609
0.0356375 0.593988 0.163563
0.035801 0.656601 0.163644
0.0359967 0.718899 0.16372
0.0980173 0.531442 0.163573
0.0982128 0.594152 0.163634
0.0983462 0.656483 0.163577
0.0986178 0.719038 0.163739
0.160584 0.531604 0.163571
0.160736 0.593992 0.163561
0.16091 0.656531 0.163606
0.161098 0.718916 0.163691
0.22312 0.531481 0.163603
0.223202 0.594105 0.163614
0.223348 0.656452 0.163605
0.223595 0.718995 0.163745
0.0354311 0.53146 0.200884
0.0355738 0.594128 0.200939
0.0356755 0.656401 0.200891
0.0359358 0.718884 0.201067
0.0979031 0.531589 0.200932
0.0979799 0.594006 0.200871
0.0982277 0.656533 0.20093
0.0983568 0.718843 0.201092
0.160462 0.531468 0.2009
0.16053 0.594083 0.200942
0.160692 0.656409 0.20092
0.160911 0.71895 0.201049
0.222983 0.531611 0.200922
0.22299 0.594022 0.200904
0.223252 0.656551 0.200955
0.223353 0.718879 0.201057
0.0355035 0.53154 0.238237
0.0354866 0.593932 0.23825
0.0355763 0.65639 0.238298
0.0356362 0.718717 0.238382
0.09794 0.531541 0.238243
0.0980158 0.593986 0.238281
0.0980612 0.656288 0.238294
0.0982645 0.718849 0.238418
0.160485 0.531592 0.238213
0.160498 0.593971 0.238256
0.160638 0.65644 0.238315
0.160677 0.718774 0.238374
0.22299 0.531457 0.23824
0.223055 0.59404 0.238262
0.223098 0.656372 0.238266
0.22328 0.718866 0.238412
0.0353634 0.531412 0.275525
0.0354846 0.593949 0.275612
0.0354823 0.656128 0.275594
0.0356429 0.718763 0.275725
0.0978852 0.531441 0.275529
0.0979433 0.59387 0.275575
0.0980813 0.656348 0.275616
0.098111 0.718737 0.275726
0.160302 0.531355 0.275482
0.160454 0.593955 0.275591
0.160441 0.656294 0.275617
0.160667 0.718849 0.275749
0.222867 0.531504 0.275561
0.222887 0.593848 0.27556
0.223006 0.656391 0.275659
0.223101 0.718745 0.275762
0.0352275 0.531346 0.312902
0.035356 0.59372 0.312856
0.0355484 0.656227 0.312945
0.0354927 0.718661 0.313
0.097684 0.531237 0.31278
0.0979271 0.593843 0.31287
0.0979768 0.656165 0.312918
0.0980938 0.718761 0.312997
0.160231 0.531323 0.31285
0.160337 0.593695 0.312871
0.160551 0.656227 0.312944
0.160508 0.7187 0.313009
0.222649 0.531244 0.312821
0.222874 0.593831 0.312878
0.222967 0.656205 0.312898
0.223127 0.718841 0.312995
0.0351154 0.53117 0.350139
0.0353204 0.593823 0.350183
0.0354922 0.656176 0.350201
0.0355173 0.718735 0.350303
0.0976218 0.531328 0.350153
0.0977909 0.593694 0.350158
0.0980742 0.656231 0.350233
0.0980068 0.71862 0.35025
0.160195 0.531183 0.350102
0.160392 0.593814 0.350195
0.160492 0.656114 0.350176
0.160551 0.718742 0.350272
0.222711 0.531294 0.350118
0.222781 0.593692 0.350135
0.22303 0.656237 0.350201
0.223015 0.71866 0.350261
0.0351194 0.531232 0.387449
0.0352391 0.593597 0.387478
0.0354113 0.656096 0.387584
0.0354745 0.718582 0.387608
0.0976241 0.531096 0.387435
0.0977821 0.593631 0.38745
0.0979083 0.656063 0.387482
0.0980601 0.718677 0.387551
0.160153 0.531219 0.387395
0.16027 0.593539 0.38742
0.160419 0.656118 0.387541
0.160519 0.718563 0.387572
0.222677 0.531013 0.387436
0.22276 0.593601 0.387431
0.222886 0.656009 0.387455
0.223029 0.71856 0.387546
0.0349801 0.531055 0.424755
0.0352906 0.593601 0.424737
0.0354565 0.655955 0.424803
0.0355605 0.718493 0.424884
0.0975394 0.531111 0.424832
0.0976902 0.593493 0.42472
0.0979578 0.656011 0.424804
0.0979508 0.718439 0.424849
0.160072 0.531033 0.424776
0.160291 0.59356 0.424736
0.160382 0.655888 0.424739
0.160537 0.718444 0.424886
0.222589 0.531066 0.424807
0.222689 0.593429 0.424725
0.222951 0.656025 0.424781
0.222985 0.71843 0.424856
0.0350289 0.531182 0.462221
0.0351875 0.593373 0.462083
0.0353164 0.65589 0.462125
0.0352515 0.718226 0.462209
0.0974984 0.530959 0.462203
0.0977907 0.593346 0.462066
0.0978235 0.655713 0.462085
0.0978659 0.718335 0.462212
0.160098 0.531156 0.462192
0.160184 0.593412 0.462097
0.160335 0.655818 0.462119
0.160304 0.718215 0.462205
0.222545 0.530973 0.462209
0.222764 0.59335 0.462073
0.222874 0.655719 0.462039
0.222882 0.718285 0.462196
0.0974303 0.531674 0.499722
0.222744 0.655763 0.49951
0.159883 0.531503 0.499749
0.160191 0.655642 0.499514
0.0351645 0.655702 0.499511
0.0976574 0.655705 0.499542
0.0975959 0.71799 0.499579
0.222576 0.593683 0.499537
0.0351555 0.593613 0.499602
0.0975308 0.593616 0.499572
0.160055 0.593655 0.499592
0.160178 0.718036 0.499585
0.222386 0.531623 0.499715
0.0349145 0.531457 0.499743
0.222611 0.718083 0.499635
0.0350979 0.718065 0.499639
0.0349116 0.532615 0.53764
0.0349107 0.594199 0.537538
0.0349022 0.655848 0.537364
0.0349199 0.717726 0.537176
0.0971857 0.532648 0.537689
0.0975617 0.594232 0.537486
0.0975275 0.655868 0.53734
0.0974116 0.717708 0.537223
0.159871 0.532616 0.537583
0.15994 0.594208 0.537479
0.160047 0.655847 0.537348
0.159943 0.71773 0.537182
0.222223 0.532621 0.537642
0.222602 0.594193 0.537452
0.222538 0.655862 0.537341
0.222388 0.717746 0.537181
0.0348338 0.533195 0.57595
0.0350203 0.594593 0.575943
0.0350162 0.655855 0.57571
0.0349422 0.717316 0.575229
0.0972731 0.533186 0.575905
0.0974488 0.594578 0.575958
0.0975433 0.655817 0.575691
0.0973723 0.717252 0.575213
0.159826 0.533139 0.575913
0.160014 0.594538 0.575955
0.159981 0.655833 0.575682
0.159969 0.717236 0.575202
0.222185 0.533127 0.575878
0.2225 0.594584 0.575948
0.222486 0.655867 0.575712
0.222327 0.717316 0.575177
0.0348341 0.533191 0.615051
0.0348742 0.594761 0.615132
0.0347944 0.656405 0.614987
0.0347185 0.717965 0.614495
0.097319 0.533172 0.615085
0.0974468 0.594904 0.61518
0.0972485 0.656411 0.614958
0.0972584 0.717962 0.614426
0.159803 0.533176 0.615124
0.159892 0.594773 0.615174
0.159797 0.656333 0.614963
0.159739 0.717916 0.614412
0.222352 0.533078 0.615138
0.222437 0.594764 0.615112
0.222241 0.656281 0.614931
0.222274 0.717927 0.61439
0.0345566 0.532807 0.654991
0.0345957 0.59487 0.655225
0.0345085 0.656789 0.655011
0.0345305 0.718765 0.654413
0.0970111 0.532826 0.654987
0.0971138 0.594918 0.655238
0.0970402 0.65687 0.655043
0.0970229 0.718876 0.654473
0.159558 0.532833 0.654935
0.159668 0.594928 0.655222
0.159528 0.656925 0.654989
0.159479 0.718852 0.654378
0.222044 0.532795 0.654984
0.222095 0.594866 0.655244
0.222048 0.656869 0.655019
0.221975 0.718831 0.65445
0.0344063 0.532462 0.695445
0.0344898 0.594924 0.695589
0.0344589 0.657258 0.69542
0.0345014 0.719628 0.695007
0.0968587 0.532506 0.695456
0.0970375 0.594888 0.695595
0.0969283 0.657237 0.695429
0.0969917 0.719557 0.694903
0.159375 0.532471 0.695485
0.159496 0.59487 0.6956
0.159431 0.657346 0.69542
0.159479 0.719665 0.694883
0.221959 0.532477 0.69542
0.221991 0.594896 0.695591
0.221932 0.657311 0.695502
0.221986 0.719618 0.694963
0.0343254 0.532433 0.73628
0.0343587 0.594883 0.736317
0.0344041 0.657465 0.736198
0.0344596 0.719796 0.735909
0.096755 0.532424 0.736233
0.0968095 0.594862 0.736257
0.0968842 0.657365 0.736203
0.0968969 0.719761 0.735892
0.159254 0.532417 0.73614
0.159244 0.594795 0.736286
0.159249 0.657308 0.736195
0.159335 0.719675 0.735849
0.221813 0.532344 0.736151
0.221836 0.594839 0.736347
0.221833 0.657279 0.736224
0.221879 0.719769 0.73588
0.0344056 0.532107 0.777385
0.0344958 0.594623 0.777351
0.0345445 0.657237 0.777267
0.0345236 0.719785 0.777195
0.0969198 0.532215 0.777267
0.0969941 0.594654 0.777318
0.0970248 0.65728 0.777231
0.0970371 0.719693 0.7772
0.159441 0.532314 0.777221
0.159485 0.594753 0.777316
0.159502 0.657327 0.777242
0.159567 0.719647 0.777162
0.221947 0.532222 0.777131
0.221993 0.594652 0.777302
0.222048 0.657205 0.777231
0.222013 0.719785 0.777197
0.0344124 0.532008 0.818376
0.0343241 0.594571 0.818175
0.0343318 0.657286 0.818099
0.0344196 0.719861 0.818183
0.0969105 0.532017 0.81832
0.0968417 0.594563 0.81818
0.0968651 0.65721 0.818201
0.0970987 0.719665 0.818267
0.159574 0.531966 0.818294
0.159398 0.594605 0.818123
0.15951 0.657197 0.818094
0.159568 0.719713 0.818288
0.222043 0.532027 0.81825
0.221968 0.594562 0.818065
0.222045 0.657192 0.818046
0.222047 0.719747 0.818249
0.0345704 0.532091 0.859119
0.0344818 0.594491 0.858663
0.0343448 0.657015 0.858605
0.0344969 0.719476 0.858878
0.0971551 0.531997 0.859075
0.0970547 0.594525 0.858642
0.0970075 0.657009 0.858555
0.097018 0.719584 0.858831
0.159725 0.532059 0.858917
0.159612 0.594385 0.85859
0.159582 0.657043 0.858551
0.159625 0.719591 0.85888
0.222203 0.531979 0.858856
0.222085 0.594568 0.858518
0.22204 0.657031 0.858574
0.222144 0.719648 0.858832
0.0344449 0.532413 0.899409
0.0345365 0.594846 0.898802
0.0344969 0.656992 0.898699
0.034645 0.719331 0.899115
0.097141 0.53247 0.899388
0.0970045 0.594755 0.898729
0.0970407 0.657006 0.898631
0.0972015 0.719306 0.899085
0.159547 0.532519 0.899339
0.159581 0.594637 0.898726
0.159526 0.65685 0.898593
0.159623 0.719273 0.899015
0.222066 0.532481 0.899352
0.222033 0.594671 0.898684
0.221958 0.656947 0.89866
0.222172 0.719242 0.899068
0.034925 0.532771 0.938311
0.0346845 0.59495 0.938176
0.0348868 0.657208 0.938108
0.0350374 0.719285 0.937919
0.0971908 0.532542 0.938381
0.0974724 0.595297 0.938148
0.0973454 0.656986 0.93801
0.0973949 0.719668 0.937901
0.159999 0.532757 0.938354
0.159736 0.59489 0.938193
0.159899 0.657257 0.938048
0.160067 0.719326 0.937912
0.222183 0.532528 0.938357
0.222425 0.595201 0.938161
0.222311 0.656933 0.938012
0.222392 0.719591 0.937902
0.0352542 0.532378 0.976509
0.0352377 0.5951 0.976435
0.0353193 0.657656 0.976299
0.0355985 0.72018 0.976129
0.0976877 0.53239 0.976513
0.0978448 0.595137 0.976436
0.0980951 0.657627 0.976286
0.0977592 0.720144 0.976123
0.160205 0.532385 0.976546
0.160281 0.595064 0.976404
0.160373 0.657648 0.976291
0.160643 0.720107 0.976145
0.222658 0.532458 0.976561
0.222731 0.595124 0.976441
0.223074 0.657616 0.976301
0.222818 0.720093 0.976182
0.0358448 0.782895 0.0139131
0.0357997 0.845499 0.0134388
0.0355454 0.908369 0.0116461
0.0349316 0.970914 0.0116683
0.0983197 0.782664 0.0138326
0.0980365 0.845608 0.0134729
0.0977601 0.908568 0.0117988
0.0976299 0.9709 0.011579
0.160807 0.782858 0.0139062
0.16081 0.845423 0.0134633
0.160507 0.908385 0.0116338
0.159909 0.970912 0.0116479
0.223303 0.782702 0.0138286
0.223014 0.845611 0.0135333
0.222654 0.90856 0.0117881
0.222579 0.970878 0.0115602
0.0361343 0.782225 0.0513604
0.0355814 0.844641 0.0511486
0.0347702 0.907241 0.0492661
0.0347507 0.969529 0.0492452
0.0986178 0.782363 0.0514712
0.0984787 0.844555 0.0510421
0.0975183 0.907057 0.0492108
0.0971713 0.969553 0.0492869
0.161203 0.782125 0.0514119
0.160651 0.844634 0.0511113
0.159689 0.90722 0.0492528
0.159658 0.969564 0.0491921
0.223634 0.78222 0.0514393
0.223579 0.84447 0.0510125
0.222468 0.90712 0.049233
0.222114 0.969522 0.049257
0.0362164 0.781768 0.0889906
0.0361091 0.843985 0.0885515
0.0349263 0.906478 0.0868874
0.0348124 0.9688 0.0868593
0.0988532 0.781748 0.0888626
0.0980988 0.844162 0.0887071
0.0973611 0.906661 0.0868662
0.0972318 0.96874 0.0868375
0.161263 0.781827 0.0890234
0.161144 0.843984 0.0885566
0.160001 0.906474 0.0869095
0.159739 0.968781 0.0868329
0.223811 0.781731 0.0888518
0.22314 0.844238 0.0886505
0.222321 0.906641 0.0868547
0.222167 0.968754 0.0868186
0.0363476 0.781417 0.126313
0.0356989 0.843886 0.12612
0.034794 0.906384 0.124371
0.0346841 0.968619 0.124358
0.0988335 0.781597 0.126427
0.0986013 0.843788 0.126027
0.0973836 0.90629 0.124418
0.0971959 0.968765 0.124357
0.161376 0.781496 0.126317
0.160664 0.843849 0.126131
0.159721 0.906428 0.124359
0.159631 0.96874 0.124361
0.223765 0.78154 0.126415
0.2236 0.843748 0.126009
0.222397 0.906209 0.124371
0.222199 0.968719 0.124309
0.0361693 0.781352 0.163778
0.0361391 0.843622 0.163396
0.0349125 0.906175 0.161828
0.0344559 0.968676 0.161765
0.0987198 0.78127 0.163721
0.0981898 0.843722 0.163518
0.0973626 0.906303 0.161795
0.0969641 0.968696 0.161771
0.161183 0.781403 0.163799
0.161161 0.843631 0.163402
0.159884 0.906204 0.161845
0.159509 0.968734 0.161783
0.223749 0.781265 0.163721
0.223242 0.843715 0.163503
0.222326 0.906342 0.161726
0.221988 0.968625 0.161776
0.0360471 0.781137 0.201113
0.0356429 0.843559 0.200902
0.0348224 0.906114 0.199164
0.0344569 0.968535 0.199111
0.0985691 0.781361 0.201188
0.0985459 0.843525 0.200698
0.097391 0.906095 0.199194
0.0969149 0.968679 0.199111
0.161076 0.781179 0.201098
0.160634 0.84362 0.200899
0.159871 0.906177 0.199149
0.159459 0.968595 0.199117
0.223533 0.781361 0.201127
0.223578 0.843522 0.200724
0.222407 0.906015 0.19923
0.22198 0.968703 0.19912
0.035912 0.781186 0.238538
0.0360881 0.843515 0.238142
0.0350872 0.90601 0.236563
0.0344664 0.968763 0.236384
0.0984271 0.781126 0.2385
0.0981635 0.843554 0.238279
0.097521 0.90615 0.236495
0.096982 0.968505 0.236452
0.160982 0.781191 0.238506
0.161073 0.843444 0.238133
0.160126 0.905981 0.236595
0.159437 0.968708 0.236451
0.223542 0.781082 0.238451
0.223178 0.843528 0.238281
0.222462 0.906122 0.236476
0.221958 0.96853 0.236454
0.221889 0.905918 0.498032
0.0357331 0.781104 0.275793
0.0355274 0.843655 0.275603
0.0348049 0.90624 0.273848
0.0343055 0.968697 0.273741
0.0983369 0.781214 0.275807
0.0984289 0.843596 0.275444
0.0974166 0.906137 0.273915
0.0967382 0.968771 0.273708
0.160838 0.781071 0.275767
0.160519 0.843593 0.275644
0.159905 0.906228 0.273877
0.159238 0.968654 0.273782
0.223392 0.78125 0.27583
0.22352 0.843618 0.275501
0.222427 0.906139 0.273886
0.221706 0.96883 0.273788
0.0357829 0.781249 0.313084
0.0358684 0.843589 0.312767
0.0348376 0.906222 0.311212
0.0341002 0.968931 0.311017
0.0982614 0.781219 0.313067
0.0979597 0.843714 0.312944
0.0972385 0.906392 0.311166
0.0965803 0.968763 0.311061
0.160841 0.781283 0.31311
0.160913 0.843641 0.312759
0.159834 0.906183 0.311236
0.159169 0.968945 0.311084
0.223271 0.781175 0.313101
0.222952 0.843676 0.31299
0.222277 0.906389 0.311181
0.221616 0.968806 0.311119
0.0355824 0.781092 0.350382
0.0353561 0.843699 0.350222
0.034849 0.906374 0.348459
0.0341332 0.968758 0.348426
0.0982566 0.781249 0.350401
0.0983089 0.843598 0.350077
0.0974287 0.90617 0.348555
0.0966385 0.968932 0.348389
0.160717 0.781129 0.350396
0.160398 0.843622 0.350246
0.159819 0.906345 0.348467
0.159073 0.968752 0.348455
0.223299 0.781275 0.350415
0.223386 0.843646 0.350125
0.222325 0.906185 0.348606
0.221585 0.968949 0.348419
0.0356881 0.781135 0.38772
0.0357476 0.843513 0.387404
0.0348103 0.906095 0.385864
0.034066 0.968882 0.38568
0.0980942 0.781037 0.387695
0.0979431 0.843608 0.387549
0.0973105 0.906272 0.385823
0.0965551 0.968745 0.385745
0.160637 0.781142 0.387718
0.160753 0.843558 0.387409
0.159827 0.906134 0.38593
0.159046 0.968866 0.385753
0.223123 0.781058 0.387721
0.222855 0.843567 0.387544
0.222243 0.906316 0.38584
0.221487 0.968789 0.385729
0.0355409 0.780949 0.425025
0.0351938 0.843468 0.42489
0.0345376 0.906278 0.42318
0.0339092 0.96872 0.423078
0.0980639 0.780957 0.425032
0.0980552 0.843489 0.424725
0.0970532 0.906134 0.423233
0.0963502 0.968899 0.423039
0.160462 0.780886 0.424973
0.16016 0.843489 0.424871
0.159588 0.906229 0.423202
0.15888 0.968752 0.42311
0.222994 0.780989 0.425018
0.223047 0.843445 0.424726
0.222105 0.906066 0.423251
0.221397 0.968854 0.423025
0.0354239 0.780892 0.462398
0.0352772 0.843308 0.462097
0.0343649 0.906012 0.460621
0.0338548 0.968925 0.460386
0.0978343 0.780803 0.462397
0.0973973 0.843408 0.462222
0.0968715 0.906204 0.460571
0.0962784 0.968784 0.460434
0.160371 0.780906 0.462368
0.160221 0.84338 0.462058
0.159298 0.906011 0.460687
0.158808 0.968892 0.460451
0.222776 0.780751 0.462368
0.22242 0.843361 0.462198
0.221877 0.906229 0.460535
0.221254 0.968816 0.460416
0.0343663 0.906107 0.497937
0.0338728 0.968813 0.497767
0.0963335 0.968944 0.497751
0.159409 0.906051 0.497975
0.158854 0.968828 0.497836
0.221372 0.968912 0.497774
0.159749 0.843218 0.499656
0.0351565 0.780553 0.499721
0.0969376 0.905915 0.498044
0.222501 0.843191 0.499508
0.0977852 0.780529 0.499825
0.222622 0.780616 0.499784
0.160186 0.780518 0.499727
0.0347545 0.84325 0.499667
0.0975411 0.843123 0.499537
0.0349253 0.780174 0.537201
0.0347337 0.842938 0.536921
0.0344211 0.906013 0.535409
0.0340208 0.969345 0.53509
0.0974315 0.780227 0.537131
0.0971315 0.843045 0.537042
0.0968879 0.906262 0.535321
0.0965988 0.969091 0.535102
0.159917 0.780202 0.53718
0.159771 0.842961 0.536921
0.159355 0.906029 0.53543
0.158882 0.969322 0.535125
0.222468 0.780224 0.537107
0.222042 0.843025 0.536999
0.221905 0.906345 0.535364
0.221583 0.969095 0.53512
0.034631 0.779332 0.57461
0.0346539 0.84219 0.574362
0.0343867 0.905886 0.572606
0.0341166 0.969435 0.572606
0.09729 0.779214 0.574631
0.0972736 0.842287 0.574292
0.0968359 0.905762 0.572718
0.0965663 0.969448 0.572654
0.159593 0.779294 0.574553
0.159663 0.842224 0.574352
0.159277 0.905911 0.572645
0.158962 0.969491 0.572613
0.222303 0.779242 0.574612
0.222204 0.842308 0.574284
0.221771 0.905802 0.572776
0.221436 0.96955 0.572659
0.0346918 0.779619 0.613577
0.0345566 0.841768 0.612235
0.0343052 0.905509 0.610423
0.0340509 0.969562 0.610804
0.0971809 0.779576 0.613522
0.0968426 0.841648 0.612254
0.0966205 0.905678 0.610429
0.0966437 0.969382 0.610775
0.159592 0.779512 0.613583
0.159527 0.84169 0.612245
0.159297 0.905509 0.610458
0.158947 0.96953 0.610746
0.222114 0.779635 0.613517
0.221819 0.841638 0.612225
0.221629 0.905813 0.610346
0.221634 0.969522 0.610727
0.0345184 0.780734 0.653474
0.0345805 0.843114 0.651905
0.0342083 0.905577 0.64862
0.0342857 0.970211 0.64892
0.0970469 0.780848 0.653473
0.0970241 0.843107 0.65192
0.0969108 0.905505 0.648624
0.0966697 0.970287 0.648961
0.159591 0.780763 0.653476
0.159478 0.84306 0.651889
0.159208 0.905603 0.648468
0.159237 0.970185 0.648839
0.222023 0.780817 0.653435
0.221835 0.843092 0.65187
0.221761 0.905443 0.648602
0.221631 0.970337 0.648921
0.0345638 0.782062 0.694201
0.0345568 0.844792 0.692795
0.034539 0.907023 0.687711
0.0343556 0.9695 0.689081
0.0970672 0.78197 0.694195
0.0970872 0.844644 0.692701
0.0969391 0.906994 0.687653
0.0967796 0.969657 0.689021
0.159552 0.781945 0.69407
0.159509 0.844568 0.692591
0.159396 0.907011 0.687714
0.159236 0.969683 0.689006
0.222021 0.782007 0.694146
0.221972 0.844837 0.692622
0.221854 0.907063 0.687583
0.221771 0.969703 0.688993
0.0345722 0.782221 0.735598
0.0347992 0.844714 0.735358
0.0352043 0.907601 0.730577
0.0345656 0.96952 0.730671
0.0970913 0.78214 0.735384
0.0971285 0.844973 0.734866
0.0971148 0.907465 0.730136
0.0971344 0.969377 0.73056
0.159426 0.782213 0.735519
0.159395 0.844993 0.734876
0.159325 0.90734 0.730071
0.159474 0.969299 0.730621
0.22192 0.78207 0.735488
0.221523 0.844434 0.735077
0.221257 0.907497 0.730268
0.221967 0.969487 0.730641
0.0345487 0.782082 0.776971
0.0340977 0.844521 0.776994
0.0343103 0.90694 0.772452
0.0345075 0.96965 0.772211
0.0971015 0.781878 0.777093
0.0968048 0.844329 0.777172
0.096652 0.907839 0.772512
0.0969741 0.969796 0.772233
0.159593 0.781901 0.777073
0.159871 0.844367 0.777165
0.159973 0.907928 0.772622
0.1597 0.969809 0.772203
0.222113 0.782174 0.777116
0.223048 0.844858 0.77726
0.222576 0.906759 0.773065
0.222223 0.969455 0.772322
0.0345001 0.782273 0.818459
0.03369 0.844672 0.818378
0.0336594 0.906946 0.813992
0.0346017 0.969683 0.813585
0.0970131 0.782065 0.818483
0.097152 0.844184 0.818404
0.0970079 0.907346 0.813736
0.0970543 0.970021 0.813471
0.159511 0.781963 0.818449
0.159273 0.844049 0.8183
0.1595 0.907211 0.813702
0.159584 0.970022 0.813545
0.222063 0.781887 0.818672
0.222515 0.843636 0.818732
0.222239 0.907466 0.813873
0.221915 0.969954 0.813634
0.0346855 0.781889 0.859553
0.0352064 0.844358 0.86047
0.0349556 0.907597 0.855474
0.0346985 0.970167 0.854429
0.0971064 0.78203 0.859465
0.0973594 0.844775 0.860474
0.0972701 0.907093 0.855694
0.0970212 0.96994 0.85448
0.159525 0.782107 0.859547
0.159653 0.844657 0.860597
0.15948 0.906957 0.855724
0.159415 0.969814 0.854487
0.22208 0.782065 0.859459
0.221888 0.84478 0.860292
0.221828 0.907032 0.855432
0.221864 0.969971 0.854357
0.0348185 0.78195 0.899532
0.0346989 0.846109 0.89983
0.0346222 0.908462 0.896262
0.0346214 0.97081 0.894955
0.0972406 0.781903 0.899608
0.0973255 0.846003 0.899921
0.0971488 0.908477 0.896458
0.0971801 0.970946 0.894947
0.159875 0.781966 0.899555
0.159813 0.846238 0.899878
0.15969 0.908473 0.896275
0.159727 0.970858 0.894966
0.222245 0.782014 0.899567
0.222403 0.846033 0.899961
0.22216 0.908527 0.896474
0.222163 0.970943 0.894946
0.0348831 0.782737 0.937949
0.0351711 0.846134 0.938344
0.0348287 0.909728 0.935908
0.0346267 0.971777 0.934782
0.0977304 0.782578 0.937948
0.0974232 0.846357 0.938271
0.0974071 0.909576 0.935925
0.0971486 0.971682 0.93475
0.159832 0.782684 0.937972
0.160298 0.846055 0.93835
0.159869 0.909786 0.936058
0.159679 0.971685 0.934801
0.222664 0.782521 0.937973
0.222361 0.846365 0.938283
0.222428 0.909617 0.935953
0.22216 0.971792 0.93477
0.0353821 0.78264 0.976093
0.0351731 0.846191 0.976103
0.0349763 0.909369 0.97424
0.0348818 0.971843 0.97374
0.0979165 0.782774 0.976148
0.0978403 0.846083 0.976165
0.0974686 0.909355 0.974133
0.0973998 0.971748 0.973795
0.160419 0.782697 0.976107
0.160154 0.846224 0.976066
0.159939 0.909435 0.974249
0.159796 0.971812 0.973712
0.222869 0.782776 0.976186
0.222925 0.846101 0.976152
0.222469 0.909389 0.974162
0.222396 0.97185 0.973877
0.284841 0.0329562 0.0116089
0.284535 0.0946927 0.0117734
0.284694 0.156343 0.0118856
0.28478 0.218059 0.011979
0.347129 0.0329978 0.0116449
0.3472 0.0946443 0.0117145
0.347081 0.156246 0.0118541
0.347272 0.218058 0.0120515
0.409814 0.0329269 0.0116233
0.409456 0.0946023 0.0117721
0.409621 0.156262 0.0119058
0.409729 0.218007 0.0120553
0.472123 0.0330078 0.0117131
0.472156 0.094588 0.0117621
0.472102 0.156231 0.0118316
0.472288 0.218076 0.012049
0.284692 0.0318344 0.0494797
0.284703 0.0938349 0.0496881
0.284623 0.155958 0.0497656
0.284792 0.218248 0.0497347
0.347237 0.0316061 0.0494711
0.347096 0.0938651 0.0496806
0.347193 0.155886 0.049776
0.347167 0.218205 0.0497112
0.409707 0.0317784 0.0494639
0.409683 0.0938345 0.049662
0.409575 0.155959 0.0497401
0.409709 0.218205 0.049736
0.472241 0.0315829 0.049456
0.472063 0.0938665 0.0496663
0.472148 0.15585 0.0497878
0.472135 0.218129 0.049766
0.28469 0.0310365 0.0870081
0.284474 0.0934535 0.0871322
0.284442 0.155885 0.0872098
0.284433 0.218436 0.0871797
0.347166 0.0312132 0.0869796
0.347 0.0934631 0.0871543
0.346909 0.155941 0.0871991
0.34701 0.218321 0.0871562
0.409732 0.0310969 0.0869879
0.409443 0.0934622 0.0871816
0.409418 0.155946 0.0872561
0.409429 0.218552 0.0871862
0.472076 0.0312179 0.0869841
0.471932 0.0934889 0.087153
0.471875 0.155975 0.0872038
0.471935 0.218363 0.087167
0.284611 0.0310898 0.124409
0.284441 0.0934443 0.12453
0.284178 0.156034 0.124539
0.284225 0.218462 0.124496
0.347142 0.0310729 0.124444
0.346853 0.0936119 0.124502
0.346714 0.155909 0.124556
0.346586 0.218531 0.124525
0.409595 0.0311436 0.124426
0.409405 0.0934823 0.124515
0.409154 0.156093 0.124545
0.409216 0.218479 0.12451
0.472104 0.0311296 0.124425
0.47184 0.093597 0.124529
0.471758 0.1559 0.124579
0.47165 0.218551 0.124523
0.284472 0.03105 0.161815
0.284243 0.0936173 0.161864
0.284097 0.155955 0.161868
0.284009 0.21858 0.16179
0.346942 0.0310666 0.161774
0.346778 0.0934029 0.161844
0.346487 0.156003 0.161791
0.34659 0.218504 0.161774
0.409437 0.031044 0.161777
0.409192 0.0935707 0.161838
0.409065 0.155911 0.161864
0.409045 0.218606 0.161767
0.471964 0.0311553 0.161796
0.471826 0.093565 0.161878
0.471541 0.15606 0.161799
0.471619 0.218485 0.161777
0.284355 0.0311577 0.199123
0.284205 0.0935166 0.199155
0.284057 0.156157 0.199064
0.28399 0.218558 0.19903
0.346902 0.0310498 0.199165
0.346599 0.0936278 0.199103
0.346546 0.15603 0.199084
0.346489 0.218644 0.199061
0.409371 0.0311657 0.199124
0.409157 0.0935216 0.199149
0.409011 0.156084 0.199078
0.409036 0.218575 0.199041
0.471879 0.0310954 0.199146
0.471562 0.0936819 0.199164
0.47154 0.156023 0.199146
0.471521 0.218721 0.199052
0.284353 0.0310428 0.236448
0.284144 0.0936634 0.236407
0.284054 0.156006 0.2364
0.283901 0.218736 0.23631
0.346717 0.0311581 0.236439
0.346717 0.0935369 0.236424
0.346492 0.156128 0.236336
0.346459 0.218616 0.236307
0.409266 0.031108 0.236457
0.409075 0.093763 0.236418
0.409055 0.156051 0.236418
0.408891 0.218707 0.236337
0.47176 0.0312054 0.236441
0.471612 0.0936201 0.23644
0.471532 0.156187 0.236355
0.471447 0.218672 0.236275
0.284078 0.0313294 0.273718
0.284059 0.0936942 0.273683
0.283921 0.1562 0.273616
0.283856 0.218664 0.273555
0.346614 0.0311658 0.273799
0.346433 0.0937454 0.273684
0.346504 0.156082 0.273691
0.346265 0.218708 0.273562
0.409069 0.0312655 0.273737
0.408975 0.0937075 0.273696
0.408923 0.156204 0.273655
0.408847 0.218616 0.273576
0.471526 0.0313042 0.273775
0.471427 0.093805 0.273713
0.471491 0.156155 0.273717
0.471261 0.218775 0.273566
0.283897 0.0313552 0.311061
0.283878 0.0938798 0.311009
0.283906 0.156279 0.310985
0.28367 0.21875 0.310835
0.346417 0.0314028 0.311056
0.34642 0.0937748 0.311028
0.346332 0.156295 0.310995
0.346164 0.2187 0.310841
0.408977 0.0313796 0.311042
0.408853 0.0939576 0.310971
0.408934 0.15632 0.311017
0.408601 0.21882 0.310877
0.471434 0.0314175 0.311043
0.471468 0.0938348 0.310981
0.471352 0.156337 0.310942
0.471192 0.218681 0.310879
0.283953 0.031436 0.348358
0.28387 0.0938784 0.348356
0.283669 0.156466 0.348253
0.283475 0.218865 0.348164
0.346489 0.0313982 0.348375
0.346312 0.0940029 0.348305
0.346271 0.15633 0.3483
0.345911 0.21887 0.348169
0.40898 0.0313894 0.34837
0.408884 0.093921 0.348361
0.408721 0.156404 0.348291
0.40851 0.218762 0.348138
0.471482 0.0313865 0.348357
0.47136 0.0940124 0.348326
0.471298 0.156313 0.348312
0.470972 0.218804 0.348216
0.283822 0.0313383 0.385687
0.283709 0.0939595 0.385621
0.283609 0.15637 0.385652
0.283325 0.218956 0.385472
0.346314 0.0315025 0.385652
0.346243 0.093865 0.385642
0.346052 0.156473 0.385569
0.345775 0.218865 0.385503
0.408844 0.031409 0.385703
0.408685 0.0940426 0.385633
0.408621 0.156317 0.385663
0.408284 0.218902 0.385498
0.47133 0.0315383 0.385618
0.471242 0.0939224 0.385667
0.471152 0.156476 0.385648
0.470791 0.218839 0.385528
0.283628 0.0314685 0.423002
0.283685 0.0939015 0.422979
0.283453 0.156616 0.422939
0.283269 0.219012 0.422884
0.346205 0.0313585 0.423033
0.346045 0.0940344 0.422927
0.345992 0.156527 0.422931
0.34571 0.219127 0.422799
0.408682 0.03142 0.422946
0.408601 0.0938915 0.422978
0.408361 0.156576 0.422919
0.408167 0.219045 0.422853
0.471208 0.0313293 0.42299
0.471036 0.0939874 0.422959
0.471002 0.156477 0.422955
0.470637 0.219107 0.422833
0.283655 0.0315386 0.460359
0.283514 0.0942804 0.460285
0.283615 0.156703 0.460255
0.283167 0.219337 0.460221
0.346203 0.0315942 0.460362
0.346069 0.0940861 0.460306
0.345958 0.156833 0.460247
0.345729 0.219353 0.46022
0.408615 0.0314756 0.460357
0.408552 0.0942188 0.460242
0.408512 0.156703 0.460242
0.408165 0.219404 0.460167
0.471154 0.0315854 0.460341
0.471169 0.0940786 0.460313
0.470896 0.156874 0.460227
0.4707 0.219277 0.460229
0.283711 0.0317943 0.497702
0.283567 0.0943588 0.497613
0.283398 0.157228 0.497595
0.283262 0.219711 0.497607
0.34617 0.0316994 0.497726
0.346043 0.0946149 0.497607
0.346105 0.157207 0.497557
0.345616 0.219932 0.497653
0.408687 0.0317952 0.497687
0.408643 0.0943866 0.497637
0.40844 0.15729 0.497585
0.408292 0.219697 0.497635
0.471235 0.0317087 0.497706
0.471051 0.0945874 0.4976
0.471127 0.157099 0.497557
0.47069 0.219899 0.497544
0.283849 0.0320882 0.535068
0.283684 0.0952337 0.535017
0.283768 0.157528 0.534973
0.283244 0.220378 0.535134
0.346244 0.0324019 0.535065
0.346396 0.0949708 0.534977
0.34586 0.157775 0.535016
0.346069 0.220059 0.535031
0.408829 0.0321647 0.535068
0.408632 0.0952476 0.535008
0.408785 0.157589 0.534992
0.408244 0.220342 0.535097
0.471181 0.0324673 0.535036
0.471379 0.0950316 0.534974
0.470892 0.157825 0.534984
0.471123 0.220091 0.535064
0.283782 0.0324597 0.572768
0.283688 0.0952912 0.572826
0.28348 0.157703 0.572898
0.283791 0.220123 0.572973
0.346163 0.0325488 0.572744
0.346184 0.0952302 0.572783
0.346216 0.157773 0.572864
0.34595 0.220174 0.573055
0.408723 0.0325367 0.572684
0.408621 0.0953145 0.572773
0.408528 0.15772 0.572854
0.408826 0.220244 0.573056
0.471244 0.0325608 0.572655
0.471216 0.0952763 0.572778
0.471253 0.157722 0.572869
0.470977 0.220159 0.573057
0.284065 0.0328499 0.610916
0.283698 0.0955071 0.611085
0.283967 0.15728 0.611276
0.284095 0.219837 0.611383
0.346362 0.0330958 0.610861
0.346423 0.0952279 0.61105
0.346412 0.157496 0.611209
0.346471 0.219414 0.611335
0.409117 0.0328483 0.610836
0.408726 0.0954797 0.611026
0.408991 0.157213 0.611195
0.409114 0.219843 0.611323
0.47132 0.0331568 0.610799
0.471555 0.0951865 0.611007
0.471438 0.157438 0.611196
0.471491 0.219424 0.611355
0.284216 0.033025 0.649786
0.284256 0.095061 0.650547
0.284268 0.157277 0.650743
0.284203 0.219604 0.650388
0.346818 0.0329785 0.649775
0.346717 0.0951705 0.650496
0.346785 0.157264 0.6507
0.346748 0.219552 0.650378
0.409206 0.0329987 0.649809
0.409296 0.0950866 0.650499
0.409231 0.157256 0.650706
0.409149 0.219439 0.650291
0.471761 0.0328693 0.649878
0.471811 0.0950589 0.650509
0.471739 0.157183 0.650669
0.471707 0.219444 0.650363
0.284273 0.0321085 0.690181
0.284304 0.0946614 0.69074
0.284269 0.157122 0.690866
0.28419 0.219681 0.690741
0.346743 0.0321891 0.690294
0.346816 0.0946574 0.690774
0.346778 0.157165 0.69095
0.346709 0.219686 0.690691
0.409148 0.0322084 0.690319
0.409332 0.0946777 0.690804
0.409361 0.157202 0.69086
0.409251 0.219757 0.690709
0.471773 0.0321606 0.690421
0.471889 0.0946386 0.690806
0.471799 0.157156 0.69091
0.47173 0.219539 0.690658
0.284553 0.0319335 0.730974
0.284528 0.0945343 0.731294
0.284459 0.15734 0.731366
0.284369 0.220009 0.731301
0.346991 0.0319446 0.73105
0.346934 0.0945594 0.731285
0.346934 0.157263 0.731337
0.346931 0.219872 0.731297
0.409365 0.031896 0.73109
0.409457 0.0944583 0.731302
0.409457 0.157193 0.731354
0.409398 0.219847 0.731316
0.471919 0.0319201 0.731152
0.471997 0.0945558 0.731331
0.472007 0.157263 0.731382
0.471813 0.219945 0.731317
0.284582 0.0320556 0.772226
0.284599 0.0946836 0.772088
0.284513 0.157214 0.772031
0.284544 0.21984 0.772099
0.347112 0.0319985 0.772245
0.347055 0.0946184 0.772153
0.347044 0.157225 0.772098
0.347065 0.219919 0.772099
0.409497 0.0321144 0.772301
0.409519 0.0946198 0.772147
0.409511 0.157236 0.772139
0.409541 0.219729 0.772094
0.471941 0.0319772 0.772292
0.47201 0.0946131 0.772152
0.472104 0.157254 0.772176
0.472099 0.219863 0.772249
0.284735 0.0323606 0.813236
0.284693 0.0948119 0.812988
0.284752 0.157437 0.812978
0.284837 0.21984 0.813177
0.347157 0.0323972 0.813287
0.347155 0.0950024 0.812988
0.347268 0.157451 0.812986
0.347321 0.219918 0.813232
0.409697 0.0323194 0.813318
0.409742 0.0949593 0.813088
0.409754 0.157364 0.813029
0.409821 0.219824 0.813249
0.472217 0.0323883 0.813358
0.472256 0.0948254 0.813093
0.472274 0.157338 0.813102
0.472347 0.219746 0.813256
0.284501 0.0325318 0.853896
0.284669 0.0948595 0.853662
0.284685 0.1573 0.85375
0.284736 0.219702 0.854067
0.347044 0.0325426 0.853931
0.347104 0.094913 0.853651
0.347159 0.157276 0.853709
0.347276 0.219618 0.854137
0.409561 0.0325045 0.853995
0.409638 0.0949296 0.853708
0.40971 0.157371 0.853776
0.409768 0.219581 0.854158
0.472077 0.03254 0.853944
0.472194 0.0949979 0.853754
0.472316 0.157332 0.853835
0.472283 0.219623 0.854173
0.284591 0.032938 0.894367
0.284765 0.0950077 0.894122
0.284704 0.156978 0.894171
0.284839 0.219023 0.894733
0.34703 0.0329334 0.894371
0.347144 0.094932 0.894088
0.347213 0.156982 0.894209
0.34728 0.219097 0.894767
0.409637 0.0329836 0.894402
0.409654 0.095013 0.894057
0.409709 0.156986 0.894144
0.409816 0.218967 0.894764
0.472092 0.0330596 0.894403
0.472138 0.09499 0.894141
0.472264 0.156983 0.894234
0.472373 0.219045 0.894859
0.284493 0.033501 0.934258
0.28453 0.0951123 0.934137
0.284697 0.156653 0.934217
0.284749 0.218268 0.934704
0.346978 0.0334223 0.934309
0.347057 0.0950353 0.934143
0.347141 0.156624 0.93426
0.347243 0.218298 0.934649
0.40947 0.0334404 0.93428
0.409507 0.0950753 0.934095
0.409702 0.156636 0.934292
0.409673 0.218301 0.934643
0.47205 0.0334311 0.934318
0.472056 0.095049 0.934148
0.472126 0.156609 0.934323
0.472211 0.218305 0.934682
0.284747 0.0335927 0.973411
0.284643 0.0949411 0.973298
0.284666 0.15633 0.973402
0.284928 0.217866 0.973865
0.347186 0.0335697 0.973449
0.347157 0.0950543 0.973349
0.347202 0.156411 0.973455
0.347329 0.217864 0.973818
0.409752 0.033612 0.973436
0.409594 0.0950289 0.973305
0.40962 0.156425 0.973485
0.409809 0.217878 0.973898
0.472177 0.0335382 0.973449
0.472128 0.0949467 0.973329
0.472208 0.156201 0.973486
0.472183 0.217713 0.973944
0.284831 0.280378 0.0121394
0.284983 0.34306 0.0123228
0.285011 0.406326 0.0140419
0.285094 0.469183 0.014229
0.347266 0.280346 0.0121188
0.347264 0.343012 0.0123966
0.347491 0.406081 0.0139509
0.347729 0.469493 0.0142268
0.409656 0.280399 0.0121467
0.409873 0.343068 0.0123404
0.41003 0.406329 0.0140362
0.410028 0.469246 0.014206
0.472078 0.280318 0.0121164
0.472263 0.34297 0.0124394
0.472557 0.406023 0.0139434
0.472678 0.469407 0.0142089
0.284666 0.280686 0.0495812
0.284629 0.343188 0.0498589
0.285043 0.40591 0.051325
0.285381 0.468996 0.0515751
0.347232 0.28058 0.0496218
0.347422 0.343338 0.0496971
0.347539 0.40628 0.051379
0.347855 0.46893 0.0515424
0.409604 0.280671 0.0495688
0.409551 0.34322 0.0498453
0.410119 0.406071 0.051329
0.410473 0.469026 0.0515672
0.472176 0.280639 0.0496304
0.472289 0.34328 0.0497032
0.472517 0.406144 0.0513628
0.472916 0.468907 0.0514964
0.284362 0.280849 0.0870179
0.284698 0.343465 0.0871408
0.285104 0.406321 0.0888197
0.285548 0.468889 0.0889157
0.34682 0.280993 0.0870275
0.346783 0.343487 0.0872706
0.347585 0.406112 0.0887395
0.348045 0.469011 0.0888931
0.409387 0.280812 0.0870278
0.409627 0.343453 0.0871435
0.410042 0.406279 0.0887986
0.410521 0.468877 0.0888816
0.471812 0.280994 0.0869747
0.471773 0.343387 0.0872831
0.472496 0.406092 0.0887164
0.473016 0.469015 0.0888909
0.284077 0.281114 0.124307
0.284006 0.343518 0.124629
0.284914 0.406215 0.126064
0.285499 0.469006 0.126283
0.346651 0.280986 0.124427
0.346806 0.343646 0.12452
0.34749 0.406361 0.12613
0.348017 0.468909 0.12625
0.409081 0.281026 0.124343
0.409002 0.343472 0.124627
0.409996 0.406177 0.126076
0.41057 0.469007 0.126294
0.471629 0.28096 0.124364
0.471821 0.343564 0.124501
0.472464 0.406305 0.126091
0.473022 0.468888 0.126229
0.283955 0.281035 0.161653
0.284106 0.343636 0.161812
0.284751 0.406401 0.163469
0.285468 0.468822 0.163569
0.346409 0.281158 0.161695
0.346315 0.343577 0.161935
0.347224 0.406183 0.163393
0.347929 0.468963 0.163599
0.408982 0.281055 0.161664
0.409142 0.343596 0.161839
0.409756 0.406391 0.163501
0.410403 0.468872 0.163589
0.471398 0.281074 0.161627
0.471257 0.343551 0.161951
0.472236 0.406161 0.163348
0.472866 0.469005 0.163585
0.283773 0.281191 0.198968
0.28372 0.343655 0.199252
0.284731 0.406268 0.200723
0.285377 0.468993 0.200891
0.346419 0.281059 0.198966
0.346622 0.343746 0.199102
0.347291 0.40644 0.200797
0.347869 0.468959 0.200909
0.408814 0.281201 0.198941
0.408767 0.3436 0.199268
0.409693 0.406269 0.20074
0.410306 0.468963 0.200886
0.471427 0.281112 0.198956
0.471651 0.343765 0.199078
0.472284 0.406377 0.200793
0.472835 0.468905 0.200878
0.283746 0.281156 0.236247
0.284157 0.343745 0.236353
0.284932 0.406487 0.238078
0.285355 0.469002 0.23824
0.346264 0.281266 0.236199
0.346227 0.34376 0.236504
0.347431 0.40637 0.23805
0.347935 0.46903 0.238284
0.408758 0.28118 0.236222
0.409185 0.343705 0.236329
0.409953 0.406415 0.238133
0.410423 0.468962 0.238233
0.471226 0.281274 0.236219
0.471297 0.343753 0.236493
0.472433 0.406313 0.23805
0.472825 0.469108 0.238262
0.283543 0.281221 0.273464
0.283577 0.343647 0.27378
0.284846 0.406243 0.275358
0.285233 0.468961 0.275561
0.346155 0.281093 0.273478
0.346544 0.343647 0.27361
0.347384 0.406335 0.275422
0.347753 0.468718 0.275504
0.40858 0.281239 0.273462
0.408632 0.343662 0.273808
0.409823 0.40626 0.275318
0.410209 0.468987 0.275596
0.471163 0.281158 0.27349
0.47157 0.343696 0.273658
0.472318 0.406351 0.275397
0.472732 0.468823 0.275576
0.283577 0.2811 0.310796
0.283958 0.343593 0.310965
0.284825 0.406201 0.312715
0.285038 0.468607 0.312811
0.346007 0.281264 0.310723
0.346125 0.343542 0.311111
0.347219 0.406091 0.312658
0.347568 0.468782 0.312827
0.40853 0.281069 0.310766
0.408988 0.343649 0.310976
0.409854 0.406216 0.312692
0.410089 0.468658 0.312808
0.470938 0.281222 0.310741
0.471057 0.34345 0.311146
0.47221 0.406015 0.312676
0.472542 0.468811 0.312887
0.283408 0.281343 0.34807
0.283626 0.343505 0.348469
0.284808 0.406084 0.349994
0.285054 0.468671 0.350127
0.345871 0.281106 0.348156
0.346536 0.343649 0.348346
0.347355 0.406201 0.350064
0.347602 0.4686 0.350136
0.408367 0.281246 0.348085
0.408524 0.343531 0.348481
0.409826 0.406063 0.350029
0.410116 0.468694 0.350159
0.470882 0.281175 0.348151
0.471463 0.343679 0.348323
0.472447 0.406188 0.350094
0.472662 0.4686 0.350156
0.283252 0.281193 0.385528
0.283884 0.343767 0.385678
0.284786 0.406359 0.387452
0.28511 0.468682 0.38748
0.345765 0.281383 0.385464
0.345974 0.34364 0.38583
0.347224 0.406219 0.387383
0.3476 0.468678 0.387497
0.408208 0.281196 0.385531
0.408887 0.343697 0.385714
0.409836 0.406277 0.387493
0.410086 0.468594 0.387518
0.470756 0.281364 0.385435
0.470985 0.343642 0.385853
0.472279 0.406144 0.38737
0.472506 0.468723 0.387497
0.283165 0.281546 0.422803
0.283404 0.343777 0.423214
0.28466 0.406261 0.424835
0.284923 0.468675 0.424897
0.345597 0.28143 0.422913
0.346306 0.343793 0.423125
0.347285 0.406325 0.424847
0.347383 0.468608 0.424841
0.408151 0.281493 0.422798
0.408432 0.343756 0.423221
0.409617 0.406242 0.424822
0.409905 0.468679 0.42493
0.470531 0.281412 0.422909
0.471285 0.343849 0.423072
0.472212 0.406342 0.424848
0.472459 0.46867 0.424891
0.283057 0.281705 0.460386
0.283838 0.344072 0.460536
0.284716 0.406585 0.462408
0.284921 0.46872 0.462418
0.345579 0.281809 0.460229
0.345827 0.343912 0.460633
0.347112 0.406364 0.462311
0.347405 0.468671 0.462361
0.407976 0.281661 0.460355
0.408855 0.344096 0.460589
0.409757 0.406588 0.46239
0.40991 0.468648 0.462419
0.470598 0.281765 0.460223
0.470824 0.343929 0.460642
0.472167 0.406402 0.462328
0.472484 0.468688 0.462387
0.283168 0.282255 0.497736
0.345626 0.282187 0.497864
0.408153 0.282268 0.497713
0.470714 0.282145 0.497817
0.284485 0.407101 0.499958
0.471355 0.344591 0.498103
0.408417 0.34447 0.498187
0.346343 0.344577 0.498104
0.283349 0.344541 0.498205
0.347259 0.407119 0.499956
0.472256 0.407065 0.499936
0.285016 0.469465 0.499914
0.410112 0.469377 0.499947
0.409534 0.406992 0.49998
0.283459 0.282654 0.535347
0.283948 0.345655 0.535801
0.284451 0.408528 0.537418
0.284524 0.470643 0.537691
0.345974 0.282943 0.53527
0.346198 0.345434 0.535705
0.346657 0.408268 0.537589
0.347251 0.4707 0.537557
0.408483 0.282637 0.535374
0.409002 0.345563 0.535745
0.409393 0.408458 0.537453
0.409587 0.470642 0.537686
0.470962 0.282897 0.535315
0.471221 0.345403 0.535706
0.471579 0.408296 0.537624
0.47223 0.470658 0.537604
0.28376 0.282813 0.573019
0.283941 0.346012 0.573084
0.284525 0.409213 0.575164
0.284526 0.471563 0.575484
0.346243 0.282761 0.573087
0.346647 0.346157 0.573166
0.347029 0.409132 0.575063
0.347141 0.47157 0.575514
0.408746 0.282738 0.573049
0.408998 0.34601 0.573083
0.409526 0.409278 0.575131
0.409536 0.471526 0.575452
0.471311 0.282618 0.573117
0.471638 0.34613 0.573166
0.472108 0.409227 0.57503
0.472124 0.471501 0.575587
0.283873 0.282455 0.611269
0.284313 0.346288 0.611073
0.284273 0.409463 0.613357
0.284654 0.471462 0.614548
0.346621 0.282718 0.611238
0.346479 0.346046 0.610999
0.346912 0.409516 0.613493
0.347144 0.471408 0.614578
0.408905 0.282623 0.611347
0.40936 0.346269 0.611028
0.409372 0.409363 0.613386
0.40967 0.47149 0.614526
0.471707 0.282768 0.611287
0.471556 0.346004 0.611008
0.471984 0.409354 0.613528
0.472143 0.471347 0.614604
0.284215 0.282072 0.649834
0.284232 0.345935 0.64945
0.284653 0.408088 0.653235
0.284501 0.470678 0.654502
0.346588 0.282084 0.649837
0.346711 0.346057 0.649451
0.346937 0.408272 0.652955
0.346919 0.470659 0.654366
0.409253 0.282027 0.64975
0.409128 0.345947 0.649506
0.40933 0.408271 0.65295
0.40953 0.470871 0.654388
0.471695 0.281917 0.649854
0.471874 0.345978 0.649571
0.471769 0.408425 0.65299
0.472049 0.470854 0.6543
0.284147 0.281882 0.690227
0.284232 0.344259 0.689522
0.284554 0.407783 0.694488
0.284551 0.470096 0.695071
0.346839 0.281992 0.690251
0.34711 0.344465 0.689639
0.347263 0.407326 0.694337
0.347052 0.470135 0.69506
0.409229 0.282149 0.690156
0.409202 0.34492 0.689218
0.40938 0.407313 0.693728
0.409413 0.470288 0.694827
0.471676 0.28194 0.690056
0.471213 0.344464 0.689201
0.471562 0.407634 0.69398
0.472039 0.47032 0.694918
0.284327 0.282554 0.731163
0.283249 0.345393 0.731538
0.283354 0.406933 0.735598
0.284267 0.469789 0.735875
0.34685 0.282208 0.731138
0.346453 0.344491 0.731092
0.34626 0.407828 0.735902
0.346994 0.470075 0.735938
0.409427 0.282235 0.731138
0.409728 0.344487 0.731028
0.409628 0.407598 0.73574
0.409559 0.470278 0.736008
0.471804 0.28251 0.731143
0.471652 0.345169 0.730899
0.472164 0.407421 0.735479
0.47209 0.470091 0.735875
0.472512 0.469309 0.500022
0.347522 0.469426 0.500018
0.284589 0.28237 0.772153
0.28517 0.345212 0.772295
0.285372 0.406698 0.776419
0.284494 0.469598 0.77696
0.347114 0.282365 0.772143
0.346433 0.345194 0.772579
0.346582 0.406692 0.776673
0.347106 0.469634 0.777002
0.409582 0.282099 0.772143
0.409471 0.344367 0.772116
0.409289 0.408067 0.77705
0.409603 0.469936 0.777151
0.472034 0.282374 0.772407
0.472572 0.344959 0.772633
0.47263 0.407265 0.777148
0.472116 0.469885 0.777428
0.284786 0.282256 0.813482
0.285441 0.344309 0.813378
0.285159 0.40726 0.818292
0.284678 0.469499 0.818325
0.347367 0.282383 0.813554
0.348088 0.345056 0.813699
0.347967 0.406305 0.818143
0.347079 0.469221 0.818318
0.409765 0.282374 0.81362
0.408999 0.345299 0.814284
0.409066 0.406438 0.818598
0.409489 0.46922 0.818478
0.472318 0.282078 0.813578
0.471862 0.344377 0.813948
0.471608 0.407797 0.81883
0.471983 0.469689 0.818427
0.284708 0.281987 0.854703
0.28427 0.344406 0.855802
0.284092 0.407338 0.860679
0.284553 0.469684 0.859584
0.347195 0.281859 0.854791
0.347127 0.343951 0.855735
0.34716 0.407706 0.860636
0.34716 0.46987 0.859574
0.409862 0.28187 0.854922
0.410293 0.344252 0.855977
0.410467 0.407261 0.860698
0.409785 0.469701 0.85965
0.472301 0.281915 0.85486
0.472429 0.34471 0.856005
0.472472 0.407011 0.86058
0.472234 0.469616 0.859624
0.284916 0.281135 0.895605
0.284763 0.343494 0.897196
0.28478 0.405868 0.900626
0.28477 0.469978 0.900186
0.347343 0.281067 0.895585
0.347356 0.343585 0.896923
0.347397 0.406049 0.900655
0.347168 0.469897 0.900206
0.409798 0.281075 0.895594
0.410018 0.34351 0.897109
0.409706 0.405985 0.900637
0.409767 0.470053 0.90022
0.472418 0.281054 0.895668
0.472461 0.343386 0.897312
0.472406 0.405875 0.90075
0.472112 0.469911 0.9003
0.284835 0.280059 0.935487
0.285155 0.342076 0.936615
0.28505 0.405779 0.938885
0.284859 0.469541 0.938615
0.347309 0.280066 0.935452
0.347399 0.34225 0.936747
0.347374 0.40563 0.9389
0.347514 0.469648 0.938518
0.409802 0.280101 0.935483
0.409919 0.342158 0.936654
0.40999 0.405757 0.938942
0.40985 0.469499 0.938592
0.472305 0.279948 0.935467
0.472277 0.342172 0.936764
0.472334 0.405655 0.938931
0.472529 0.469576 0.938538
0.28479 0.279641 0.974477
0.284792 0.342452 0.974928
0.285063 0.405849 0.976628
0.285125 0.469529 0.976676
0.347496 0.279708 0.974467
0.347332 0.342387 0.974928
0.347563 0.405957 0.976751
0.347608 0.46954 0.976682
0.409714 0.279578 0.974505
0.409796 0.342425 0.974963
0.410051 0.405824 0.976663
0.410095 0.469611 0.976641
0.47235 0.279717 0.974523
0.472267 0.342373 0.97497
0.472601 0.405928 0.976752
0.472667 0.469485 0.976711
0.285313 0.532413 0.014291
0.285169 0.595001 0.0142612
0.285741 0.657829 0.0142737
0.285623 0.720074 0.0141492
0.347618 0.532231 0.0142394
0.347883 0.59527 0.0142563
0.347883 0.65754 0.0142417
0.348434 0.720337 0.0140717
0.41028 0.532451 0.0142588
0.410237 0.594976 0.0141757
0.410713 0.657802 0.01419
0.410571 0.720007 0.0140922
0.472665 0.532182 0.0142091
0.47296 0.59523 0.0142123
0.472852 0.65757 0.0141742
0.473444 0.720352 0.0140602
0.285413 0.531759 0.0516297
0.28563 0.594601 0.0516642
0.285647 0.65715 0.0517042
0.286124 0.719844 0.0516141
0.347939 0.531906 0.0515797
0.347988 0.594453 0.0516349
0.348348 0.657279 0.0516586
0.348536 0.719699 0.0515753
0.410394 0.531742 0.0515607
0.41061 0.594623 0.0516363
0.410641 0.657112 0.0516855
0.411136 0.719854 0.0516028
0.47296 0.531898 0.0515173
0.472992 0.594469 0.0515928
0.473318 0.657327 0.0516365
0.473402 0.719752 0.0516182
0.285605 0.531691 0.088941
0.285592 0.594282 0.0890107
0.285913 0.656911 0.0890068
0.286192 0.719403 0.0890055
0.348094 0.53158 0.0889189
0.34822 0.594309 0.0890285
0.348289 0.656768 0.0890014
0.348739 0.719432 0.089055
0.410643 0.531734 0.0889219
0.410587 0.594212 0.08897
0.410922 0.656866 0.0890381
0.411157 0.719377 0.0889844
0.473093 0.531609 0.0889089
0.473173 0.59429 0.0889733
0.473284 0.656778 0.0890049
0.473639 0.719472 0.0890602
0.28567 0.531506 0.126322
0.285826 0.594129 0.126326
0.285973 0.656622 0.126274
0.286236 0.71921 0.126367
0.348226 0.531613 0.126248
0.348247 0.594123 0.126283
0.348531 0.65678 0.126351
0.348757 0.719126 0.126356
0.41071 0.531544 0.126294
0.410774 0.594147 0.126301
0.410904 0.656566 0.126285
0.411225 0.719193 0.126405
0.473193 0.531631 0.126272
0.47321 0.594092 0.126262
0.473509 0.656691 0.126336
0.473668 0.719143 0.126376
0.285616 0.531613 0.163655
0.28569 0.593942 0.163583
0.285913 0.656511 0.163658
0.286095 0.718869 0.163715
0.348078 0.531522 0.163602
0.348248 0.594117 0.16369
0.348337 0.656477 0.163643
0.348608 0.71903 0.163736
0.410574 0.531585 0.163689
0.410669 0.594018 0.163574
0.410866 0.65654 0.163634
0.411067 0.71894 0.163699
0.473081 0.531511 0.163605
0.473254 0.594132 0.163626
0.473242 0.656506 0.163608
0.473621 0.719103 0.163734
0.285445 0.531505 0.200918
0.285592 0.594132 0.200959
0.28568 0.656506 0.200972
0.285907 0.71898 0.201079
0.347998 0.531555 0.200969
0.34808 0.593956 0.200953
0.348274 0.656578 0.201003
0.348395 0.71887 0.201074
0.410502 0.531489 0.200933
0.410614 0.594146 0.200998
0.410721 0.656454 0.200926
0.410931 0.719005 0.201059
0.472998 0.531531 0.200956
0.473004 0.593988 0.200922
0.473159 0.656522 0.200987
0.473376 0.718909 0.20109
0.285493 0.531545 0.238267
0.285483 0.593908 0.238262
0.285663 0.656427 0.238302
0.285737 0.718738 0.238434
0.34796 0.531481 0.238274
0.348016 0.594053 0.238274
0.348099 0.656386 0.23829
0.348277 0.718883 0.238423
0.410457 0.531595 0.238281
0.410475 0.593981 0.238284
0.410643 0.656413 0.238343
0.410725 0.718765 0.238435
0.472989 0.531537 0.238283
0.473045 0.594068 0.23828
0.473093 0.656364 0.238286
0.473313 0.718798 0.238403
0.285386 0.53135 0.275543
0.285505 0.593924 0.275594
0.285462 0.656248 0.275581
0.285683 0.718903 0.275701
0.347835 0.531479 0.275584
0.347909 0.593808 0.275541
0.348042 0.656362 0.275658
0.348134 0.718764 0.275732
0.410305 0.531357 0.275568
0.410488 0.593964 0.275615
0.410544 0.656231 0.275596
0.410749 0.718768 0.275739
0.472842 0.53148 0.275589
0.47295 0.593859 0.275563
0.473038 0.656375 0.275633
0.473134 0.718746 0.275741
0.285219 0.531312 0.312883
0.285308 0.593672 0.312837
0.285583 0.656247 0.312943
0.285564 0.718669 0.313011
0.347623 0.531233 0.312828
0.347935 0.593846 0.312896
0.347942 0.656148 0.312904
0.348175 0.718811 0.31302
0.410198 0.531346 0.312891
0.410329 0.593709 0.312873
0.410527 0.656267 0.312961
0.410615 0.718661 0.313011
0.472635 0.531234 0.31283
0.472895 0.593828 0.312918
0.472967 0.656134 0.312895
0.47311 0.71877 0.312973
0.285153 0.531163 0.350101
0.285361 0.593777 0.350153
0.285484 0.656081 0.35018
0.285577 0.718735 0.350302
0.347664 0.531272 0.350139
0.34781 0.593651 0.350134
0.347992 0.656261 0.350246
0.348077 0.718659 0.350296
0.410129 0.531097 0.350145
0.410386 0.593756 0.35016
0.410468 0.656136 0.350145
0.410632 0.718704 0.350287
0.472706 0.531287 0.350187
0.472798 0.593642 0.350146
0.473051 0.656191 0.350252
0.473023 0.718629 0.350314
0.285143 0.531164 0.387434
0.285229 0.593587 0.387456
0.285414 0.65614 0.387517
0.285419 0.718506 0.387551
0.347646 0.531024 0.387442
0.347812 0.593648 0.387412
0.347964 0.65603 0.387463
0.34803 0.718668 0.387584
0.410068 0.53112 0.387466
0.410283 0.593527 0.387423
0.410503 0.656115 0.387531
0.410472 0.718562 0.387596
0.472572 0.531052 0.387484
0.472765 0.593571 0.387489
0.472945 0.655971 0.387513
0.473031 0.718605 0.387603
0.285052 0.530994 0.424799
0.285275 0.593589 0.424769
0.285425 0.655917 0.424762
0.285517 0.718455 0.424875
0.347527 0.531039 0.424801
0.347766 0.593402 0.424744
0.348029 0.656024 0.424762
0.347953 0.718463 0.424842
0.410019 0.53095 0.424791
0.410289 0.593569 0.424761
0.410424 0.655895 0.424777
0.410521 0.71849 0.42488
0.472548 0.531099 0.424866
0.472732 0.593414 0.424815
0.472941 0.655959 0.424801
0.472884 0.718431 0.424886
0.28508 0.531101 0.462208
0.285209 0.593385 0.462088
0.285394 0.655842 0.462086
0.28533 0.718273 0.462174
0.347576 0.530939 0.462249
0.347772 0.593303 0.462093
0.347824 0.655788 0.462045
0.347911 0.718365 0.462202
0.41017 0.531115 0.462263
0.410194 0.593361 0.462093
0.410332 0.655855 0.462117
0.410255 0.718225 0.462231
0.472548 0.53089 0.46225
0.472831 0.593337 0.462153
0.472815 0.655793 0.462071
0.472801 0.718408 0.46221
0.284895 0.53142 0.499677
0.410167 0.71815 0.499674
0.347749 0.655795 0.499516
0.472549 0.531567 0.499741
0.347516 0.531626 0.499702
0.285241 0.655725 0.499524
0.347619 0.593646 0.49958
0.410259 0.65578 0.499566
0.347607 0.718122 0.499595
0.285278 0.593643 0.499542
0.410177 0.59369 0.49962
0.472576 0.593609 0.499629
0.472753 0.655744 0.499563
0.472616 0.718059 0.49967
0.285111 0.718083 0.499605
0.409978 0.531431 0.499741
0.284867 0.532595 0.537562
0.284965 0.594206 0.537484
0.284979 0.655822 0.537386
0.284944 0.717747 0.537177
0.347221 0.532651 0.537652
0.347554 0.594208 0.537479
0.347431 0.655845 0.537356
0.347467 0.717822 0.537201
0.409898 0.532609 0.537559
0.409957 0.594206 0.53752
0.409923 0.655928 0.537371
0.410003 0.717828 0.53721
0.472298 0.532566 0.537675
0.472623 0.59421 0.53749
0.472524 0.655926 0.537327
0.472474 0.717888 0.537298
0.284717 0.533133 0.575902
0.285001 0.594524 0.575895
0.284927 0.655793 0.575688
0.284815 0.717326 0.575177
0.34725 0.533163 0.575861
0.347497 0.594534 0.575902
0.347476 0.655839 0.575681
0.347223 0.717415 0.575114
0.40976 0.533121 0.575878
0.409949 0.594477 0.575896
0.409892 0.655735 0.575642
0.40989 0.717316 0.575211
0.472243 0.533109 0.575891
0.472426 0.594541 0.575923
0.472433 0.655836 0.575623
0.472256 0.717436 0.575228
0.284793 0.533132 0.61503
0.28489 0.594677 0.615117
0.284862 0.656298 0.614912
0.284677 0.717945 0.614382
0.34726 0.533126 0.615074
0.347373 0.594787 0.615117
0.347224 0.656329 0.614944
0.347224 0.717957 0.614333
0.409852 0.533126 0.614995
0.409786 0.5947 0.615114
0.409759 0.656298 0.614895
0.409692 0.717853 0.614321
0.472303 0.533152 0.615071
0.472381 0.594779 0.615082
0.472173 0.656368 0.614828
0.472202 0.717864 0.614192
0.28456 0.532763 0.655007
0.284642 0.59485 0.655179
0.284538 0.656849 0.654988
0.284452 0.718807 0.654365
0.34694 0.532914 0.654918
0.347061 0.594901 0.655181
0.346998 0.656831 0.655004
0.346935 0.71876 0.654381
0.40949 0.532864 0.654949
0.409579 0.594894 0.655203
0.409493 0.65687 0.654977
0.409461 0.718817 0.654338
0.472002 0.533003 0.654922
0.472045 0.595005 0.655233
0.471947 0.656923 0.655012
0.471923 0.71877 0.654292
0.284495 0.532464 0.6955
0.284501 0.594804 0.695581
0.284483 0.657212 0.6955
0.284452 0.719634 0.694921
0.346961 0.532574 0.69542
0.346931 0.594907 0.695589
0.346949 0.657261 0.695448
0.346976 0.719662 0.694939
0.409472 0.532681 0.695425
0.409423 0.595062 0.695536
0.409408 0.65738 0.695436
0.409432 0.719677 0.694922
0.471964 0.53261 0.695396
0.471994 0.595068 0.695627
0.471971 0.657378 0.695502
0.471848 0.719741 0.695032
0.284329 0.532418 0.736111
0.284274 0.594835 0.736401
0.284365 0.65738 0.736218
0.284355 0.719769 0.735983
0.346938 0.532478 0.736179
0.3468 0.594875 0.73633
0.346869 0.657376 0.736202
0.346864 0.71981 0.73595
0.409518 0.532566 0.736225
0.409416 0.594905 0.736272
0.40926 0.657407 0.736208
0.409361 0.719897 0.735934
0.47202 0.532603 0.736195
0.471911 0.595082 0.736266
0.471805 0.657505 0.73619
0.471747 0.719976 0.736015
0.28453 0.532076 0.777125
0.284605 0.594577 0.777173
0.284521 0.657297 0.777244
0.284513 0.719825 0.777223
0.347121 0.532043 0.777131
0.347072 0.594648 0.777226
0.347029 0.657266 0.777282
0.346969 0.719746 0.777319
0.409539 0.532247 0.777242
0.409609 0.594695 0.77722
0.409566 0.657306 0.777302
0.409586 0.719751 0.777336
0.472135 0.532265 0.777253
0.47209 0.594718 0.777236
0.472069 0.657298 0.777258
0.472027 0.719645 0.777397
0.284537 0.531919 0.818183
0.284458 0.594535 0.817987
0.284517 0.657264 0.818016
0.284428 0.719891 0.818278
0.347117 0.531881 0.818211
0.346954 0.594493 0.818031
0.347009 0.657337 0.818054
0.347005 0.719864 0.81836
0.409454 0.53191 0.818234
0.409521 0.594536 0.818133
0.409503 0.657176 0.818175
0.409499 0.719703 0.818453
0.472026 0.532 0.818291
0.472045 0.594539 0.818076
0.47197 0.657148 0.818211
0.471934 0.719701 0.818409
0.284642 0.532022 0.858904
0.284528 0.594497 0.858573
0.284518 0.656992 0.85849
0.284584 0.719526 0.858905
0.347102 0.532067 0.858919
0.347027 0.594535 0.858592
0.346922 0.657064 0.858583
0.347074 0.719516 0.858902
0.409615 0.532073 0.858903
0.409534 0.594532 0.858709
0.409496 0.657079 0.858658
0.409477 0.719603 0.858986
0.472004 0.532004 0.858943
0.471975 0.594549 0.858763
0.472006 0.657029 0.858759
0.472019 0.719602 0.859003
0.284425 0.532463 0.899327
0.284508 0.594661 0.898724
0.284476 0.656843 0.898692
0.284554 0.719297 0.899002
0.347012 0.532471 0.899401
0.346936 0.594644 0.898712
0.346866 0.656955 0.898682
0.347062 0.71935 0.89912
0.409405 0.532405 0.899324
0.409406 0.594689 0.898749
0.409361 0.656892 0.898698
0.409566 0.719337 0.899067
0.47207 0.532505 0.89942
0.471914 0.594708 0.8988
0.471916 0.656987 0.898711
0.472086 0.719373 0.89913
0.284882 0.532764 0.938377
0.284661 0.594929 0.938171
0.284864 0.657238 0.938038
0.284969 0.719322 0.937918
0.347134 0.532577 0.938364
0.347412 0.595142 0.938172
0.347343 0.656935 0.938006
0.347327 0.719716 0.93791
0.410022 0.532819 0.938335
0.409674 0.594939 0.938166
0.409866 0.65725 0.93802
0.409935 0.719399 0.937902
0.4722 0.532558 0.938364
0.472454 0.59519 0.938138
0.472331 0.656992 0.937967
0.472279 0.719781 0.937929
0.285196 0.532435 0.976591
0.285218 0.595069 0.976453
0.285334 0.65764 0.976316
0.285625 0.720111 0.976121
0.347703 0.532503 0.976544
0.347777 0.595168 0.976409
0.348069 0.657582 0.976301
0.34787 0.720083 0.976124
0.410226 0.532488 0.976557
0.41034 0.595098 0.976382
0.410304 0.65772 0.976281
0.410635 0.720152 0.976027
0.472677 0.532496 0.976513
0.472812 0.595185 0.976397
0.47307 0.657664 0.976268
0.472754 0.720181 0.976107
0.285869 0.782913 0.0138856
0.285774 0.845463 0.0134965
0.285498 0.908355 0.0116296
0.284862 0.970943 0.0116938
0.348307 0.782717 0.0137894
0.348086 0.845642 0.0134174
0.347647 0.908588 0.0118031
0.347541 0.970936 0.0115958
0.410799 0.78289 0.0139056
0.410789 0.845527 0.013496
0.410463 0.908422 0.011715
0.409874 0.970936 0.0116998
0.473248 0.782707 0.0138508
0.473032 0.845653 0.0134535
0.472664 0.908588 0.0118143
0.472613 0.970923 0.0116018
0.286184 0.782137 0.0513637
0.285602 0.844624 0.0510818
0.284703 0.907169 0.0492195
0.284659 0.969511 0.0491865
0.348573 0.782255 0.0514562
0.348513 0.844509 0.0510015
0.347461 0.907144 0.0492319
0.347085 0.969519 0.0492566
0.41114 0.782175 0.0513749
0.410524 0.844639 0.0510796
0.409665 0.907223 0.0492632
0.409681 0.969542 0.049174
0.473483 0.782308 0.0515057
0.473408 0.844594 0.0510441
0.472414 0.907245 0.0492589
0.472159 0.969597 0.0492413
0.286286 0.781883 0.088963
0.286112 0.844002 0.0885019
0.284912 0.906461 0.0868708
0.284735 0.968792 0.086829
0.348872 0.781745 0.0888285
0.348118 0.844141 0.0886565
0.347353 0.906654 0.0868197
0.347203 0.968711 0.0867758
0.411245 0.781851 0.0889413
0.41114 0.84404 0.0885596
0.409956 0.906534 0.0868517
0.40969 0.968894 0.0868397
0.473856 0.781781 0.0888433
0.47313 0.844197 0.0886605
0.472358 0.906738 0.0868461
0.472172 0.968759 0.086775
0.286366 0.781503 0.126315
0.285672 0.843903 0.126095
0.284836 0.906422 0.124324
0.284727 0.968626 0.124371
0.348829 0.781522 0.126383
0.348562 0.84376 0.125961
0.347422 0.906324 0.124389
0.34724 0.968748 0.124335
0.411383 0.781457 0.126275
0.410697 0.843826 0.126099
0.409823 0.906333 0.12431
0.40966 0.968698 0.124371
0.473813 0.78162 0.126367
0.473602 0.843832 0.12601
0.472371 0.906334 0.12439
0.472169 0.968754 0.124327
0.286206 0.781321 0.163774
0.286148 0.843588 0.163358
0.284865 0.906123 0.161761
0.284505 0.968717 0.161739
0.348756 0.781216 0.163688
0.348232 0.843674 0.163474
0.347341 0.906247 0.161775
0.346964 0.968544 0.161747
0.411167 0.781417 0.16378
0.411124 0.84357 0.163329
0.40988 0.906175 0.161823
0.409519 0.968715 0.161762
0.473688 0.781289 0.163695
0.47318 0.843728 0.163531
0.472317 0.906341 0.161786
0.47199 0.968618 0.161745
0.286041 0.781192 0.201067
0.28568 0.843647 0.200852
0.284849 0.906161 0.19915
0.284512 0.968578 0.19914
0.348585 0.781294 0.201166
0.34856 0.843488 0.200759
0.347393 0.906032 0.199188
0.346991 0.968698 0.199088
0.411077 0.781214 0.201084
0.410631 0.843592 0.20095
0.409843 0.906127 0.199171
0.409478 0.968592 0.199178
0.473568 0.781324 0.201157
0.473627 0.843512 0.200775
0.472414 0.906027 0.199226
0.471972 0.968671 0.199116
0.286016 0.781237 0.238528
0.286073 0.843512 0.238126
0.28505 0.906043 0.236634
0.284422 0.968649 0.236435
0.348477 0.781132 0.238496
0.348118 0.843569 0.238274
0.34746 0.906141 0.236514
0.346957 0.96854 0.23645
0.411109 0.781294 0.238505
0.411048 0.843492 0.238136
0.410116 0.906024 0.236593
0.409459 0.968709 0.236454
0.473485 0.781053 0.23849
0.473177 0.843496 0.238298
0.472546 0.906149 0.236475
0.472014 0.968534 0.236458
0.285859 0.781194 0.275795
0.285518 0.84366 0.275651
0.284878 0.906255 0.273852
0.284225 0.968583 0.27383
0.348416 0.781223 0.275798
0.348472 0.843577 0.275485
0.347372 0.906112 0.273953
0.346714 0.968784 0.273736
0.410896 0.781132 0.275765
0.410537 0.843625 0.275637
0.409808 0.906233 0.273858
0.409259 0.968632 0.273769
0.473477 0.781308 0.275823
0.473506 0.843631 0.275459
0.472373 0.90614 0.273923
0.47177 0.96888 0.273754
0.285835 0.781282 0.313104
0.285913 0.843661 0.312851
0.284869 0.906198 0.311246
0.284118 0.968955 0.31105
0.348327 0.781236 0.313078
0.347964 0.843769 0.312974
0.347355 0.906385 0.311172
0.346659 0.968768 0.311102
0.410877 0.781321 0.313083
0.41089 0.843721 0.312762
0.409892 0.906239 0.311216
0.409132 0.968912 0.311078
0.473226 0.781196 0.313105
0.472947 0.843741 0.312959
0.472356 0.906406 0.311162
0.471616 0.968819 0.311107
0.285734 0.781142 0.350444
0.285475 0.843678 0.350252
0.284779 0.906325 0.348553
0.284116 0.968817 0.348423
0.348331 0.781191 0.350402
0.348317 0.843517 0.350089
0.347346 0.906109 0.348604
0.346618 0.968889 0.34836
0.410742 0.781084 0.350404
0.410453 0.843617 0.350237
0.409832 0.906227 0.348482
0.409129 0.968763 0.348407
0.473275 0.781214 0.35039
0.473358 0.84358 0.350093
0.472426 0.906132 0.348585
0.471633 0.968928 0.348369
0.285713 0.781095 0.387715
0.285698 0.843535 0.387391
0.284719 0.90607 0.38593
0.28402 0.968906 0.38573
0.348094 0.781077 0.387714
0.347868 0.843622 0.38755
0.347197 0.9063 0.385852
0.346491 0.968835 0.385738
0.410657 0.781176 0.387685
0.410755 0.843568 0.387396
0.409771 0.906113 0.385882
0.409057 0.968907 0.385686
0.473071 0.781028 0.387743
0.472881 0.84358 0.387567
0.47231 0.906249 0.385816
0.471535 0.968747 0.385753
0.285448 0.780847 0.424982
0.285111 0.843517 0.424855
0.284491 0.906248 0.423185
0.283834 0.96873 0.423099
0.348028 0.781071 0.425012
0.348038 0.843523 0.424693
0.347004 0.906127 0.423236
0.346416 0.968837 0.423025
0.410434 0.780984 0.424972
0.410159 0.843576 0.424861
0.4095 0.906299 0.423197
0.408884 0.96877 0.423075
0.473023 0.780955 0.42508
0.473074 0.843402 0.424671
0.472057 0.906054 0.423255
0.471325 0.968847 0.422999
0.285319 0.780959 0.46235
0.285318 0.843339 0.462056
0.28433 0.905974 0.460635
0.283798 0.968895 0.46044
0.347783 0.78076 0.462367
0.347446 0.843395 0.462179
0.346899 0.906227 0.460525
0.346333 0.968785 0.460434
0.41035 0.780873 0.462367
0.410304 0.843269 0.462094
0.409348 0.905962 0.460635
0.40879 0.968908 0.46046
0.47283 0.780782 0.462367
0.472412 0.843399 0.462205
0.471875 0.906212 0.460497
0.471263 0.968737 0.460408
0.284401 0.9061 0.497974
0.283857 0.96879 0.497791
0.346368 0.968901 0.497777
0.40942 0.906143 0.497987
0.408921 0.968792 0.497815
0.471325 0.96901 0.497776
0.347624 0.780629 0.499819
0.346958 0.905937 0.497979
0.284762 0.843299 0.49967
0.410113 0.780606 0.499734
0.47192 0.905954 0.497995
0.472651 0.780672 0.499825
0.409739 0.843259 0.499647
0.472544 0.843259 0.499546
0.347551 0.843152 0.499532
0.285118 0.78057 0.499685
0.284938 0.780233 0.537185
0.284719 0.843007 0.536949
0.284374 0.906014 0.535428
0.283937 0.969346 0.535094
0.347386 0.780316 0.537149
0.347126 0.843116 0.537039
0.346893 0.906334 0.535318
0.346546 0.969163 0.535134
0.409942 0.780369 0.53726
0.409774 0.842993 0.536955
0.409332 0.906058 0.535415
0.408953 0.969399 0.535096
0.472452 0.780427 0.53721
0.472086 0.843182 0.537082
0.47187 0.906429 0.53532
0.471567 0.969244 0.535129
0.284588 0.779401 0.574616
0.284627 0.842292 0.574361
0.2843 0.905843 0.572634
0.283981 0.969546 0.572622
0.347319 0.779389 0.574679
0.347261 0.842369 0.574319
0.346734 0.905846 0.5727
0.34649 0.969637 0.572656
0.409624 0.779559 0.574704
0.409663 0.842393 0.574469
0.409222 0.905974 0.572617
0.408887 0.969553 0.572635
0.472369 0.779535 0.574843
0.472257 0.842555 0.574445
0.471767 0.905974 0.572676
0.471441 0.969698 0.572622
0.284524 0.77955 0.613497
0.284515 0.841784 0.612264
0.284227 0.905625 0.610436
0.283929 0.969638 0.6108
0.347076 0.77957 0.613437
0.346784 0.841827 0.612437
0.346578 0.905845 0.610381
0.346571 0.969547 0.610801
0.40954 0.779521 0.613449
0.40951 0.842041 0.612415
0.409259 0.905794 0.610393
0.408885 0.969797 0.610719
0.472148 0.779705 0.613412
0.47175 0.842084 0.612562
0.471605 0.906041 0.61041
0.471524 0.969797 0.61068
0.284485 0.78074 0.653367
0.284168 0.842941 0.651635
0.284042 0.905672 0.648511
0.284302 0.970214 0.648868
0.346985 0.780689 0.653336
0.346667 0.842912 0.651609
0.34678 0.905755 0.648575
0.346713 0.970501 0.648906
0.409447 0.780665 0.653302
0.40912 0.842946 0.651594
0.409084 0.906039 0.648487
0.40928 0.970362 0.648917
0.4719 0.780654 0.653167
0.471409 0.842942 0.651487
0.471655 0.906131 0.648549
0.471595 0.97053 0.648995
0.284472 0.782052 0.694059
0.284342 0.844862 0.692601
0.284262 0.906981 0.687451
0.284217 0.969711 0.689019
0.346925 0.781961 0.694112
0.346738 0.844975 0.692332
0.346464 0.906923 0.687437
0.346653 0.96971 0.689103
0.40949 0.782138 0.69403
0.408902 0.844411 0.69253
0.408504 0.907447 0.687839
0.409105 0.969881 0.689321
0.471963 0.78205 0.694117
0.472298 0.844504 0.692326
0.472161 0.907122 0.687853
0.471727 0.969831 0.689471
0.284428 0.782154 0.735559
0.284322 0.844123 0.735172
0.284338 0.907835 0.730453
0.284472 0.969647 0.73069
0.346869 0.782091 0.735594
0.347287 0.84451 0.73507
0.347227 0.907374 0.730319
0.347036 0.969475 0.730751
0.40937 0.78241 0.735588
0.409825 0.844949 0.735311
0.409322 0.906591 0.730452
0.409366 0.969332 0.73076
0.471864 0.782261 0.73575
0.471763 0.844085 0.735829
0.471683 0.907122 0.730812
0.471949 0.969432 0.730888
0.28446 0.782198 0.777273
0.284724 0.844462 0.777899
0.284469 0.906778 0.773407
0.284494 0.969627 0.772427
0.347024 0.78201 0.777334
0.346901 0.844066 0.777542
0.346939 0.907191 0.772718
0.346925 0.969518 0.772392
0.409541 0.781821 0.777453
0.410051 0.843942 0.777614
0.409689 0.907289 0.773006
0.409423 0.969578 0.772506
0.471953 0.781902 0.777508
0.472094 0.844077 0.777954
0.471856 0.906682 0.773329
0.471827 0.969535 0.772571
0.284625 0.782302 0.818708
0.285577 0.845023 0.81846
0.285691 0.906904 0.814617
0.284542 0.969775 0.813863
0.347207 0.782441 0.818761
0.347 0.845369 0.818814
0.34686 0.906596 0.814698
0.347064 0.969702 0.813837
0.409647 0.782151 0.818846
0.409582 0.844524 0.819111
0.409434 0.907036 0.814403
0.409517 0.96983 0.813887
0.472178 0.781985 0.818794
0.472001 0.844287 0.818806
0.472072 0.907001 0.814225
0.472024 0.969839 0.81379
0.284475 0.781955 0.859502
0.283964 0.844454 0.860225
0.283961 0.907328 0.855126
0.284335 0.97013 0.854322
0.347179 0.781901 0.859595
0.347588 0.844383 0.860344
0.347242 0.907597 0.855416
0.346902 0.970184 0.85462
0.409623 0.782137 0.859608
0.410003 0.844869 0.860232
0.409778 0.907274 0.85562
0.409489 0.970154 0.854558
0.472206 0.782071 0.859691
0.472342 0.844805 0.860449
0.47224 0.907231 0.85564
0.472033 0.969981 0.854535
0.284833 0.782019 0.899542
0.284813 0.84623 0.899874
0.284697 0.908431 0.896234
0.284617 0.97084 0.894881
0.347219 0.782107 0.899574
0.347375 0.84615 0.899795
0.34711 0.908344 0.896143
0.347009 0.970934 0.894856
0.409898 0.782108 0.89953
0.409792 0.846402 0.899817
0.409534 0.9086 0.896345
0.409586 0.970919 0.894963
0.472217 0.782214 0.899569
0.472422 0.846358 0.899779
0.472211 0.908637 0.896315
0.472184 0.971046 0.894953
0.284911 0.782704 0.937987
0.285225 0.846093 0.938377
0.284798 0.909767 0.935957
0.284634 0.971762 0.934794
0.347741 0.782536 0.937955
0.347432 0.846422 0.938225
0.347323 0.909723 0.935998
0.34712 0.971761 0.934851
0.409971 0.782897 0.937881
0.410227 0.846232 0.938303
0.409803 0.909863 0.935895
0.409606 0.971801 0.93478
0.472707 0.782792 0.937915
0.472375 0.846564 0.938313
0.472346 0.909669 0.936048
0.472117 0.971782 0.93483
0.285388 0.782629 0.976127
0.285192 0.846217 0.976071
0.284933 0.909374 0.97426
0.284838 0.9719 0.97381
0.347909 0.782793 0.976155
0.347961 0.84612 0.976139
0.347413 0.909457 0.974153
0.347297 0.971837 0.973861
0.41042 0.782667 0.97607
0.410194 0.84625 0.976077
0.409907 0.909474 0.974348
0.409746 0.971976 0.973863
0.472883 0.782756 0.976141
0.472929 0.846122 0.976148
0.472425 0.909473 0.9742
0.47231 0.971822 0.973882
0.53476 0.0329688 0.0116588
0.534506 0.094591 0.0118146
0.534618 0.156286 0.0119064
0.534713 0.218054 0.0120236
0.59712 0.0329227 0.011759
0.597202 0.0945847 0.0118159
0.59711 0.156216 0.0119138
0.597167 0.218085 0.0121502
0.659724 0.0329605 0.0116759
0.65956 0.094628 0.0118714
0.65966 0.156232 0.0119589
0.659689 0.217992 0.0120923
0.722131 0.0329264 0.0117707
0.722244 0.0945589 0.0118072
0.722162 0.156171 0.0119168
0.722203 0.218008 0.0120963
0.534704 0.0317702 0.049491
0.534612 0.0938271 0.0497012
0.534548 0.155995 0.049726
0.5347 0.218195 0.0497299
0.597234 0.0315815 0.0495072
0.597066 0.0938279 0.0497058
0.597136 0.155939 0.0497237
0.597173 0.21825 0.0497502
0.659748 0.0317738 0.0495076
0.659644 0.0938005 0.049693
0.659581 0.15596 0.0497516
0.659741 0.218151 0.0497038
0.722295 0.0316281 0.0495442
0.722143 0.0938593 0.0497237
0.722156 0.155811 0.0498164
0.722194 0.218272 0.0497106
0.534643 0.0310784 0.0870362
0.534378 0.0934491 0.0871304
0.534446 0.155866 0.0872268
0.53436 0.218404 0.0871543
0.597173 0.0311765 0.0870087
0.596947 0.0935105 0.0871548
0.596856 0.15598 0.0871873
0.596961 0.218305 0.0871773
0.659628 0.0309776 0.0870375
0.659443 0.0934914 0.0871828
0.659385 0.155875 0.0872529
0.659377 0.218494 0.0871447
0.722213 0.0311737 0.0870143
0.721969 0.0934694 0.0871878
0.721893 0.155988 0.0872075
0.721971 0.218404 0.0871328
0.534559 0.0311082 0.124417
0.534401 0.0935231 0.124523
0.534136 0.156097 0.124547
0.534246 0.218495 0.124486
0.597111 0.0310349 0.12448
0.596824 0.0935911 0.124505
0.596678 0.155878 0.124557
0.59659 0.21849 0.124487
0.659549 0.0311767 0.124411
0.659419 0.0935179 0.124512
0.659139 0.156083 0.124491
0.65926 0.218526 0.124443
0.722112 0.0310759 0.124501
0.721875 0.0935878 0.124493
0.721749 0.156001 0.124529
0.721613 0.218564 0.124433
0.534448 0.0310912 0.161808
0.534239 0.0936519 0.161857
0.534084 0.155962 0.161856
0.534074 0.218619 0.161744
0.59694 0.0312007 0.161821
0.596841 0.0935532 0.161838
0.596545 0.156147 0.161794
0.596607 0.218574 0.161738
0.659498 0.0310889 0.161841
0.659288 0.0936961 0.161828
0.659131 0.156064 0.161844
0.659026 0.218669 0.161754
0.721943 0.0311463 0.161819
0.721765 0.0935209 0.161858
0.721612 0.156174 0.161804
0.721563 0.218607 0.161748
0.534317 0.0311949 0.199123
0.534209 0.0935976 0.19918
0.534003 0.156101 0.199084
0.53405 0.218602 0.199043
0.596927 0.0311295 0.199163
0.596704 0.093703 0.199149
0.596574 0.156069 0.199121
0.596519 0.218728 0.199026
0.65929 0.0312258 0.199136
0.659228 0.0936052 0.199146
0.659056 0.156162 0.199074
0.659011 0.218644 0.19905
0.721864 0.0311074 0.199129
0.721653 0.0937193 0.199136
0.721566 0.156113 0.199124
0.72147 0.218799 0.199045
0.534302 0.0311085 0.236471
0.53406 0.0936767 0.236394
0.53405 0.156083 0.236405
0.533903 0.218772 0.236307
0.596869 0.0312609 0.236402
0.596637 0.0936295 0.236402
0.59649 0.15626 0.236349
0.596481 0.218719 0.236305
0.65932 0.0311506 0.236483
0.659043 0.0938059 0.236387
0.658997 0.156131 0.236424
0.658918 0.218744 0.236343
0.721736 0.0312208 0.236423
0.721706 0.0936588 0.236401
0.721488 0.156229 0.236333
0.721432 0.218682 0.236333
0.534054 0.0313642 0.273706
0.534008 0.0937231 0.273703
0.533922 0.156229 0.273625
0.533799 0.218621 0.273562
0.596575 0.031262 0.273765
0.596431 0.0938195 0.273645
0.596496 0.156156 0.273681
0.596236 0.21877 0.273587
0.659096 0.0313926 0.273698
0.659022 0.0936554 0.273714
0.658948 0.156193 0.273618
0.658827 0.218673 0.273594
0.721633 0.0313072 0.273745
0.721495 0.0938794 0.273662
0.721508 0.156177 0.273706
0.721296 0.218797 0.273625
0.533994 0.0313886 0.311042
0.533861 0.0939503 0.310966
0.5339 0.156231 0.310992
0.533603 0.218833 0.310879
0.596478 0.0314717 0.311032
0.596371 0.0938042 0.311003
0.596342 0.156263 0.310964
0.596145 0.218676 0.310833
0.65895 0.0314438 0.311068
0.658847 0.0939662 0.310986
0.658827 0.156267 0.310991
0.658578 0.218757 0.31091
0.721448 0.0315019 0.311044
0.721438 0.093876 0.311
0.721346 0.156322 0.310954
0.721145 0.218685 0.310888
0.533936 0.0314606 0.34832
0.533854 0.0938883 0.348347
0.533728 0.156389 0.348302
0.533528 0.218709 0.348192
0.596472 0.0314336 0.348371
0.596322 0.0940482 0.348301
0.596263 0.156414 0.348331
0.596009 0.218916 0.348215
0.658998 0.0314892 0.348307
0.658868 0.0939511 0.348363
0.658741 0.156483 0.348264
0.658557 0.218808 0.348213
0.72148 0.0315191 0.348329
0.721404 0.0940943 0.3483
0.721322 0.156401 0.348302
0.721024 0.218984 0.348235
0.533841 0.0313479 0.385717
0.533683 0.0939387 0.385606
0.533663 0.156303 0.385681
0.53332 0.218917 0.385531
0.596386 0.0315788 0.385611
0.596167 0.0939423 0.385686
0.59609 0.156483 0.385615
0.59585 0.218853 0.38556
0.658862 0.0314244 0.385679
0.658694 0.0940354 0.385639
0.658667 0.15635 0.385629
0.658424 0.218933 0.385551
0.721327 0.0315316 0.385631
0.72127 0.0939158 0.385672
0.721115 0.156485 0.3856
0.72092 0.218847 0.385532
0.533738 0.0315638 0.422987
0.533603 0.0939711 0.422994
0.533401 0.156562 0.422946
0.533184 0.218985 0.422893
0.596206 0.0313594 0.422951
0.59604 0.0940727 0.422954
0.596019 0.156565 0.422951
0.595627 0.219159 0.422863
0.658675 0.0314882 0.422985
0.658725 0.094018 0.422955
0.658484 0.156584 0.422912
0.658309 0.219024 0.422861
0.721295 0.0314505 0.422974
0.721186 0.094127 0.422921
0.721065 0.156565 0.422951
0.720754 0.219128 0.422834
0.533704 0.0314997 0.460335
0.533571 0.0942271 0.460243
0.533554 0.156732 0.460249
0.533119 0.219415 0.460186
0.59623 0.0316273 0.460298
0.596144 0.0941634 0.460277
0.595937 0.156895 0.460186
0.595753 0.219329 0.460245
0.658749 0.0314767 0.460311
0.658636 0.0942238 0.460231
0.658539 0.156723 0.460253
0.658207 0.219437 0.46018
0.721199 0.0316457 0.460315
0.721208 0.0941084 0.460247
0.720961 0.156865 0.460218
0.720789 0.219327 0.460215
0.533703 0.0319065 0.497665
0.533676 0.0944922 0.497594
0.533393 0.157268 0.497546
0.533306 0.2197 0.497579
0.596258 0.0317393 0.497647
0.596099 0.094683 0.497568
0.596101 0.157166 0.497536
0.595637 0.219926 0.497562
0.658749 0.0318253 0.497655
0.658706 0.0945166 0.497586
0.658425 0.157285 0.497591
0.658317 0.219797 0.497602
0.721278 0.0316731 0.49765
0.721065 0.0945992 0.497591
0.721114 0.157152 0.497556
0.720693 0.219861 0.497605
0.533899 0.0321826 0.535014
0.533698 0.0952993 0.534949
0.533797 0.157648 0.534964
0.533225 0.220404 0.53506
0.596301 0.0324942 0.535001
0.596429 0.0949992 0.534919
0.595895 0.15786 0.534953
0.596095 0.220078 0.535043
0.659015 0.032162 0.535
0.658698 0.0952503 0.53496
0.658858 0.157586 0.534949
0.658335 0.220408 0.535103
0.72131 0.0324327 0.534995
0.721411 0.0949365 0.534977
0.720934 0.157773 0.535007
0.721122 0.220025 0.535068
0.533874 0.0326147 0.572677
0.533587 0.0952803 0.572755
0.533483 0.157746 0.572895
0.533854 0.220169 0.573025
0.596298 0.03252 0.572652
0.596236 0.0952362 0.572802
0.596233 0.157645 0.572842
0.596078 0.220023 0.573065
0.658867 0.0325688 0.572626
0.658723 0.0953039 0.572778
0.658481 0.157644 0.572842
0.658938 0.220113 0.573002
0.721284 0.0323644 0.572689
0.721225 0.0951207 0.572807
0.721282 0.15759 0.572867
0.72108 0.220076 0.57305
0.534123 0.0329067 0.610844
0.533806 0.0954534 0.611104
0.534001 0.157171 0.611269
0.534136 0.219712 0.611391
0.596368 0.0330866 0.610811
0.596597 0.0951067 0.611079
0.59648 0.157413 0.611281
0.59649 0.219332 0.611337
0.659184 0.0328155 0.610852
0.658786 0.095447 0.611117
0.65905 0.157203 0.61124
0.659205 0.219659 0.611302
0.72146 0.0330356 0.61086
0.721556 0.0951366 0.61101
0.721509 0.157383 0.611144
0.721545 0.219381 0.611279
0.534087 0.0328172 0.649839
0.534288 0.0949657 0.650598
0.534306 0.157138 0.650699
0.534325 0.219443 0.650353
0.596756 0.0327727 0.649919
0.596819 0.0949838 0.650561
0.596828 0.15711 0.650728
0.596804 0.219392 0.650411
0.659256 0.0327816 0.649928
0.659333 0.0949446 0.650574
0.65936 0.157155 0.650738
0.659298 0.21934 0.65036
0.721857 0.0327287 0.649901
0.721789 0.0949854 0.650607
0.721841 0.157074 0.650731
0.721849 0.219366 0.650385
0.534154 0.0320428 0.690512
0.534386 0.0945767 0.69083
0.534265 0.157118 0.690934
0.534315 0.219684 0.690753
0.596605 0.0321709 0.690482
0.596788 0.0946067 0.690838
0.596778 0.157052 0.690976
0.596774 0.219593 0.690747
0.659132 0.0320948 0.690438
0.659241 0.0945241 0.690884
0.65929 0.157145 0.691037
0.659255 0.219626 0.69083
0.721696 0.0320827 0.6904
0.721696 0.0945392 0.690862
0.721802 0.157122 0.690999
0.721748 0.219616 0.690718
0.534429 0.0318367 0.731196
0.534452 0.0944808 0.731362
0.534458 0.157306 0.731426
0.534333 0.219941 0.731361
0.596871 0.0317866 0.73123
0.596923 0.0944697 0.731427
0.596794 0.157249 0.731446
0.596778 0.219788 0.731345
0.659309 0.0317334 0.73123
0.659411 0.0943699 0.731419
0.659395 0.157162 0.731438
0.659291 0.219669 0.73138
0.721814 0.0316401 0.731131
0.721861 0.0943331 0.731351
0.721906 0.156991 0.731427
0.721865 0.219697 0.73138
0.534494 0.0319608 0.772271
0.534569 0.0945016 0.77227
0.534567 0.157309 0.772283
0.534557 0.219883 0.772335
0.597096 0.0318868 0.772308
0.597015 0.0944696 0.772238
0.597032 0.157169 0.772267
0.597075 0.219747 0.772343
0.659593 0.0318847 0.772288
0.659557 0.0944568 0.772152
0.659514 0.157108 0.772252
0.659591 0.219614 0.772309
0.722049 0.0319355 0.772237
0.722077 0.0944544 0.772135
0.721975 0.157045 0.772169
0.721982 0.219563 0.77225
0.534719 0.0322115 0.813315
0.534768 0.0947457 0.81311
0.534772 0.157356 0.81309
0.534926 0.219848 0.8133
0.597166 0.0322414 0.813355
0.597244 0.094757 0.813114
0.597294 0.157273 0.813075
0.597374 0.219827 0.81339
0.659731 0.0322002 0.813316
0.659723 0.094774 0.813097
0.659811 0.157313 0.813097
0.659846 0.219747 0.81334
0.722175 0.0323801 0.813249
0.722227 0.0947614 0.81306
0.722258 0.157312 0.813149
0.722254 0.219689 0.81341
0.534601 0.0324575 0.853964
0.534671 0.0949274 0.85377
0.534744 0.157345 0.85379
0.534759 0.219683 0.854181
0.597119 0.0324497 0.85389
0.59711 0.0948592 0.853718
0.597162 0.157263 0.853846
0.597286 0.219669 0.854247
0.659622 0.0323601 0.853905
0.659593 0.0948458 0.853693
0.659719 0.157252 0.853802
0.659758 0.219633 0.854332
0.722061 0.0324953 0.853885
0.722053 0.0948375 0.853722
0.722217 0.157236 0.853905
0.722284 0.219555 0.854353
0.534624 0.0329362 0.894437
0.534683 0.0949027 0.894192
0.534755 0.156953 0.8943
0.534844 0.219028 0.894813
0.597172 0.033063 0.894413
0.597118 0.0949542 0.894143
0.597178 0.157014 0.894321
0.597319 0.219072 0.894885
0.659669 0.0329653 0.89438
0.659604 0.0949219 0.894146
0.659621 0.156921 0.894289
0.659839 0.218992 0.894863
0.722135 0.032894 0.894433
0.722106 0.094921 0.894183
0.722149 0.156929 0.894296
0.722391 0.219 0.894905
0.534557 0.033496 0.934357
0.534501 0.0951304 0.93418
0.534718 0.156738 0.934294
0.534641 0.218364 0.934765
0.597053 0.0334558 0.934372
0.597094 0.0950284 0.934184
0.597122 0.156643 0.934345
0.597205 0.218299 0.934818
0.659534 0.0334085 0.934286
0.659499 0.0950591 0.934177
0.65974 0.156567 0.934354
0.659667 0.21826 0.934834
0.722024 0.0333967 0.934307
0.722117 0.0950298 0.93417
0.722109 0.156658 0.934327
0.722176 0.218235 0.934849
0.534777 0.033645 0.973467
0.534629 0.0950164 0.973373
0.534687 0.156359 0.973504
0.534758 0.217848 0.973941
0.597207 0.0335415 0.973474
0.59712 0.0949771 0.973418
0.597219 0.156221 0.973553
0.597246 0.217664 0.973937
0.659771 0.0335599 0.973472
0.659643 0.0949363 0.973366
0.659723 0.156245 0.973553
0.659741 0.217732 0.974044
0.722228 0.0335838 0.973476
0.722204 0.0948582 0.97339
0.722254 0.156132 0.973546
0.722173 0.21762 0.974001
0.534671 0.280399 0.0121837
0.534883 0.343049 0.0123921
0.53493 0.406313 0.0139945
0.535035 0.469195 0.0142354
0.597176 0.28029 0.0121791
0.597205 0.34299 0.0124961
0.597501 0.405979 0.0139432
0.597684 0.469396 0.0141948
0.659723 0.280361 0.0121805
0.659957 0.343069 0.0123521
0.660024 0.406345 0.0140713
0.660081 0.469138 0.0141975
0.722183 0.280312 0.0121414
0.722333 0.342926 0.0124716
0.722523 0.406013 0.0139726
0.722692 0.469362 0.0141983
0.534558 0.280649 0.0496118
0.534521 0.343252 0.0498639
0.535053 0.405966 0.051285
0.535429 0.468991 0.0515386
0.597094 0.280638 0.049678
0.5973 0.343298 0.0497005
0.597501 0.406152 0.0513619
0.597914 0.468862 0.0514857
0.659568 0.280674 0.049577
0.659554 0.343231 0.0498445
0.660113 0.405977 0.0513246
0.660469 0.468917 0.0515583
0.722155 0.280586 0.0496394
0.722306 0.343263 0.0497246
0.722586 0.406166 0.0513941
0.722978 0.468878 0.0515026
0.534351 0.280834 0.0870502
0.534588 0.343444 0.0871669
0.534964 0.406348 0.088764
0.535514 0.468874 0.0888746
0.596798 0.281005 0.0870236
0.596784 0.343394 0.0872618
0.597487 0.406053 0.0886843
0.598024 0.468951 0.0888737
0.659346 0.280904 0.0870274
0.659592 0.343505 0.087207
0.659975 0.406256 0.0888064
0.660478 0.468815 0.0888764
0.721853 0.280992 0.0870076
0.721747 0.343444 0.0872924
0.722505 0.40614 0.0887037
0.723008 0.468986 0.0888593
0.534078 0.281015 0.12435
0.533925 0.343507 0.124676
0.534936 0.406156 0.126075
0.535519 0.468955 0.126256
0.596564 0.280982 0.124388
0.59674 0.343634 0.124469
0.597397 0.406299 0.126086
0.598039 0.468822 0.126221
0.65906 0.281126 0.1243
0.658848 0.343553 0.124637
0.659984 0.406153 0.126067
0.660504 0.46894 0.126271
0.721637 0.280987 0.124361
0.721735 0.343562 0.124497
0.722385 0.40632 0.126099
0.723026 0.468868 0.126196
0.533999 0.281064 0.161687
0.534106 0.343672 0.161804
0.534725 0.406362 0.163501
0.535418 0.468872 0.163551
0.596417 0.281211 0.161667
0.596336 0.343643 0.161951
0.597229 0.406224 0.163371
0.597816 0.468994 0.163577
0.658918 0.281075 0.161614
0.659115 0.343711 0.161811
0.65973 0.406393 0.163474
0.660361 0.468827 0.163558
0.721359 0.281174 0.161612
0.72126 0.343579 0.161915
0.722234 0.406223 0.163386
0.72286 0.469025 0.163555
0.533852 0.281275 0.198932
0.533769 0.343659 0.199228
0.534756 0.40627 0.20073
0.535341 0.469051 0.200957
0.596421 0.281139 0.198956
0.596646 0.343746 0.199093
0.597216 0.406487 0.200818
0.597826 0.468903 0.200868
0.658787 0.281215 0.19896
0.658782 0.343648 0.199184
0.659654 0.406282 0.200699
0.660275 0.469054 0.200903
0.721375 0.281172 0.198943
0.721625 0.343722 0.199076
0.722172 0.40646 0.200809
0.722789 0.468984 0.200829
0.533767 0.281189 0.23626
0.53419 0.343828 0.236369
0.534962 0.406493 0.238101
0.535336 0.469026 0.238238
0.596217 0.281321 0.236235
0.596267 0.34375 0.236551
0.59742 0.406366 0.238062
0.597802 0.469081 0.238265
0.658815 0.281254 0.236236
0.65913 0.34388 0.236354
0.659928 0.406489 0.238092
0.66034 0.468926 0.238213
0.721208 0.281356 0.236225
0.721239 0.343771 0.236514
0.722377 0.406379 0.238036
0.722769 0.468992 0.238202
0.53358 0.281294 0.27344
0.533637 0.343622 0.27382
0.53481 0.406306 0.275339
0.535186 0.469008 0.275557
0.596123 0.281174 0.273492
0.596605 0.343737 0.273615
0.597316 0.406354 0.27544
0.59769 0.468794 0.275542
0.658558 0.281311 0.273491
0.658664 0.343647 0.273842
0.65985 0.406253 0.275372
0.660223 0.468934 0.275603
0.721124 0.281188 0.273494
0.721543 0.343729 0.273687
0.722322 0.406394 0.275413
0.722712 0.468773 0.275513
0.533515 0.281111 0.310806
0.53395 0.343551 0.311006
0.534862 0.406166 0.312745
0.535039 0.468616 0.312822
0.595879 0.281225 0.31075
0.596042 0.343434 0.311137
0.597255 0.406069 0.312694
0.597583 0.468837 0.312852
0.658534 0.281107 0.310827
0.659003 0.343642 0.31103
0.659828 0.406239 0.312768
0.660029 0.468633 0.312856
0.720967 0.281229 0.310765
0.721051 0.343545 0.311167
0.722199 0.406116 0.312679
0.7226 0.468848 0.312888
0.533363 0.281262 0.348091
0.533575 0.343471 0.348516
0.534822 0.40611 0.350022
0.535112 0.468734 0.350198
0.595932 0.281176 0.348163
0.596493 0.34365 0.348351
0.597442 0.406184 0.350117
0.597597 0.468639 0.350206
0.658379 0.281304 0.348093
0.658553 0.343521 0.348495
0.659854 0.406195 0.350081
0.660109 0.468744 0.350197
0.720929 0.28123 0.348162
0.721516 0.34371 0.348346
0.722454 0.40629 0.350112
0.722647 0.468671 0.350199
0.533214 0.28123 0.385535
0.533898 0.34374 0.385714
0.534877 0.406335 0.387439
0.535091 0.468618 0.3875
0.59582 0.281362 0.385447
0.596017 0.343664 0.385833
0.597267 0.406155 0.38742
0.597557 0.468722 0.387502
0.658252 0.281284 0.385522
0.658903 0.343788 0.385719
0.659855 0.406336 0.38749
0.660117 0.468712 0.387545
0.720788 0.281415 0.385426
0.721023 0.343676 0.385828
0.722317 0.406317 0.387426
0.722532 0.468788 0.38755
0.533157 0.281531 0.422804
0.533354 0.343721 0.423193
0.534564 0.40632 0.424789
0.534995 0.468697 0.424897
0.595637 0.281495 0.422897
0.596307 0.343932 0.423119
0.597313 0.406358 0.424915
0.597492 0.468618 0.42486
0.658215 0.281551 0.422832
0.658439 0.343726 0.423194
0.659696 0.406254 0.424814
0.659994 0.468726 0.424923
0.720656 0.281492 0.42289
0.721428 0.343917 0.423129
0.722319 0.406355 0.424898
0.722444 0.468666 0.424914
0.533047 0.281714 0.460366
0.533853 0.344085 0.460521
0.534748 0.406543 0.462349
0.535002 0.468683 0.462422
0.595661 0.281831 0.46022
0.595852 0.34393 0.460632
0.597137 0.406441 0.462339
0.597477 0.468769 0.462357
0.658089 0.281665 0.460358
0.658898 0.344125 0.460553
0.659805 0.406592 0.462388
0.659915 0.468706 0.462397
0.72072 0.281823 0.460233
0.720974 0.3439 0.460658
0.722172 0.406385 0.462372
0.722486 0.468782 0.462393
0.533236 0.282389 0.497738
0.595777 0.282149 0.49785
0.658301 0.282331 0.497705
0.720738 0.282121 0.497819
0.72145 0.344624 0.498133
0.65851 0.344487 0.498179
0.597258 0.407167 0.499948
0.533436 0.344506 0.498207
0.596419 0.344552 0.498099
0.722253 0.407211 0.499985
0.660037 0.469413 0.499973
0.53456 0.407038 0.499972
0.535038 0.469416 0.499979
0.53351 0.282661 0.535391
0.533997 0.345616 0.535742
0.534449 0.408431 0.537441
0.534521 0.470619 0.537685
0.596053 0.28291 0.535292
0.596299 0.345421 0.535718
0.5967 0.408265 0.537595
0.597216 0.470713 0.537611
0.658548 0.282698 0.53534
0.659039 0.345577 0.535767
0.659437 0.40847 0.537486
0.659505 0.470705 0.537699
0.721039 0.282909 0.535297
0.721333 0.345416 0.535715
0.721692 0.40827 0.537646
0.7222 0.470712 0.537681
0.533891 0.282743 0.57307
0.533951 0.346039 0.573124
0.534532 0.409229 0.575184
0.534502 0.471448 0.57555
0.596393 0.282619 0.573141
0.596577 0.346164 0.573157
0.596945 0.409243 0.575086
0.597106 0.471555 0.575596
0.658864 0.282834 0.573065
0.658893 0.346064 0.573105
0.659455 0.409309 0.575184
0.659556 0.471562 0.575517
0.721393 0.282659 0.573146
0.721669 0.346163 0.573173
0.72201 0.409198 0.57506
0.722148 0.471663 0.575518
0.533891 0.282444 0.61134
0.53436 0.346192 0.611123
0.534454 0.409174 0.613657
0.534686 0.471415 0.614617
0.596791 0.282579 0.611294
0.596549 0.346003 0.610999
0.596815 0.409353 0.613688
0.59713 0.471513 0.614629
0.659046 0.282369 0.611301
0.659292 0.3462 0.611104
0.659317 0.409352 0.613445
0.659684 0.471549 0.614579
0.72184 0.282591 0.611292
0.721503 0.345972 0.61099
0.7219 0.409592 0.613385
0.722206 0.471515 0.614563
0.534266 0.281986 0.649858
0.534334 0.345668 0.649519
0.534428 0.408439 0.653048
0.53451 0.471059 0.654282
0.596705 0.281914 0.649917
0.597018 0.345806 0.649541
0.59747 0.408337 0.652994
0.597031 0.470879 0.654279
0.659305 0.281924 0.64986
0.65933 0.345743 0.649377
0.659796 0.408308 0.652841
0.659435 0.470814 0.654432
0.721658 0.281863 0.649797
0.721909 0.345992 0.649476
0.722065 0.408289 0.652956
0.721989 0.470742 0.654412
0.534175 0.281974 0.690217
0.534407 0.344459 0.689257
0.534587 0.40814 0.693894
0.534482 0.470315 0.694975
0.596784 0.282015 0.690231
0.59689 0.344301 0.68926
0.597136 0.407988 0.693907
0.596962 0.470233 0.694975
0.659318 0.281979 0.690261
0.66009 0.344354 0.689438
0.660026 0.407434 0.694218
0.65947 0.470067 0.694981
0.72183 0.282095 0.690114
0.721974 0.344812 0.68909
0.722061 0.406944 0.693785
0.721997 0.469982 0.694997
0.534225 0.282492 0.731192
0.534302 0.345073 0.731411
0.534543 0.407547 0.736178
0.534556 0.469874 0.736057
0.596832 0.282401 0.731279
0.596718 0.345062 0.731622
0.596538 0.407355 0.736342
0.596866 0.469739 0.736083
0.659139 0.282192 0.731253
0.658994 0.344916 0.731349
0.658437 0.407023 0.735587
0.659269 0.469674 0.735877
0.721708 0.282036 0.731213
0.721166 0.344034 0.731193
0.721486 0.407608 0.735806
0.721799 0.470107 0.735957
0.722471 0.469463 0.50004
0.597476 0.469378 0.500006
0.659573 0.407085 0.500002
0.534401 0.282315 0.772473
0.533733 0.345225 0.77286
0.533636 0.406765 0.776998
0.534511 0.469733 0.777321
0.597016 0.282113 0.772531
0.596756 0.344646 0.77303
0.596778 0.407861 0.777328
0.596974 0.469999 0.777376
0.65953 0.282118 0.772484
0.659293 0.344535 0.772674
0.658981 0.407958 0.777386
0.659495 0.470009 0.77743
0.722097 0.282082 0.772432
0.722046 0.344665 0.772477
0.722323 0.407879 0.777029
0.722095 0.469993 0.777303
0.534902 0.28229 0.813779
0.535541 0.34475 0.813875
0.535507 0.407062 0.818364
0.534621 0.469562 0.818427
0.597478 0.282383 0.813823
0.596719 0.345326 0.814077
0.596669 0.406482 0.818529
0.596969 0.469468 0.818548
0.659853 0.282168 0.813751
0.659743 0.344787 0.814191
0.659526 0.407291 0.818941
0.65945 0.469516 0.818631
0.72223 0.28218 0.813864
0.722084 0.34481 0.81458
0.722052 0.407277 0.81915
0.72199 0.469548 0.818734
0.534776 0.281926 0.854829
0.534595 0.344417 0.855808
0.534454 0.407379 0.860868
0.534625 0.469663 0.859748
0.597359 0.281907 0.854939
0.59774 0.344246 0.855806
0.597852 0.407424 0.860661
0.597161 0.469758 0.859747
0.659845 0.281903 0.855043
0.659899 0.344536 0.856132
0.660026 0.407006 0.860852
0.659678 0.469583 0.859823
0.722303 0.281959 0.85506
0.722309 0.344564 0.85629
0.722269 0.406945 0.860936
0.722166 0.469526 0.859946
0.534938 0.281059 0.895614
0.534988 0.343452 0.897088
0.534833 0.405735 0.900634
0.534845 0.469956 0.900212
0.597356 0.281006 0.895679
0.59746 0.343439 0.897186
0.59739 0.405841 0.900822
0.597159 0.469926 0.900278
0.659855 0.281051 0.895725
0.659958 0.343377 0.897279
0.659637 0.405659 0.900706
0.659756 0.469891 0.900251
0.72241 0.2809 0.89578
0.722456 0.343227 0.897152
0.722444 0.405693 0.900622
0.722059 0.469763 0.900278
0.534696 0.280044 0.935576
0.534949 0.342057 0.93685
0.535009 0.405759 0.938978
0.534848 0.469497 0.938599
0.597234 0.279935 0.935567
0.597287 0.342025 0.936855
0.597386 0.405492 0.938917
0.597507 0.469563 0.938499
0.659709 0.279933 0.935603
0.659996 0.341911 0.936806
0.660043 0.405645 0.938986
0.659833 0.469365 0.938611
0.722336 0.279889 0.935597
0.722342 0.341929 0.93698
0.722409 0.405504 0.939001
0.722501 0.469412 0.93854
0.53462 0.279547 0.974574
0.53469 0.342444 0.975012
0.535044 0.40574 0.976661
0.535172 0.469558 0.976675
0.597357 0.279604 0.974543
0.597253 0.342305 0.974983
0.597548 0.405867 0.976761
0.597559 0.469461 0.976686
0.659646 0.279508 0.974596
0.659745 0.342295 0.975067
0.660015 0.405704 0.976678
0.660047 0.469486 0.976726
0.72241 0.279561 0.974653
0.722262 0.342299 0.974943
0.722528 0.405849 0.976762
0.722609 0.469446 0.976717
0.535338 0.532443 0.0142215
0.535203 0.595072 0.0142396
0.535708 0.657837 0.0141817
0.535496 0.72011 0.0141063
0.597673 0.532192 0.0141716
0.597984 0.595272 0.014207
0.597793 0.657617 0.0141976
0.598355 0.720401 0.0140902
0.660344 0.532415 0.0142078
0.660177 0.595014 0.014188
0.660689 0.657854 0.014188
0.660595 0.720126 0.0141023
0.722686 0.53216 0.0142011
0.722905 0.595249 0.0141877
0.722825 0.657564 0.0141862
0.723361 0.720329 0.0140799
0.535476 0.531696 0.051587
0.535617 0.594686 0.051593
0.535612 0.657193 0.0516467
0.536078 0.719884 0.0515996
0.597996 0.531928 0.0515769
0.597994 0.594509 0.051594
0.598329 0.65729 0.0516147
0.598406 0.719783 0.0515885
0.660364 0.53174 0.051546
0.660621 0.594662 0.0516034
0.660569 0.657197 0.0516606
0.661037 0.7199 0.0515968
0.722915 0.531877 0.0515282
0.722991 0.594506 0.051572
0.723298 0.657272 0.0516215
0.723383 0.719715 0.0515763
0.535593 0.531673 0.0888895
0.535543 0.594226 0.0889452
0.535859 0.656907 0.0890423
0.536058 0.719337 0.0890255
0.598035 0.531569 0.0888988
0.598101 0.59432 0.0889415
0.5982 0.656775 0.0889612
0.598658 0.71943 0.0890572
0.660529 0.531711 0.0888911
0.660572 0.594187 0.088937
0.66084 0.656917 0.0890045
0.661078 0.719329 0.0889789
0.723111 0.531613 0.0889042
0.723156 0.594285 0.0889257
0.723228 0.656755 0.0889739
0.723637 0.719482 0.0890261
0.53561 0.531537 0.126261
0.535748 0.5942 0.126282
0.535877 0.656677 0.126321
0.536229 0.719261 0.126402
0.598177 0.531593 0.126261
0.598173 0.594154 0.126239
0.598364 0.656731 0.126332
0.598692 0.719178 0.126365
0.660677 0.531475 0.126255
0.66071 0.594166 0.126273
0.66088 0.656596 0.126286
0.661188 0.719252 0.126379
0.723157 0.531594 0.126251
0.72322 0.59403 0.126238
0.723421 0.656655 0.126298
0.723671 0.719148 0.126328
0.535607 0.531568 0.163599
0.535714 0.594003 0.163604
0.535845 0.656566 0.163678
0.536029 0.718947 0.163717
0.598033 0.531459 0.163554
0.598202 0.59414 0.163657
0.59828 0.656482 0.163613
0.598579 0.719052 0.163726
0.660533 0.531577 0.163599
0.660677 0.593963 0.163557
0.660859 0.656544 0.163633
0.661023 0.71889 0.163659
0.722999 0.53146 0.163548
0.723148 0.59406 0.163599
0.723261 0.656482 0.163548
0.723552 0.71903 0.16371
0.535463 0.531505 0.200935
0.535547 0.594128 0.200982
0.535661 0.656404 0.200929
0.535859 0.719006 0.201096
0.597977 0.531593 0.200942
0.598059 0.59397 0.200913
0.598191 0.65646 0.20098
0.598338 0.718863 0.201101
0.660433 0.531505 0.200917
0.660544 0.594078 0.200988
0.660625 0.656368 0.200936
0.660842 0.718956 0.201048
0.722893 0.531581 0.200943
0.722995 0.593989 0.200922
0.72319 0.656529 0.200959
0.723326 0.718834 0.201026
0.535458 0.531578 0.238324
0.535536 0.593925 0.238283
0.535648 0.656436 0.238324
0.535735 0.718731 0.238423
0.597999 0.531477 0.238282
0.598032 0.593997 0.238265
0.598134 0.656348 0.23826
0.59828 0.71887 0.238427
0.660453 0.531521 0.238285
0.660514 0.594005 0.238274
0.660603 0.656415 0.238349
0.66071 0.718722 0.238436
0.722916 0.531484 0.238233
0.722992 0.594056 0.238302
0.723029 0.656361 0.238288
0.723253 0.718863 0.238406
0.535336 0.531366 0.275585
0.535506 0.593929 0.275597
0.535486 0.656201 0.275605
0.535682 0.718802 0.27573
0.59783 0.53146 0.275595
0.597905 0.593828 0.275612
0.598076 0.656325 0.275708
0.598104 0.71874 0.275728
0.660358 0.531375 0.275567
0.660507 0.593898 0.275632
0.660507 0.656199 0.275629
0.660655 0.718854 0.2757
0.72282 0.531462 0.275634
0.722975 0.593814 0.275605
0.723062 0.656363 0.275694
0.723045 0.718761 0.275702
0.535167 0.531289 0.312895
0.535348 0.59364 0.312922
0.535546 0.656248 0.312987
0.535563 0.718665 0.31301
0.597683 0.531229 0.31286
0.59794 0.593821 0.312933
0.597966 0.656141 0.312927
0.598125 0.718732 0.312995
0.660158 0.531255 0.312923
0.660297 0.593667 0.312931
0.660544 0.656247 0.312962
0.660547 0.7187 0.313021
0.7226 0.53121 0.312861
0.722904 0.5938 0.312947
0.722938 0.656115 0.312935
0.723092 0.718805 0.31304
0.535127 0.531106 0.350197
0.535398 0.593694 0.350178
0.535488 0.656039 0.35019
0.535559 0.718731 0.350297
0.597653 0.531281 0.350224
0.597761 0.593665 0.350213
0.597966 0.656216 0.350271
0.598014 0.718626 0.350326
0.660134 0.531103 0.350161
0.660403 0.593762 0.350211
0.660443 0.656123 0.350237
0.660593 0.718748 0.3503
0.72269 0.5312 0.350186
0.722772 0.593602 0.350191
0.722953 0.656245 0.350295
0.723022 0.718687 0.350367
0.535127 0.531164 0.387503
0.535193 0.593512 0.387485
0.535474 0.656177 0.387539
0.535467 0.718535 0.387577
0.597637 0.531115 0.387484
0.597778 0.593672 0.387493
0.597934 0.656076 0.387499
0.598031 0.718672 0.387588
0.660116 0.531233 0.387529
0.660239 0.59364 0.387482
0.660431 0.656161 0.38757
0.660478 0.718608 0.387584
0.722611 0.53114 0.387513
0.722796 0.593681 0.387498
0.722942 0.656086 0.387491
0.723005 0.718654 0.387642
0.534987 0.531072 0.424846
0.535306 0.593603 0.424794
0.53532 0.6559 0.424783
0.535437 0.718557 0.424906
0.59758 0.531165 0.424837
0.59768 0.593466 0.424816
0.597922 0.656046 0.424767
0.597888 0.718507 0.424878
0.660031 0.531025 0.424834
0.660227 0.593639 0.424796
0.66041 0.65598 0.424834
0.660548 0.718581 0.424905
0.722538 0.531111 0.424873
0.722609 0.593495 0.424812
0.72301 0.656057 0.424871
0.722917 0.718505 0.424892
0.535128 0.531119 0.462274
0.535233 0.593386 0.462158
0.535331 0.655886 0.462094
0.535253 0.718279 0.462244
0.597541 0.53098 0.462232
0.597769 0.593354 0.462136
0.597823 0.655811 0.462108
0.597777 0.718433 0.462228
0.660095 0.531124 0.462264
0.660179 0.593458 0.462109
0.660354 0.655925 0.462168
0.660226 0.718332 0.462247
0.722522 0.531009 0.462265
0.722731 0.593402 0.462142
0.722855 0.655809 0.46211
0.722781 0.718469 0.462253
0.534969 0.531425 0.4998
0.722439 0.531675 0.499745
0.722594 0.718184 0.499697
0.535156 0.593706 0.499647
0.659958 0.531493 0.499779
0.535207 0.655806 0.499553
0.597594 0.593714 0.499621
0.660193 0.593746 0.499608
0.660194 0.655838 0.4996
0.722575 0.593705 0.499625
0.660125 0.718187 0.499659
0.597701 0.655872 0.499625
0.72269 0.655919 0.499611
0.597482 0.531644 0.499759
0.597579 0.718119 0.499723
0.535123 0.718124 0.499675
0.534938 0.532509 0.537567
0.534955 0.594153 0.537484
0.534982 0.65591 0.537402
0.534917 0.717978 0.537259
0.597266 0.532585 0.537697
0.59756 0.594288 0.537489
0.597501 0.655992 0.537376
0.597452 0.718023 0.537332
0.659896 0.532633 0.537635
0.659913 0.594256 0.537529
0.659937 0.655946 0.537454
0.65989 0.717993 0.537299
0.72226 0.532682 0.537656
0.722588 0.594349 0.537513
0.722437 0.655994 0.537424
0.722449 0.717937 0.537345
0.534817 0.533084 0.575918
0.53499 0.594516 0.575907
0.53497 0.655778 0.575683
0.534958 0.717395 0.575234
0.597254 0.533144 0.575925
0.59739 0.594581 0.575911
0.59745 0.655892 0.575669
0.597267 0.717529 0.575277
0.659769 0.533165 0.575911
0.659976 0.594559 0.575912
0.659891 0.655831 0.575696
0.660049 0.717426 0.575268
0.722233 0.533203 0.575928
0.722431 0.594609 0.575999
0.722479 0.655881 0.575737
0.722357 0.71754 0.575295
0.534818 0.533172 0.615032
0.534771 0.594756 0.615118
0.53474 0.656336 0.614832
0.534689 0.717863 0.614274
0.597265 0.533294 0.615114
0.597374 0.594849 0.615136
0.597181 0.656366 0.614877
0.597262 0.7179 0.614298
0.659782 0.533231 0.615056
0.659755 0.594708 0.615162
0.659748 0.656321 0.614918
0.659732 0.71792 0.614327
0.722231 0.533237 0.615143
0.722318 0.594798 0.615112
0.722223 0.65634 0.614925
0.722256 0.717856 0.614308
0.534481 0.533041 0.655012
0.534515 0.595054 0.655227
0.534426 0.656908 0.655006
0.534432 0.718749 0.654268
0.596994 0.533046 0.654969
0.597001 0.594969 0.655229
0.596942 0.656914 0.655025
0.596925 0.718745 0.65432
0.659496 0.532844 0.655032
0.659557 0.594897 0.655232
0.659479 0.656806 0.654994
0.659428 0.718688 0.654321
0.72201 0.532935 0.655024
0.721998 0.594934 0.655269
0.721916 0.656872 0.655051
0.721897 0.71872 0.65436
0.534469 0.532622 0.695547
0.534461 0.59501 0.695636
0.534413 0.6574 0.695533
0.534399 0.719649 0.695023
0.597048 0.532547 0.695471
0.596986 0.59496 0.695657
0.596893 0.657389 0.695589
0.596863 0.719676 0.695045
0.659458 0.532499 0.695535
0.659527 0.594895 0.695677
0.659403 0.657244 0.695514
0.659325 0.719693 0.695066
0.721981 0.532556 0.695491
0.721994 0.594917 0.695668
0.721825 0.65729 0.695531
0.72166 0.719667 0.695065
0.534502 0.532574 0.736179
0.53438 0.59503 0.736276
0.534304 0.65751 0.73619
0.534247 0.719938 0.736044
0.596922 0.532347 0.736252
0.596871 0.594958 0.736294
0.596843 0.657521 0.736246
0.596821 0.720053 0.736052
0.659394 0.532378 0.736257
0.659365 0.594914 0.736354
0.659347 0.657501 0.736186
0.659296 0.71998 0.735979
0.721895 0.53249 0.736273
0.721845 0.59487 0.736282
0.721866 0.657402 0.736238
0.721781 0.719969 0.735974
0.534601 0.532236 0.777243
0.53462 0.59474 0.777261
0.534588 0.657287 0.777268
0.534589 0.719734 0.77741
0.59711 0.53241 0.777228
0.597033 0.594795 0.777223
0.59702 0.657358 0.777252
0.597021 0.71968 0.777379
0.659453 0.532187 0.777336
0.659537 0.594784 0.777274
0.659573 0.65739 0.777221
0.65958 0.719764 0.77726
0.722065 0.532289 0.777338
0.722038 0.594753 0.777345
0.722129 0.657313 0.777194
0.722025 0.719788 0.777177
0.534546 0.532097 0.818308
0.534445 0.594529 0.818123
0.53444 0.657176 0.818273
0.534484 0.719789 0.818398
0.59697 0.532045 0.818365
0.597004 0.59457 0.818164
0.596923 0.657257 0.818283
0.596998 0.719844 0.818387
0.659398 0.531938 0.818443
0.659438 0.594513 0.818198
0.659445 0.657283 0.818244
0.659463 0.719711 0.818431
0.722007 0.532002 0.818435
0.721862 0.594536 0.818195
0.721918 0.657238 0.818224
0.722042 0.71976 0.818358
0.534468 0.532064 0.859053
0.534501 0.594499 0.858801
0.534459 0.657104 0.858744
0.53451 0.719613 0.858996
0.597022 0.532011 0.859055
0.596963 0.594555 0.85877
0.596964 0.657128 0.85874
0.596931 0.71977 0.859045
0.659567 0.532079 0.859059
0.659412 0.594455 0.858726
0.659444 0.657111 0.858701
0.659472 0.719722 0.85896
0.722064 0.531928 0.859058
0.721941 0.594408 0.858752
0.721931 0.657026 0.858673
0.722015 0.719669 0.858973
0.534458 0.532396 0.899384
0.534511 0.594698 0.898811
0.534417 0.656988 0.898648
0.534562 0.719434 0.899051
0.59705 0.532474 0.899448
0.59691 0.594702 0.898877
0.596913 0.657022 0.898702
0.5971 0.719381 0.899114
0.659432 0.532442 0.899372
0.659416 0.594718 0.898787
0.659407 0.657005 0.8987
0.659525 0.719483 0.899018
0.721974 0.5325 0.899397
0.72183 0.594672 0.898754
0.721869 0.656914 0.898703
0.722056 0.719396 0.899084
0.53494 0.532818 0.938361
0.534688 0.594913 0.938141
0.534818 0.657341 0.938057
0.534948 0.719512 0.937901
0.597178 0.532552 0.938281
0.597362 0.595339 0.938128
0.597183 0.657167 0.937981
0.597289 0.719819 0.937922
0.659949 0.532724 0.938384
0.659659 0.594975 0.938182
0.659737 0.657352 0.938009
0.659989 0.719475 0.937907
0.72209 0.532583 0.938363
0.72239 0.595183 0.93813
0.72217 0.657036 0.938018
0.722232 0.719779 0.937945
0.535324 0.532454 0.976532
0.535342 0.595083 0.97642
0.53522 0.657654 0.976299
0.535543 0.720162 0.976105
0.597706 0.532493 0.976512
0.597796 0.595168 0.976393
0.597969 0.657642 0.976289
0.597769 0.720165 0.976172
0.660236 0.532381 0.976503
0.660271 0.595087 0.976407
0.660195 0.657631 0.976275
0.660525 0.720217 0.976112
0.722706 0.53237 0.976501
0.722735 0.595093 0.976434
0.722893 0.657639 0.976315
0.722751 0.720203 0.976143
0.535773 0.782903 0.0139073
0.53573 0.845483 0.0135077
0.535477 0.908398 0.0116844
0.534837 0.970931 0.011721
0.598265 0.782662 0.0138322
0.597998 0.845603 0.0134719
0.597708 0.908625 0.0118365
0.597547 0.970931 0.0116476
0.660749 0.782939 0.0138853
0.660765 0.845537 0.0134877
0.660437 0.908416 0.0116761
0.659839 0.970978 0.0117433
0.7233 0.782659 0.0138568
0.723079 0.845614 0.0134512
0.722717 0.908648 0.0118055
0.7226 0.970881 0.0115958
0.536078 0.78217 0.0513641
0.535568 0.844651 0.0511169
0.534695 0.907209 0.0492665
0.534768 0.969473 0.0492121
0.598509 0.782312 0.0514812
0.598513 0.844504 0.0510213
0.597479 0.907122 0.0492409
0.597169 0.969556 0.0492638
0.661084 0.782183 0.0513508
0.66058 0.844678 0.0510815
0.659773 0.907221 0.0492691
0.659697 0.969513 0.0492234
0.723487 0.782272 0.0514706
0.723419 0.844488 0.0509631
0.722492 0.907137 0.0492181
0.72213 0.969614 0.0492918
0.536234 0.781837 0.0889761
0.536148 0.844039 0.0885461
0.534924 0.906468 0.0868779
0.534717 0.968803 0.0868597
0.598746 0.781766 0.0888054
0.598163 0.844236 0.088652
0.597315 0.906629 0.086862
0.597135 0.968747 0.0868133
0.661214 0.781861 0.0889469
0.661112 0.844058 0.0885753
0.659942 0.906475 0.0869113
0.659642 0.968804 0.0868688
0.723767 0.781723 0.088817
0.723122 0.844154 0.0886408
0.722332 0.906636 0.0868586
0.722156 0.968745 0.0868417
0.53633 0.781565 0.12631
0.535694 0.84392 0.12612
0.534738 0.906372 0.124368
0.534629 0.968687 0.124365
0.598775 0.781621 0.126387
0.598613 0.84377 0.126036
0.597352 0.906236 0.12439
0.59711 0.968771 0.124376
0.661334 0.781448 0.126277
0.660718 0.843889 0.126087
0.659779 0.906473 0.124382
0.659636 0.968731 0.124371
0.723766 0.781628 0.126394
0.723662 0.843829 0.125996
0.72242 0.906332 0.1244
0.722178 0.96878 0.124333
0.536169 0.781431 0.163787
0.536105 0.843617 0.163402
0.534902 0.906195 0.161863
0.534506 0.968745 0.161784
0.598729 0.781306 0.163692
0.598189 0.843731 0.163544
0.597334 0.906405 0.161765
0.596996 0.968678 0.161791
0.661174 0.781446 0.163758
0.661086 0.843594 0.163359
0.659893 0.906079 0.161874
0.659551 0.96875 0.161742
0.723654 0.781274 0.16372
0.723243 0.843734 0.163524
0.722293 0.90642 0.161757
0.722075 0.968636 0.161771
0.536065 0.781258 0.201095
0.535657 0.843635 0.200872
0.534807 0.906186 0.199166
0.534501 0.968601 0.199198
0.598582 0.78133 0.201164
0.598575 0.843473 0.200764
0.597368 0.906061 0.199222
0.596961 0.96867 0.199125
0.661033 0.781192 0.201072
0.660594 0.843641 0.200915
0.659815 0.906191 0.199174
0.659487 0.968604 0.199122
0.723566 0.78131 0.20116
0.723585 0.843459 0.20076
0.722378 0.905986 0.199238
0.722022 0.968642 0.199118
0.536082 0.781283 0.238534
0.5361 0.843512 0.238124
0.535048 0.905993 0.236601
0.53451 0.96867 0.236436
0.598491 0.781125 0.238478
0.598179 0.843514 0.238295
0.597494 0.906157 0.236541
0.597058 0.968623 0.2365
0.661005 0.781197 0.238539
0.661089 0.843469 0.238157
0.660078 0.906004 0.236622
0.659563 0.968753 0.23642
0.723404 0.781126 0.238477
0.723184 0.843572 0.238294
0.72251 0.906128 0.236505
0.721947 0.968508 0.236407
0.535128 0.780642 0.49978
0.535956 0.781165 0.275809
0.535539 0.843701 0.275666
0.534885 0.906272 0.273868
0.534271 0.968704 0.273753
0.598448 0.781312 0.275867
0.598494 0.843673 0.275493
0.597412 0.906184 0.273914
0.596767 0.96888 0.273759
0.660879 0.781219 0.275836
0.660574 0.843677 0.275657
0.659858 0.906256 0.273859
0.659247 0.968749 0.273786
0.723361 0.781232 0.275828
0.723547 0.843588 0.275483
0.722382 0.906169 0.27397
0.721803 0.968912 0.273733
0.535876 0.781372 0.313113
0.535919 0.843718 0.31278
0.534923 0.906301 0.311252
0.534059 0.968968 0.311041
0.598281 0.781204 0.313075
0.598084 0.843692 0.312995
0.597353 0.906432 0.311157
0.596629 0.968858 0.311105
0.660823 0.781267 0.313094
0.661024 0.843715 0.312796
0.659891 0.906281 0.311223
0.65911 0.969007 0.311043
0.723268 0.781203 0.313132
0.723063 0.843704 0.312951
0.722423 0.906367 0.311205
0.721617 0.968883 0.311082
0.535727 0.781092 0.350343
0.535422 0.843658 0.350251
0.534857 0.9063 0.348494
0.534106 0.968857 0.348448
0.59822 0.781222 0.350362
0.598353 0.843573 0.350091
0.597426 0.906139 0.348551
0.596659 0.968921 0.348364
0.660653 0.781133 0.350402
0.660507 0.843675 0.350248
0.659855 0.906321 0.34849
0.659147 0.968783 0.348426
0.723288 0.781254 0.35044
0.723393 0.843555 0.350084
0.722433 0.906188 0.348574
0.721651 0.968972 0.34841
0.535605 0.781147 0.387706
0.53572 0.843536 0.387341
0.534837 0.906103 0.38588
0.534069 0.968812 0.385715
0.598057 0.781088 0.387714
0.5979 0.843626 0.387527
0.597267 0.906285 0.385777
0.596566 0.96882 0.385722
0.660665 0.781164 0.387719
0.660796 0.843503 0.387391
0.659785 0.906128 0.385916
0.659063 0.968871 0.385697
0.723155 0.781093 0.38773
0.722925 0.84358 0.387573
0.722301 0.906296 0.385796
0.721598 0.968824 0.385729
0.535473 0.78098 0.424998
0.535252 0.843528 0.424848
0.534547 0.906249 0.423188
0.533877 0.968778 0.423023
0.598048 0.781055 0.425062
0.598066 0.843484 0.424708
0.597027 0.906073 0.423223
0.596347 0.968923 0.423025
0.660462 0.780891 0.425042
0.660203 0.843475 0.424843
0.659517 0.906262 0.423162
0.65886 0.968743 0.423051
0.723042 0.781105 0.425052
0.723066 0.843508 0.424713
0.72203 0.906128 0.423231
0.721417 0.968894 0.422981
0.535362 0.780964 0.462419
0.535236 0.843327 0.462122
0.53434 0.906072 0.460632
0.533805 0.968976 0.460389
0.597811 0.780857 0.462402
0.597393 0.843503 0.462251
0.596828 0.906319 0.46049
0.59636 0.968843 0.460391
0.660342 0.781005 0.462468
0.660269 0.843392 0.462135
0.659384 0.906093 0.460624
0.658851 0.968925 0.460378
0.722804 0.780861 0.46242
0.722383 0.843461 0.462265
0.721887 0.90625 0.460513
0.721265 0.968847 0.460385
0.534436 0.906217 0.497918
0.533911 0.968843 0.49777
0.596392 0.968985 0.497721
0.659415 0.90618 0.497949
0.65893 0.968794 0.497752
0.721383 0.969004 0.497742
0.597616 0.780648 0.499859
0.596919 0.905978 0.498021
0.721867 0.905951 0.497998
0.534716 0.843326 0.499706
0.722494 0.843246 0.499554
0.660131 0.780634 0.499794
0.597494 0.843223 0.499593
0.722654 0.780703 0.499862
0.659761 0.843385 0.499701
0.534866 0.780466 0.537317
0.534788 0.843111 0.536984
0.53438 0.906102 0.535412
0.533978 0.969459 0.535097
0.597398 0.780425 0.537225
0.597115 0.843147 0.537109
0.596862 0.906386 0.535308
0.596602 0.969204 0.535131
0.659906 0.780388 0.537321
0.65981 0.843099 0.537006
0.659369 0.906079 0.535417
0.659001 0.969408 0.535062
0.722479 0.780423 0.537272
0.722164 0.843104 0.537108
0.721891 0.906365 0.535316
0.721629 0.969166 0.535094
0.534629 0.779702 0.57482
0.534703 0.842518 0.574497
0.534261 0.906041 0.572579
0.533955 0.969732 0.572606
0.597381 0.779609 0.574889
0.597256 0.842522 0.574429
0.596763 0.905983 0.572679
0.596517 0.969674 0.57267
0.659738 0.779709 0.574925
0.65972 0.842469 0.574472
0.659334 0.906073 0.572588
0.658977 0.969586 0.572607
0.722393 0.779514 0.574869
0.72224 0.842514 0.574455
0.721836 0.905802 0.572722
0.721591 0.969588 0.572637
0.534616 0.779639 0.613447
0.534484 0.842377 0.612632
0.534235 0.905975 0.610441
0.533873 0.969909 0.610656
0.597182 0.779728 0.613356
0.596924 0.842293 0.612715
0.596712 0.906117 0.610419
0.596627 0.969821 0.61073
0.659654 0.779633 0.613442
0.659602 0.842394 0.612635
0.659347 0.905964 0.610393
0.658979 0.969862 0.610742
0.722308 0.779611 0.613466
0.721919 0.842155 0.612651
0.721585 0.905991 0.610446
0.721702 0.969614 0.610747
0.53444 0.780604 0.653114
0.534333 0.842886 0.651272
0.534106 0.906413 0.648531
0.534189 0.970445 0.648934
0.596941 0.780602 0.653118
0.5968 0.842908 0.651535
0.596791 0.906282 0.648623
0.596537 0.970479 0.649032
0.659438 0.780603 0.65311
0.659827 0.842828 0.651494
0.659209 0.906459 0.648561
0.6593 0.970386 0.649067
0.721966 0.780705 0.65328
0.722397 0.842939 0.651563
0.721853 0.906091 0.648655
0.721728 0.970334 0.649024
0.534379 0.781957 0.694098
0.533857 0.844417 0.692151
0.53377 0.906996 0.687933
0.53412 0.969678 0.68953
0.596838 0.781924 0.69419
0.596971 0.84377 0.692461
0.596689 0.90758 0.688127
0.596647 0.969939 0.689562
0.659214 0.781976 0.694216
0.659312 0.843831 0.692662
0.659347 0.907467 0.688258
0.659304 0.969891 0.689607
0.721723 0.782068 0.69419
0.722284 0.844404 0.692537
0.722489 0.907194 0.687921
0.721899 0.969663 0.689532
0.53433 0.78228 0.735788
0.534811 0.844224 0.735922
0.534537 0.906933 0.730906
0.534393 0.969229 0.731103
0.596798 0.782494 0.7358
0.596758 0.844417 0.736265
0.596907 0.906521 0.731117
0.596873 0.969259 0.731094
0.659193 0.782528 0.7358
0.658949 0.844406 0.736201
0.659317 0.90653 0.730934
0.65926 0.969232 0.730941
0.721627 0.782433 0.735659
0.721117 0.844952 0.735498
0.721837 0.906529 0.730674
0.721926 0.969144 0.730796
0.534392 0.781949 0.777597
0.534506 0.844093 0.777974
0.534497 0.906776 0.77325
0.534431 0.969525 0.772479
0.59695 0.781914 0.777598
0.596668 0.844015 0.777733
0.596738 0.906716 0.773304
0.597008 0.969406 0.772613
0.659447 0.781882 0.777446
0.659239 0.844045 0.777657
0.659386 0.906813 0.773302
0.659564 0.969503 0.772565
0.721999 0.781932 0.777312
0.721517 0.843965 0.777298
0.721857 0.907241 0.772688
0.722068 0.969536 0.772359
0.534645 0.782138 0.81862
0.534436 0.844087 0.81863
0.534619 0.907075 0.814205
0.534539 0.969788 0.813763
0.597044 0.782197 0.818625
0.597138 0.844197 0.818719
0.597179 0.906919 0.814142
0.597149 0.969708 0.813685
0.659524 0.782067 0.81872
0.659577 0.844326 0.818596
0.659798 0.906922 0.814101
0.659714 0.96969 0.813708
0.722147 0.782105 0.818659
0.721938 0.844381 0.818716
0.722269 0.906966 0.814274
0.722272 0.96964 0.813771
0.534607 0.782157 0.859663
0.534709 0.844909 0.860309
0.534639 0.907157 0.855478
0.534531 0.969978 0.854443
0.597081 0.782142 0.85954
0.597089 0.844797 0.860213
0.597073 0.907158 0.855465
0.597006 0.96984 0.854549
0.659512 0.782154 0.859573
0.659493 0.844803 0.860368
0.659491 0.907162 0.855538
0.659459 0.969896 0.854489
0.722018 0.782129 0.859607
0.721911 0.844672 0.860287
0.722015 0.907186 0.855535
0.722068 0.970015 0.854573
0.534818 0.782099 0.899513
0.534756 0.846453 0.899827
0.534707 0.90853 0.896312
0.534692 0.970902 0.894986
0.597199 0.782234 0.899623
0.597291 0.846227 0.899973
0.597187 0.90854 0.896354
0.597185 0.970996 0.894948
0.6598 0.782184 0.899518
0.659686 0.846374 0.899815
0.65969 0.908522 0.896277
0.659691 0.970902 0.894983
0.722094 0.782256 0.899578
0.722267 0.846245 0.899904
0.722101 0.908421 0.89632
0.72211 0.970832 0.894921
0.534878 0.782823 0.937898
0.535164 0.846293 0.93834
0.534783 0.909857 0.936039
0.534623 0.971779 0.934777
0.597665 0.78273 0.937928
0.597365 0.84656 0.938291
0.597359 0.909758 0.936104
0.597147 0.971773 0.934831
0.659886 0.782889 0.937954
0.660209 0.846269 0.93843
0.659808 0.909909 0.93604
0.659614 0.971746 0.934846
0.722687 0.782788 0.937952
0.722322 0.846493 0.938334
0.722306 0.909672 0.936106
0.722153 0.971648 0.934807
0.535387 0.782769 0.976117
0.535151 0.84631 0.976093
0.534875 0.909481 0.974331
0.53471 0.971992 0.973853
0.597899 0.782824 0.97619
0.59785 0.846165 0.976157
0.597329 0.909485 0.974277
0.597204 0.971865 0.973915
0.660382 0.782788 0.976141
0.660196 0.846287 0.976101
0.659852 0.909461 0.974384
0.659717 0.971936 0.973858
0.722908 0.78285 0.976219
0.722917 0.846139 0.976198
0.722447 0.909448 0.97424
0.722258 0.971892 0.973953
0.784829 0.032882 0.0116704
0.784525 0.0944974 0.011819
0.784695 0.156246 0.0119366
0.784646 0.217975 0.0120446
0.847271 0.0329271 0.0117304
0.847278 0.0944898 0.0117652
0.847156 0.156164 0.0118868
0.847324 0.218068 0.0120836
0.909937 0.0328243 0.0116462
0.909638 0.0944929 0.011801
0.909751 0.156083 0.0119113
0.909824 0.217939 0.0120392
0.972285 0.0328269 0.0117154
0.972317 0.094402 0.0117459
0.972244 0.156101 0.0118791
0.972349 0.217945 0.0120681
0.784818 0.0317759 0.0495153
0.784679 0.0937881 0.0497093
0.784613 0.155978 0.0497544
0.78476 0.218178 0.0497198
0.847309 0.0315418 0.0494883
0.847151 0.0938202 0.0496447
0.847243 0.155855 0.0497447
0.84725 0.218158 0.0497019
0.909843 0.0317659 0.0494874
0.90977 0.0938267 0.0497063
0.909716 0.155946 0.0497367
0.909789 0.218202 0.0496999
0.972368 0.0315522 0.0494968
0.972238 0.093782 0.0497066
0.972219 0.155828 0.0498096
0.97231 0.218155 0.0496972
0.784744 0.0310099 0.0870318
0.784455 0.0934257 0.0871472
0.784442 0.15583 0.087241
0.784468 0.218449 0.0871413
0.847228 0.0311508 0.0870505
0.847051 0.0934541 0.0871675
0.846913 0.155888 0.0871835
0.847042 0.218324 0.0871277
0.90971 0.0310087 0.0870521
0.909526 0.0933897 0.0871749
0.909485 0.155837 0.0872234
0.909476 0.218522 0.0871178
0.972201 0.0311318 0.0870273
0.972107 0.0934232 0.0871435
0.971941 0.155943 0.0871449
0.972057 0.21836 0.0871062
0.784591 0.0312041 0.124418
0.784395 0.0934727 0.12448
0.784139 0.15608 0.12449
0.784244 0.218469 0.124484
0.847143 0.0310786 0.124465
0.846877 0.0936318 0.124494
0.846734 0.155926 0.124517
0.846663 0.218548 0.12444
0.909642 0.0311113 0.12437
0.909434 0.0934581 0.124503
0.909129 0.155974 0.124503
0.909286 0.218479 0.124459
0.972092 0.0309896 0.12446
0.971888 0.0935492 0.124507
0.971711 0.15585 0.124515
0.971624 0.218578 0.124475
0.78442 0.0311115 0.161805
0.784236 0.0936848 0.161821
0.784145 0.156065 0.161838
0.783987 0.218634 0.161784
0.846902 0.0312351 0.161778
0.846797 0.09353 0.161816
0.84658 0.156136 0.161802
0.846578 0.218533 0.161738
0.909407 0.0310846 0.161805
0.909294 0.0936315 0.161838
0.909073 0.155996 0.161819
0.90904 0.218641 0.161729
0.971943 0.0311839 0.161783
0.971762 0.0935213 0.161845
0.971549 0.156083 0.161807
0.971601 0.218536 0.161743
0.784396 0.0312436 0.199125
0.784236 0.0936115 0.199144
0.784018 0.156216 0.19906
0.783964 0.218682 0.199033
0.846827 0.0311162 0.199163
0.846595 0.0936814 0.199139
0.846528 0.15606 0.199108
0.846476 0.218724 0.198993
0.909345 0.0312292 0.199126
0.909229 0.0936327 0.199128
0.908971 0.156229 0.199089
0.908982 0.218648 0.199016
0.971832 0.0311237 0.199173
0.971636 0.0936928 0.199162
0.97154 0.15611 0.19914
0.971421 0.218672 0.199017
0.784357 0.0311465 0.236493
0.784071 0.09371 0.236376
0.784071 0.156152 0.236365
0.783903 0.218811 0.236323
0.846795 0.0312355 0.236395
0.846648 0.093654 0.236415
0.846428 0.156251 0.236341
0.846446 0.218754 0.236284
0.909266 0.0311656 0.236451
0.909096 0.093793 0.2364
0.908981 0.156131 0.236425
0.908857 0.218774 0.236331
0.971768 0.0312432 0.236425
0.971651 0.0936581 0.236425
0.971439 0.156215 0.236366
0.971361 0.218684 0.236295
0.784087 0.0314296 0.273738
0.784038 0.0937771 0.273687
0.78396 0.156335 0.273632
0.783894 0.21877 0.273605
0.846581 0.0312945 0.273768
0.846456 0.0937831 0.273672
0.846511 0.156168 0.273706
0.846295 0.218754 0.273603
0.909079 0.0313434 0.273688
0.909059 0.0937368 0.273661
0.908906 0.156234 0.273643
0.908834 0.218664 0.273564
0.971547 0.0313154 0.273737
0.971506 0.093783 0.273636
0.97152 0.156118 0.273689
0.971279 0.218723 0.273583
0.784012 0.0314183 0.311044
0.783942 0.0939903 0.31098
0.783902 0.156338 0.310995
0.783656 0.218814 0.310898
0.846355 0.0314172 0.31106
0.846443 0.093816 0.310971
0.84636 0.156356 0.310938
0.846226 0.218742 0.310894
0.908934 0.0314089 0.311017
0.908896 0.0939604 0.310972
0.908896 0.15622 0.31099
0.908694 0.218741 0.310902
0.97146 0.031445 0.311017
0.971467 0.0938092 0.310995
0.971328 0.156294 0.310937
0.971225 0.218701 0.310869
0.783902 0.0315355 0.348344
0.783959 0.0939296 0.348321
0.783812 0.156409 0.348284
0.783567 0.218775 0.348194
0.846466 0.0314665 0.34835
0.846405 0.0939562 0.348296
0.846365 0.156337 0.348315
0.846025 0.218866 0.348224
0.908904 0.0314589 0.348316
0.908934 0.0938517 0.348353
0.908779 0.156394 0.348249
0.908556 0.218744 0.3482
0.971524 0.0314426 0.348352
0.971388 0.0940149 0.348302
0.971316 0.156293 0.348298
0.971039 0.218899 0.348202
0.783855 0.0314113 0.385681
0.783764 0.0940069 0.3856
0.783725 0.156404 0.385648
0.78336 0.218998 0.385518
0.84638 0.0315052 0.385607
0.846281 0.0938842 0.385666
0.846133 0.156469 0.385634
0.845898 0.21888 0.385507
0.908881 0.0313353 0.385683
0.908759 0.0939999 0.385576
0.908725 0.15641 0.385591
0.90841 0.218987 0.385498
0.971345 0.0314677 0.385636
0.971318 0.093915 0.385628
0.971139 0.156429 0.38558
0.970983 0.218863 0.385539
0.783728 0.0315212 0.422999
0.783733 0.0939737 0.422988
0.783551 0.156585 0.422933
0.783333 0.219047 0.422859
0.84625 0.031356 0.422982
0.846183 0.0940244 0.422936
0.846128 0.156474 0.42296
0.845815 0.21917 0.42284
0.908688 0.0314933 0.42297
0.908723 0.0939273 0.422969
0.908514 0.1565 0.422909
0.908294 0.218972 0.422885
0.971234 0.0313634 0.422969
0.971083 0.0939541 0.422936
0.971029 0.156466 0.422904
0.970795 0.219133 0.422853
0.783795 0.0314571 0.460323
0.783618 0.0941946 0.460219
0.783569 0.156669 0.460237
0.78323 0.219415 0.460154
0.846269 0.0316052 0.460299
0.84617 0.094077 0.46029
0.845985 0.156863 0.460203
0.845791 0.219319 0.460195
0.908775 0.0314442 0.460326
0.908592 0.0942476 0.460287
0.908586 0.156693 0.460283
0.908213 0.219405 0.460178
0.971257 0.0315671 0.460324
0.971111 0.0940848 0.460296
0.970996 0.156831 0.460227
0.970754 0.219334 0.460194
0.783715 0.031839 0.497683
0.783688 0.0943993 0.497597
0.783387 0.157277 0.49755
0.783353 0.219707 0.497613
0.846266 0.0315721 0.497724
0.846122 0.0945392 0.497592
0.846083 0.157137 0.497562
0.84571 0.219824 0.497566
0.908745 0.0317951 0.497695
0.908681 0.0944624 0.497623
0.908374 0.157286 0.497581
0.908366 0.21978 0.497596
0.971252 0.0315848 0.497672
0.971 0.0945587 0.497627
0.971067 0.157163 0.497581
0.970728 0.21987 0.497608
0.784005 0.0321933 0.535047
0.783663 0.095252 0.53497
0.783862 0.157554 0.535
0.783301 0.220446 0.535099
0.846299 0.0323956 0.535028
0.846375 0.0949157 0.534945
0.845921 0.157821 0.534996
0.846143 0.220052 0.535042
0.908966 0.0320955 0.535083
0.908655 0.0952439 0.534963
0.908835 0.157557 0.534978
0.908256 0.220323 0.535092
0.971277 0.032392 0.535024
0.971421 0.0949416 0.534974
0.970949 0.157777 0.534984
0.971051 0.220027 0.535093
0.783917 0.0324817 0.572723
0.783689 0.0951868 0.572756
0.78362 0.157617 0.57288
0.78393 0.220106 0.573036
0.846297 0.0324098 0.572752
0.846282 0.0950936 0.572803
0.846404 0.157582 0.572859
0.846042 0.220109 0.573083
0.908897 0.0324419 0.572738
0.908753 0.0951555 0.57277
0.908626 0.157611 0.572887
0.908834 0.220008 0.573059
0.971342 0.0324313 0.572708
0.971229 0.0951489 0.572775
0.971316 0.157599 0.5729
0.971088 0.220037 0.57304
0.78411 0.0328195 0.610886
0.783805 0.0953997 0.611046
0.784059 0.157089 0.611199
0.784234 0.219645 0.611296
0.846375 0.0329436 0.610909
0.846586 0.0951365 0.610989
0.846533 0.157352 0.611136
0.846517 0.21941 0.61131
0.9092 0.0327207 0.610893
0.908785 0.0953527 0.611123
0.909077 0.157124 0.611224
0.909134 0.219696 0.611317
0.971448 0.0328849 0.610855
0.971537 0.0951823 0.611069
0.971517 0.157376 0.611251
0.971497 0.219379 0.611358
0.784263 0.0327773 0.649914
0.784323 0.0949547 0.650612
0.784338 0.157253 0.650693
0.784234 0.219383 0.6503
0.846781 0.0326704 0.649859
0.846747 0.0949134 0.650552
0.846803 0.157142 0.65075
0.846745 0.219368 0.650386
0.909222 0.0326706 0.64984
0.909221 0.0949486 0.650513
0.909322 0.157136 0.65075
0.909168 0.219395 0.650346
0.971854 0.0327178 0.649886
0.971698 0.0949695 0.650523
0.971786 0.157101 0.650704
0.9717 0.219378 0.650399
0.784177 0.0319498 0.690357
0.784213 0.0945311 0.690778
0.784262 0.157096 0.690954
0.784236 0.219637 0.690778
0.846697 0.0320406 0.690316
0.846788 0.0945107 0.690796
0.84671 0.157127 0.690918
0.846656 0.219581 0.69073
0.909275 0.0320509 0.690265
0.909241 0.0945736 0.690796
0.90927 0.157177 0.690893
0.909151 0.219638 0.690746
0.971763 0.0320589 0.690251
0.971718 0.0946083 0.690749
0.97175 0.157131 0.690887
0.971693 0.219578 0.69073
0.784294 0.031696 0.73103
0.784451 0.0942802 0.731281
0.784422 0.157109 0.731424
0.784408 0.21977 0.731365
0.846945 0.0316983 0.73103
0.846941 0.0943561 0.731239
0.846864 0.157126 0.731352
0.846898 0.219845 0.731323
0.90943 0.0317443 0.73101
0.909425 0.0944061 0.731204
0.909371 0.157179 0.73136
0.909287 0.219816 0.731399
0.971876 0.0318075 0.730923
0.971948 0.0943467 0.731248
0.971833 0.157072 0.731397
0.971801 0.219741 0.731347
0.784527 0.0319317 0.772202
0.784519 0.0943993 0.772089
0.784424 0.157082 0.772127
0.784505 0.219582 0.772298
0.847105 0.0319091 0.772134
0.846999 0.0944939 0.772095
0.847008 0.157103 0.772138
0.846964 0.219624 0.772225
0.909539 0.0319774 0.772121
0.909429 0.0944428 0.772088
0.909526 0.157107 0.772133
0.909456 0.219667 0.772275
0.971959 0.0319054 0.77208
0.971994 0.0945012 0.772045
0.971989 0.157144 0.772177
0.971892 0.219718 0.772295
0.784666 0.0322145 0.813173
0.784732 0.0947394 0.813037
0.784772 0.157199 0.813102
0.784726 0.219602 0.813327
0.84724 0.0322415 0.813187
0.847172 0.094705 0.813092
0.847308 0.157235 0.813088
0.847271 0.219742 0.813381
0.909649 0.0322315 0.813156
0.909663 0.094701 0.813069
0.909797 0.157233 0.81314
0.909785 0.219784 0.813441
0.972119 0.0322614 0.8132
0.972164 0.094724 0.813082
0.972247 0.157253 0.813163
0.972218 0.219739 0.813454
0.78458 0.0324661 0.853955
0.784566 0.0948725 0.853707
0.7848 0.157264 0.853902
0.784803 0.219598 0.854358
0.847111 0.0325008 0.853886
0.847065 0.0949269 0.853709
0.847183 0.157276 0.853871
0.847338 0.219558 0.854303
0.90958 0.0323939 0.853904
0.909598 0.0948065 0.853694
0.909702 0.157198 0.853818
0.909745 0.219629 0.854309
0.972092 0.0324735 0.853908
0.97206 0.0948643 0.853685
0.972228 0.157233 0.85385
0.972316 0.219655 0.854313
0.784624 0.0329655 0.894404
0.784659 0.0950333 0.894123
0.784751 0.156951 0.894313
0.78482 0.219013 0.894912
0.847146 0.0330456 0.894367
0.847128 0.0950398 0.894104
0.847243 0.15697 0.894321
0.847283 0.21902 0.894974
0.909708 0.032979 0.894402
0.909618 0.0949649 0.894106
0.909712 0.15693 0.894259
0.90987 0.218995 0.894805
0.972159 0.0329231 0.894381
0.972114 0.0949415 0.894088
0.972211 0.156924 0.894247
0.972371 0.219018 0.894855
0.78459 0.0333814 0.934285
0.784555 0.0949809 0.934127
0.7847 0.156583 0.934332
0.784681 0.218182 0.934804
0.846996 0.0333706 0.934305
0.8471 0.0949588 0.934137
0.847126 0.156538 0.934329
0.847225 0.218182 0.934831
0.909559 0.033427 0.934274
0.90959 0.095022 0.934169
0.909772 0.156572 0.934307
0.909768 0.218186 0.934828
0.972132 0.03337 0.934263
0.972205 0.0949371 0.934154
0.972212 0.156567 0.93427
0.972245 0.218098 0.934779
0.784766 0.0335422 0.973437
0.784799 0.0949155 0.973372
0.784725 0.156195 0.973557
0.784802 0.217639 0.974066
0.847188 0.0334423 0.973481
0.847224 0.0948195 0.97341
0.847183 0.156103 0.973567
0.847207 0.217587 0.973961
0.909804 0.0335009 0.973446
0.909739 0.0948865 0.973384
0.909674 0.156205 0.973565
0.909853 0.217648 0.97401
0.972237 0.0334465 0.973408
0.972251 0.0947966 0.973354
0.97222 0.156032 0.97352
0.972292 0.217484 0.973937
0.784735 0.280375 0.0121369
0.784949 0.343054 0.0123261
0.785011 0.40629 0.0139992
0.785085 0.469174 0.0141874
0.847237 0.280371 0.0121426
0.847356 0.343008 0.0124218
0.847548 0.405994 0.0139033
0.847683 0.469385 0.0141882
0.909837 0.280357 0.0121914
0.909997 0.343078 0.012289
0.910094 0.406354 0.0139725
0.910081 0.469156 0.0141719
0.972266 0.280316 0.0120947
0.972342 0.342988 0.0124133
0.97256 0.406056 0.0139168
0.972757 0.469385 0.0141979
0.784587 0.280667 0.0496068
0.78456 0.34322 0.0498076
0.785072 0.405977 0.0512872
0.785532 0.468962 0.0514885
0.847174 0.280617 0.0496007
0.847447 0.343276 0.0496931
0.847534 0.406103 0.051345
0.847943 0.468898 0.0514678
0.909626 0.280705 0.0495281
0.909664 0.343202 0.0497899
0.910039 0.405942 0.0513145
0.910498 0.468973 0.0515509
0.972206 0.280602 0.0495686
0.972456 0.343303 0.049695
0.97258 0.406154 0.0513747
0.973023 0.468933 0.0514808
0.784427 0.280866 0.0870246
0.784659 0.343471 0.0871381
0.785049 0.406346 0.0887525
0.785593 0.468846 0.0888557
0.846834 0.280976 0.0869767
0.84674 0.343429 0.08729
0.847546 0.406092 0.0886772
0.848088 0.469051 0.0888198
0.909396 0.280841 0.0869791
0.909618 0.343477 0.0871317
0.910069 0.406269 0.0887384
0.910543 0.468853 0.0888479
0.971869 0.280999 0.0869432
0.971829 0.343338 0.0872704
0.972616 0.406058 0.088642
0.973043 0.469039 0.0888404
0.784064 0.281071 0.124314
0.783964 0.343486 0.124649
0.784877 0.406145 0.126038
0.785472 0.46896 0.12625
0.846682 0.280966 0.124347
0.846809 0.343613 0.124453
0.847384 0.406365 0.1261
0.847948 0.468867 0.126206
0.909157 0.281076 0.124287
0.908996 0.343512 0.124573
0.909898 0.406108 0.126003
0.910514 0.468933 0.126234
0.97169 0.28097 0.124346
0.971869 0.343581 0.1245
0.972383 0.406309 0.12605
0.973038 0.468849 0.126199
0.783953 0.281077 0.161605
0.784135 0.343648 0.161792
0.784729 0.406387 0.163485
0.785363 0.468855 0.163533
0.846376 0.281132 0.161592
0.846282 0.343545 0.161903
0.847286 0.406185 0.163389
0.847905 0.468944 0.16355
0.908879 0.281045 0.161651
0.909088 0.343628 0.161792
0.909731 0.406355 0.163441
0.910438 0.468854 0.163503
0.971327 0.281144 0.161644
0.971296 0.343524 0.161933
0.972209 0.406149 0.163338
0.972842 0.468934 0.163555
0.783791 0.281258 0.198963
0.783725 0.343662 0.199192
0.7847 0.406273 0.200668
0.785313 0.469048 0.200893
0.84633 0.281127 0.198934
0.846568 0.343704 0.199072
0.847248 0.406344 0.200753
0.847841 0.468897 0.200823
0.908696 0.28131 0.198952
0.908751 0.343682 0.199216
0.909754 0.406279 0.200687
0.910349 0.469027 0.200836
0.971305 0.281128 0.198926
0.971605 0.343693 0.199055
0.972228 0.406409 0.200741
0.972883 0.468911 0.200876
0.783724 0.281247 0.236265
0.784088 0.343838 0.236367
0.784928 0.406474 0.238105
0.785276 0.468948 0.238193
0.846163 0.281281 0.236218
0.846206 0.343721 0.236512
0.847356 0.406376 0.238033
0.847849 0.469041 0.23821
0.908775 0.281253 0.236281
0.909175 0.343835 0.236346
0.909886 0.406465 0.238088
0.910358 0.468926 0.238186
0.971195 0.281312 0.236244
0.971199 0.343734 0.236499
0.972392 0.406356 0.238014
0.97281 0.469058 0.238226
0.783566 0.281297 0.273479
0.783534 0.343654 0.27382
0.784786 0.406285 0.275363
0.785181 0.468984 0.275539
0.846106 0.281177 0.273477
0.846454 0.343745 0.273655
0.847308 0.406405 0.275399
0.847712 0.468826 0.275546
0.908608 0.281252 0.273503
0.908506 0.343718 0.273776
0.909746 0.406323 0.27535
0.91014 0.469033 0.275563
0.971211 0.28117 0.273492
0.971516 0.343716 0.273571
0.972312 0.406362 0.275391
0.972654 0.468736 0.27549
0.783599 0.281082 0.310803
0.784007 0.34362 0.310981
0.784794 0.406209 0.312692
0.785053 0.46868 0.312806
0.845992 0.281242 0.31077
0.846061 0.34354 0.311142
0.847197 0.406172 0.312677
0.84756 0.468857 0.312859
0.908552 0.281114 0.310803
0.908929 0.343608 0.310934
0.909808 0.406224 0.312776
0.910044 0.468699 0.312829
0.971016 0.281215 0.31075
0.970993 0.343522 0.311085
0.972211 0.406144 0.312618
0.972578 0.468899 0.312836
0.783435 0.281332 0.348086
0.783589 0.343531 0.348549
0.78485 0.406141 0.349993
0.785153 0.468789 0.350177
0.846027 0.281171 0.348179
0.846639 0.343711 0.348319
0.847467 0.406267 0.350079
0.847696 0.468679 0.35015
0.908509 0.281303 0.348056
0.908666 0.343524 0.348492
0.909853 0.406153 0.350048
0.910137 0.468799 0.350092
0.970998 0.281229 0.348144
0.971558 0.343738 0.348318
0.972438 0.40631 0.350058
0.97262 0.468734 0.350155
0.783296 0.281268 0.385578
0.783948 0.343798 0.385713
0.784886 0.406347 0.387461
0.785121 0.468714 0.387528
0.845878 0.281363 0.385427
0.84603 0.343619 0.385839
0.847268 0.406195 0.387379
0.84755 0.468781 0.387504
0.908338 0.281275 0.385487
0.908933 0.343824 0.385685
0.909874 0.406347 0.387436
0.910067 0.468641 0.387504
0.970894 0.281416 0.385425
0.971 0.343661 0.385821
0.972281 0.406184 0.387377
0.972529 0.468721 0.38747
0.78321 0.281588 0.422785
0.783497 0.343724 0.423179
0.784667 0.406285 0.424806
0.78497 0.468713 0.424944
0.845675 0.281448 0.422913
0.846483 0.343845 0.423073
0.84732 0.406331 0.424863
0.847445 0.468658 0.424874
0.908207 0.28147 0.422803
0.908464 0.343727 0.423182
0.909715 0.406268 0.424782
0.909886 0.46867 0.424893
0.97067 0.281504 0.422895
0.971387 0.343911 0.423105
0.972352 0.406413 0.424838
0.972483 0.468665 0.42486
0.783131 0.28172 0.460325
0.783987 0.344131 0.460541
0.784822 0.406618 0.462391
0.784987 0.468731 0.462403
0.845715 0.281815 0.460241
0.845969 0.343955 0.460657
0.847133 0.406397 0.462368
0.84754 0.468712 0.462401
0.908154 0.281769 0.460385
0.908915 0.344193 0.460548
0.909734 0.406626 0.46238
0.909985 0.468714 0.462387
0.970731 0.281847 0.460212
0.970927 0.343994 0.460632
0.9721 0.406494 0.462326
0.9725 0.468727 0.462356
0.783334 0.282311 0.49773
0.845746 0.282047 0.497866
0.90831 0.282288 0.497735
0.970747 0.282143 0.497818
0.783546 0.344509 0.498185
0.9714 0.344584 0.498089
0.785028 0.469452 0.499987
0.846444 0.344578 0.498123
0.908496 0.344465 0.498194
0.847184 0.40713 0.499958
0.910032 0.469424 0.499988
0.784521 0.407067 0.499991
0.783518 0.282695 0.535374
0.784061 0.345588 0.53577
0.784416 0.408475 0.537446
0.784534 0.47071 0.537735
0.846076 0.28286 0.535322
0.846345 0.345385 0.53571
0.846656 0.408269 0.537596
0.847248 0.470698 0.537614
0.908593 0.282629 0.535363
0.909007 0.345575 0.53574
0.909437 0.408461 0.537464
0.909525 0.470696 0.537732
0.971002 0.282857 0.535292
0.971222 0.345404 0.535735
0.971643 0.408261 0.537653
0.97217 0.470713 0.537638
0.783869 0.28276 0.573072
0.784053 0.346055 0.57314
0.784548 0.409278 0.575209
0.78467 0.471578 0.575485
0.846428 0.282642 0.573143
0.846697 0.346075 0.573187
0.847107 0.409163 0.574981
0.847336 0.471541 0.575539
0.908875 0.282706 0.57306
0.909014 0.346038 0.573129
0.909565 0.409222 0.575135
0.909704 0.471471 0.575613
0.971361 0.282565 0.573133
0.97165 0.346155 0.57319
0.971899 0.409218 0.575039
0.97212 0.471486 0.575666
0.783966 0.282486 0.611321
0.784467 0.346243 0.611064
0.784467 0.409465 0.613304
0.78479 0.471453 0.614581
0.846812 0.282644 0.611278
0.846613 0.346052 0.610975
0.847054 0.409446 0.613516
0.847263 0.471436 0.61464
0.908912 0.282457 0.61136
0.909303 0.346183 0.611137
0.909469 0.4091 0.613637
0.909674 0.471424 0.61463
0.97163 0.282645 0.61129
0.971504 0.345987 0.611091
0.971992 0.409267 0.613716
0.972195 0.471479 0.614613
0.784257 0.281996 0.649695
0.784288 0.345912 0.649405
0.784505 0.408383 0.652859
0.784561 0.470886 0.654381
0.846572 0.281874 0.649886
0.846851 0.345961 0.649599
0.8468 0.408411 0.653092
0.847075 0.470815 0.654436
0.909166 0.281955 0.649877
0.909266 0.345699 0.649551
0.909565 0.408341 0.653271
0.909592 0.470892 0.654442
0.97161 0.281853 0.649868
0.972004 0.345888 0.649531
0.972335 0.408449 0.65292
0.972013 0.470774 0.654333
0.784215 0.282104 0.690215
0.784138 0.344745 0.689079
0.784229 0.40709 0.693839
0.784432 0.470047 0.694916
0.84669 0.281956 0.690059
0.846232 0.344463 0.689047
0.846459 0.407582 0.693857
0.846861 0.470147 0.69496
0.909209 0.281841 0.69019
0.909402 0.34415 0.68927
0.909813 0.407977 0.694031
0.909505 0.470189 0.694948
0.971803 0.281956 0.690222
0.972226 0.344754 0.689389
0.97216 0.407489 0.693942
0.971923 0.470212 0.695055
0.78432 0.282069 0.731065
0.784549 0.344073 0.731006
0.784444 0.407988 0.735883
0.784364 0.470217 0.736003
0.846973 0.282445 0.731178
0.847714 0.344937 0.731077
0.847923 0.407159 0.735382
0.846903 0.469881 0.735914
0.909319 0.28252 0.73123
0.908741 0.345471 0.731424
0.908835 0.406834 0.735626
0.90932 0.469803 0.735992
0.971806 0.282125 0.731215
0.971506 0.344459 0.731254
0.971447 0.408028 0.736074
0.971844 0.470083 0.736062
0.972219 0.407177 0.500002
0.972427 0.46942 0.500046
0.847473 0.46938 0.500017
0.909508 0.407118 0.500015
0.784541 0.282003 0.772413
0.784426 0.3449 0.772709
0.7845 0.407512 0.777148
0.784608 0.469917 0.77732
0.847022 0.282099 0.772362
0.846864 0.344526 0.772557
0.846712 0.407676 0.777436
0.84705 0.469742 0.777441
0.909571 0.282174 0.772484
0.910353 0.344803 0.772708
0.910412 0.407191 0.777086
0.909538 0.469765 0.777341
0.972002 0.282207 0.772485
0.971387 0.345203 0.772796
0.971442 0.406629 0.776927
0.972038 0.469514 0.777348
0.784723 0.282081 0.813861
0.7846 0.344822 0.814453
0.784303 0.407325 0.818998
0.78441 0.469511 0.818783
0.847177 0.282083 0.813783
0.847121 0.34472 0.814201
0.84671 0.407352 0.81882
0.847 0.469445 0.818636
0.909652 0.282232 0.813754
0.90957 0.344829 0.813846
0.909121 0.40676 0.818667
0.909337 0.469301 0.818626
0.972196 0.28222 0.813873
0.971875 0.344705 0.814013
0.971926 0.406829 0.818861
0.971964 0.46935 0.818635
0.784737 0.281909 0.855052
0.784765 0.344473 0.856238
0.784682 0.406991 0.86111
0.784558 0.469535 0.859974
0.847217 0.281846 0.854986
0.847109 0.344556 0.856251
0.847014 0.407038 0.860962
0.847027 0.469581 0.859983
0.909756 0.281893 0.854953
0.909265 0.344258 0.855894
0.909015 0.407369 0.860808
0.909564 0.469731 0.859841
0.972303 0.281913 0.854892
0.972482 0.344297 0.855853
0.972743 0.407241 0.860698
0.972112 0.469627 0.859835
0.784906 0.281093 0.895747
0.784884 0.343359 0.897193
0.784783 0.405546 0.900664
0.78473 0.469917 0.90033
0.84741 0.281017 0.895794
0.84739 0.343403 0.897238
0.847409 0.405712 0.900696
0.847104 0.469947 0.900319
0.909834 0.281071 0.895626
0.909906 0.343431 0.897056
0.909756 0.405612 0.900616
0.909783 0.469955 0.900198
0.972368 0.280978 0.895697
0.972343 0.343332 0.897064
0.97235 0.405722 0.900633
0.972061 0.469878 0.900228
0.784878 0.279926 0.935559
0.785114 0.341895 0.936885
0.785068 0.405689 0.938912
0.784775 0.469371 0.938537
0.847352 0.279863 0.93559
0.847428 0.342041 0.936895
0.847412 0.405541 0.938932
0.847509 0.469498 0.938554
0.909809 0.279933 0.935607
0.910091 0.341962 0.936879
0.910077 0.40574 0.938946
0.909809 0.469441 0.938552
0.972307 0.279806 0.935584
0.972318 0.341972 0.936861
0.972368 0.405594 0.93891
0.972541 0.469536 0.938532
0.784689 0.279492 0.974601
0.784725 0.342398 0.975046
0.785089 0.405787 0.976655
0.785045 0.469529 0.976673
0.847455 0.279554 0.974591
0.847316 0.342344 0.974949
0.847648 0.405896 0.976702
0.847607 0.469462 0.976677
0.909751 0.27949 0.974572
0.909823 0.342444 0.975019
0.910156 0.405887 0.976634
0.910166 0.469569 0.976676
0.972495 0.279615 0.974557
0.972466 0.34231 0.974923
0.972627 0.405935 0.976684
0.972728 0.469503 0.976684
0.785356 0.532464 0.0142153
0.785108 0.594997 0.0142227
0.785713 0.657814 0.0141875
0.785589 0.720084 0.0141067
0.847661 0.532188 0.0142071
0.847887 0.595273 0.0141944
0.847871 0.657583 0.0141853
0.848451 0.720379 0.0140645
0.910439 0.532453 0.0142266
0.910145 0.594992 0.0141931
0.910742 0.657829 0.0141835
0.910601 0.72008 0.0141361
0.972696 0.532184 0.014223
0.972925 0.595229 0.014193
0.972904 0.657577 0.0142192
0.973439 0.72037 0.0141164
0.785423 0.531759 0.0515516
0.785575 0.594636 0.0515768
0.785571 0.657207 0.0516466
0.786107 0.71991 0.0515992
0.848011 0.531887 0.0515179
0.847939 0.594527 0.0515821
0.848239 0.657311 0.0516008
0.848381 0.719785 0.0515846
0.910505 0.531725 0.0515476
0.910526 0.594716 0.0515863
0.91054 0.657235 0.0516203
0.91106 0.719875 0.0516052
0.973026 0.531928 0.0515655
0.972989 0.59449 0.0515701
0.973288 0.657277 0.0516565
0.973409 0.719777 0.0515782
0.785647 0.531679 0.0888808
0.785549 0.594179 0.0889168
0.785731 0.656935 0.0889939
0.786041 0.719332 0.0889722
0.848078 0.531556 0.0888861
0.848114 0.594327 0.0889853
0.848128 0.656778 0.0889689
0.848634 0.719448 0.0890277
0.910582 0.531727 0.0888996
0.910575 0.59422 0.088936
0.91083 0.656905 0.0890042
0.911038 0.719355 0.0889779
0.973085 0.531613 0.0889512
0.973173 0.594328 0.0889619
0.973247 0.656809 0.0889509
0.973611 0.719404 0.0889855
0.785654 0.531465 0.126225
0.785733 0.594148 0.126249
0.785809 0.656614 0.126253
0.786203 0.719171 0.126369
0.848141 0.531613 0.126216
0.848158 0.59409 0.12624
0.8484 0.656712 0.12626
0.848613 0.719144 0.126334
0.910692 0.531474 0.12622
0.910716 0.594203 0.126285
0.910834 0.656602 0.126271
0.911134 0.719171 0.126365
0.973252 0.531571 0.126269
0.973193 0.594062 0.126257
0.973422 0.656634 0.126288
0.973619 0.719046 0.126317
0.78556 0.531582 0.163598
0.785604 0.593972 0.163568
0.785808 0.656506 0.163644
0.786017 0.718889 0.163692
0.848099 0.531436 0.163539
0.848118 0.594074 0.163591
0.848214 0.656459 0.163535
0.84852 0.719042 0.163719
0.910566 0.531544 0.163573
0.910622 0.593987 0.16353
0.910749 0.656542 0.163604
0.910958 0.71887 0.163676
0.973002 0.531492 0.163566
0.973114 0.594071 0.16361
0.973217 0.656433 0.163541
0.973526 0.719049 0.163725
0.785396 0.531484 0.200883
0.785514 0.594091 0.20093
0.785652 0.656413 0.200912
0.785884 0.719015 0.201027
0.847949 0.531584 0.200943
0.848007 0.593986 0.2009
0.848163 0.656468 0.200945
0.848319 0.718822 0.20106
0.910419 0.531541 0.200896
0.910513 0.594065 0.200946
0.910649 0.656403 0.200888
0.910847 0.718941 0.201046
0.972978 0.531585 0.200928
0.972973 0.594013 0.200925
0.973185 0.656498 0.20092
0.973367 0.718841 0.201022
0.785401 0.531547 0.238232
0.78546 0.593877 0.238255
0.785575 0.656426 0.238301
0.785646 0.718769 0.238397
0.847933 0.531448 0.238266
0.848016 0.593998 0.238271
0.848 0.656335 0.23826
0.848193 0.718904 0.238407
0.910434 0.53157 0.238244
0.910471 0.593936 0.238242
0.910508 0.656381 0.238317
0.910671 0.718782 0.238404
0.972989 0.531501 0.238237
0.973056 0.59405 0.238235
0.973011 0.656315 0.238267
0.973215 0.718789 0.23838
0.785288 0.531334 0.275508
0.785439 0.593881 0.275635
0.785424 0.656179 0.275583
0.78566 0.718803 0.275732
0.847789 0.531433 0.275556
0.847893 0.59376 0.275598
0.848008 0.656328 0.275652
0.848153 0.71871 0.275705
0.910329 0.531348 0.275506
0.910473 0.593836 0.27555
0.910483 0.65618 0.275565
0.910669 0.718764 0.275696
0.97288 0.53144 0.275554
0.972905 0.593876 0.275589
0.973044 0.656336 0.275638
0.973091 0.718705 0.275684
0.785195 0.531326 0.312882
0.785279 0.593718 0.312913
0.785489 0.656248 0.312967
0.785515 0.718666 0.313034
0.847633 0.531224 0.312822
0.847937 0.593788 0.312878
0.847967 0.656151 0.312916
0.848081 0.718751 0.312991
0.910271 0.531325 0.31287
0.910351 0.593722 0.312888
0.910529 0.65629 0.312923
0.910526 0.718668 0.312993
0.972683 0.531251 0.312829
0.972942 0.593839 0.312894
0.972971 0.656173 0.312895
0.973047 0.718767 0.312993
0.785181 0.531172 0.350189
0.785316 0.593765 0.350182
0.785497 0.656114 0.350202
0.785569 0.71875 0.350303
0.847695 0.53133 0.350174
0.847788 0.593665 0.350148
0.848033 0.656209 0.350258
0.847986 0.718632 0.350295
0.910102 0.531262 0.35014
0.910332 0.59381 0.350155
0.910453 0.656146 0.350168
0.910491 0.718703 0.350302
0.972603 0.531358 0.350186
0.972745 0.593731 0.350189
0.973054 0.656228 0.350234
0.973016 0.718557 0.350309
0.785132 0.531208 0.387545
0.785237 0.593646 0.387493
0.78548 0.656113 0.387546
0.785475 0.718531 0.387606
0.847633 0.531091 0.387493
0.847804 0.593659 0.387455
0.847906 0.656004 0.387505
0.847993 0.718629 0.387622
0.910195 0.531247 0.387479
0.910251 0.593639 0.387452
0.91045 0.656151 0.387539
0.91045 0.718448 0.387583
0.972574 0.531092 0.387436
0.972794 0.593659 0.38749
0.972908 0.656013 0.387477
0.97307 0.71864 0.387564
0.785023 0.531003 0.424867
0.785242 0.59359 0.424805
0.785398 0.655951 0.424837
0.785484 0.718535 0.424887
0.847576 0.531128 0.424883
0.847722 0.59345 0.424815
0.847997 0.655983 0.424849
0.84791 0.718433 0.424898
0.909951 0.531048 0.424814
0.910275 0.593565 0.424797
0.910402 0.65593 0.424843
0.910489 0.718506 0.424904
0.972466 0.531101 0.424797
0.97268 0.593521 0.424786
0.973009 0.656022 0.424822
0.972882 0.718418 0.424879
0.785068 0.531153 0.462303
0.785186 0.593419 0.462167
0.785366 0.655887 0.462164
0.78517 0.71827 0.462267
0.847524 0.530995 0.462268
0.847744 0.593373 0.462138
0.847819 0.6557 0.462109
0.847815 0.718394 0.462253
0.910109 0.531147 0.46229
0.910188 0.593423 0.462149
0.910334 0.655883 0.462137
0.910219 0.718296 0.462235
0.9725 0.530957 0.462201
0.972782 0.593301 0.4621
0.972816 0.655753 0.462095
0.972849 0.718362 0.462249
0.785153 0.718206 0.499694
0.847577 0.718085 0.499676
0.784933 0.5315 0.499777
0.972627 0.718032 0.499621
0.910183 0.718073 0.499668
0.972673 0.655727 0.499547
0.847659 0.655787 0.499588
0.972558 0.593605 0.499619
0.972476 0.531595 0.499788
0.909964 0.531433 0.499795
0.910146 0.593704 0.499609
0.91019 0.65572 0.499534
0.785188 0.593699 0.499653
0.785184 0.655783 0.499593
0.847565 0.593646 0.499617
0.847427 0.531606 0.499766
0.784962 0.532649 0.537654
0.784919 0.594293 0.537569
0.784952 0.655956 0.537483
0.784912 0.717929 0.537303
0.847342 0.532572 0.537698
0.847604 0.594227 0.537527
0.847499 0.655908 0.537372
0.847449 0.717809 0.537289
0.909918 0.532523 0.537656
0.90987 0.594164 0.537533
0.909995 0.655854 0.537447
0.909887 0.717783 0.537225
0.972238 0.532563 0.537701
0.972571 0.594202 0.537489
0.9725 0.655869 0.537356
0.97241 0.717765 0.53724
0.784798 0.53321 0.575906
0.78502 0.594493 0.575989
0.785062 0.655848 0.575719
0.785105 0.717377 0.575249
0.847308 0.533205 0.575959
0.847445 0.594612 0.575992
0.847543 0.655968 0.575764
0.847509 0.717514 0.575291
0.909846 0.533191 0.576012
0.910007 0.594617 0.575962
0.910053 0.655892 0.57576
0.910018 0.717396 0.575311
0.972356 0.533157 0.575998
0.972549 0.59461 0.575964
0.972593 0.655941 0.575724
0.972461 0.717446 0.575215
0.784777 0.533147 0.615102
0.784742 0.594697 0.615174
0.78484 0.656308 0.614966
0.784792 0.717872 0.614409
0.847283 0.533144 0.615119
0.847343 0.594817 0.615113
0.847268 0.656462 0.614942
0.847284 0.717997 0.614418
0.909831 0.533186 0.615049
0.909862 0.594785 0.615135
0.909808 0.656389 0.614977
0.909738 0.718029 0.614443
0.972372 0.533235 0.615073
0.972473 0.59483 0.615179
0.972244 0.65642 0.614972
0.972253 0.717947 0.614477
0.784545 0.53293 0.654994
0.784566 0.594934 0.655203
0.784459 0.65684 0.654996
0.784461 0.718752 0.654383
0.847071 0.532989 0.654991
0.847089 0.594954 0.655173
0.846983 0.656894 0.655041
0.846937 0.718836 0.654424
0.909576 0.532828 0.654982
0.909577 0.594845 0.655165
0.909558 0.656786 0.655002
0.909498 0.718908 0.654477
0.972111 0.532949 0.654937
0.972023 0.594898 0.655157
0.97202 0.656872 0.655032
0.972034 0.718798 0.654442
0.784441 0.532533 0.695483
0.78444 0.594916 0.695654
0.784257 0.657332 0.695477
0.784284 0.719612 0.695005
0.846957 0.532457 0.695441
0.846945 0.594848 0.695599
0.846829 0.657231 0.695463
0.846812 0.719517 0.695012
0.909421 0.532465 0.695469
0.909554 0.594852 0.695609
0.90934 0.65726 0.695484
0.909389 0.7196 0.694957
0.971869 0.532494 0.695449
0.971996 0.594933 0.695638
0.971926 0.657319 0.695498
0.971994 0.719618 0.694966
0.784415 0.532603 0.736241
0.784382 0.594918 0.73625
0.78429 0.657325 0.736237
0.784322 0.719824 0.735986
0.846941 0.532425 0.736244
0.846915 0.594886 0.736274
0.846832 0.657388 0.736177
0.846818 0.71982 0.735876
0.909345 0.532382 0.736232
0.909433 0.59483 0.736339
0.90937 0.657401 0.736216
0.90936 0.71983 0.735774
0.971835 0.532408 0.736244
0.971883 0.594887 0.736282
0.971914 0.657351 0.736198
0.971911 0.719843 0.735886
0.784522 0.532246 0.777352
0.78454 0.594742 0.777387
0.784534 0.657258 0.777221
0.784601 0.719779 0.777175
0.847077 0.532139 0.777334
0.847026 0.594685 0.777308
0.847057 0.657241 0.777219
0.847041 0.719726 0.777027
0.909551 0.532112 0.777334
0.909575 0.594626 0.777266
0.909588 0.657241 0.777153
0.909504 0.719819 0.777088
0.972008 0.532042 0.77738
0.971989 0.594674 0.777343
0.972028 0.657302 0.777268
0.972079 0.719791 0.777084
0.784547 0.531953 0.818436
0.784445 0.594528 0.818182
0.784421 0.657256 0.818183
0.784513 0.719764 0.818254
0.847024 0.531958 0.8184
0.846963 0.594522 0.818174
0.846987 0.657331 0.818117
0.846948 0.719868 0.818268
0.909456 0.531835 0.818397
0.909391 0.594506 0.818139
0.909356 0.657279 0.818088
0.909508 0.71986 0.818262
0.971961 0.531845 0.818402
0.97187 0.594459 0.818113
0.97187 0.657222 0.818042
0.971926 0.719792 0.818189
0.784536 0.531984 0.859093
0.784486 0.594478 0.858706
0.784424 0.657071 0.858651
0.784474 0.719608 0.858932
0.847007 0.531947 0.85915
0.846958 0.594563 0.858632
0.846976 0.65716 0.858703
0.846892 0.719658 0.858887
0.909483 0.532046 0.859118
0.909435 0.594492 0.858673
0.909434 0.65697 0.858612
0.90955 0.719427 0.85893
0.972084 0.531919 0.859122
0.971984 0.594516 0.858698
0.971871 0.657043 0.858605
0.971938 0.719461 0.858851
0.784387 0.532474 0.899461
0.784333 0.594729 0.898823
0.784362 0.65699 0.898734
0.78443 0.719259 0.899091
0.846986 0.532539 0.89951
0.84681 0.594743 0.898874
0.846885 0.657005 0.898662
0.846995 0.719293 0.899126
0.909373 0.532493 0.899412
0.909416 0.594796 0.898826
0.909463 0.656967 0.898704
0.909435 0.719214 0.899117
0.972041 0.532575 0.899425
0.971954 0.594788 0.89881
0.971891 0.65707 0.898724
0.972076 0.719308 0.89917
0.784867 0.532712 0.93837
0.784473 0.594898 0.938216
0.784701 0.657308 0.938065
0.784939 0.719393 0.937945
0.847222 0.532516 0.938342
0.847297 0.595188 0.938164
0.847191 0.656924 0.93804
0.847245 0.719621 0.937963
0.909908 0.53281 0.938352
0.909654 0.59493 0.938223
0.909826 0.657219 0.938079
0.909954 0.719342 0.937952
0.972124 0.532479 0.93838
0.972408 0.595228 0.938181
0.972291 0.656958 0.938009
0.972258 0.719661 0.937942
0.785221 0.532388 0.976535
0.7852 0.595035 0.976402
0.78516 0.657656 0.976322
0.785487 0.720166 0.976133
0.847635 0.532427 0.976508
0.847699 0.595154 0.976382
0.848032 0.657655 0.976296
0.847699 0.720099 0.976176
0.91027 0.532402 0.976562
0.910219 0.595048 0.976374
0.910281 0.657655 0.976294
0.910579 0.720113 0.976161
0.972746 0.532426 0.976529
0.972704 0.595093 0.976436
0.973047 0.657669 0.976343
0.972769 0.720119 0.976216
0.785857 0.782969 0.0139142
0.785832 0.845511 0.0134993
0.785555 0.908376 0.0116685
0.784911 0.970938 0.0117128
0.848277 0.782713 0.0138629
0.848084 0.84569 0.0134821
0.847767 0.908653 0.0118195
0.847632 0.970892 0.0115399
0.910797 0.782938 0.0138806
0.910758 0.845462 0.0135309
0.91046 0.908422 0.011678
0.909924 0.970841 0.011651
0.973312 0.782644 0.0138632
0.973095 0.845659 0.0134435
0.972706 0.908567 0.0117853
0.97265 0.970838 0.0115605
0.786106 0.782122 0.0513315
0.785572 0.844633 0.0510904
0.78471 0.907228 0.0492545
0.784689 0.969584 0.0492431
0.848563 0.782335 0.051465
0.848455 0.844552 0.0509908
0.847488 0.907146 0.0492202
0.847152 0.969568 0.0492589
0.911083 0.782202 0.0513261
0.910536 0.844658 0.0510869
0.909787 0.907249 0.0492474
0.909746 0.96958 0.0492059
0.973596 0.782333 0.0514533
0.973484 0.844532 0.0510031
0.972529 0.907143 0.0492267
0.972212 0.969533 0.0492572
0.786176 0.781828 0.0889647
0.786106 0.844058 0.0885158
0.784942 0.906531 0.0868536
0.784719 0.968819 0.0868536
0.848691 0.781835 0.0888538
0.848063 0.844208 0.088643
0.847306 0.906597 0.0868392
0.847143 0.968725 0.0868243
0.911143 0.781924 0.0889756
0.911133 0.844082 0.0885536
0.909916 0.906513 0.0868725
0.90973 0.968852 0.0868261
0.97378 0.781729 0.0888411
0.973107 0.844219 0.0886623
0.972291 0.906646 0.0868657
0.972269 0.968693 0.0868284
0.786342 0.78147 0.126287
0.78568 0.843901 0.126109
0.784801 0.906452 0.124339
0.784612 0.968734 0.12436
0.848776 0.78155 0.126391
0.848561 0.843818 0.125986
0.847411 0.906329 0.124373
0.84718 0.968808 0.124341
0.911365 0.781492 0.126289
0.910729 0.843858 0.126113
0.909755 0.906409 0.124341
0.909633 0.968667 0.124331
0.97374 0.781535 0.12636
0.973656 0.843739 0.12604
0.9724 0.906225 0.124368
0.972192 0.968713 0.124331
0.786118 0.78148 0.163769
0.786152 0.843754 0.163385
0.784876 0.906168 0.161843
0.784492 0.968717 0.161735
0.848658 0.781273 0.16372
0.848228 0.843753 0.163527
0.847398 0.906324 0.161733
0.846978 0.968605 0.161723
0.911123 0.781379 0.163774
0.911148 0.843615 0.163346
0.909875 0.906143 0.161798
0.909528 0.96877 0.161752
0.973688 0.781274 0.163669
0.97324 0.84373 0.163532
0.972362 0.906358 0.161736
0.971979 0.96865 0.161734
0.786037 0.781218 0.201084
0.785598 0.843643 0.200895
0.784824 0.906184 0.199138
0.784544 0.968603 0.199113
0.848523 0.781328 0.20114
0.848509 0.843506 0.200781
0.847462 0.906093 0.199174
0.847007 0.968764 0.199088
0.911002 0.781153 0.201037
0.910628 0.84362 0.200914
0.909901 0.906134 0.199128
0.909508 0.968607 0.199147
0.973575 0.781311 0.201102
0.973569 0.843494 0.200725
0.972412 0.906012 0.199206
0.971886 0.968693 0.199119
0.785976 0.781246 0.238499
0.786142 0.843517 0.238103
0.785081 0.906058 0.236582
0.784484 0.968763 0.23644
0.848437 0.781177 0.238484
0.848159 0.843533 0.238271
0.847479 0.906092 0.236477
0.846966 0.968597 0.236431
0.910982 0.78131 0.238455
0.911064 0.843457 0.238092
0.910051 0.906043 0.23658
0.909466 0.968776 0.2364
0.973363 0.781077 0.238456
0.973115 0.843519 0.238278
0.972512 0.906186 0.236477
0.972033 0.968567 0.236433
0.910084 0.780544 0.499757
0.785788 0.781086 0.275766
0.785517 0.843724 0.275657
0.784831 0.906406 0.273826
0.78425 0.968759 0.273767
0.848328 0.781236 0.275803
0.848405 0.84366 0.275451
0.847397 0.906157 0.273892
0.84679 0.968858 0.273714
0.910783 0.781134 0.275786
0.910489 0.843667 0.275667
0.909839 0.906276 0.273825
0.90924 0.96875 0.273741
0.973328 0.781223 0.27579
0.973481 0.843572 0.275447
0.972348 0.90612 0.273899
0.971811 0.968869 0.273709
0.785853 0.781277 0.313099
0.78596 0.84367 0.312779
0.784913 0.906275 0.311201
0.784167 0.968981 0.31105
0.848236 0.781139 0.313059
0.848065 0.843695 0.31294
0.84734 0.906355 0.311191
0.846633 0.968889 0.311075
0.910809 0.781252 0.313074
0.910966 0.843611 0.312787
0.909872 0.906197 0.311211
0.909167 0.968951 0.311007
0.973202 0.781088 0.313083
0.972957 0.843675 0.312958
0.972281 0.906334 0.311157
0.971607 0.968779 0.311038
0.785702 0.781096 0.35047
0.785442 0.843665 0.350209
0.784933 0.906341 0.348473
0.784101 0.968826 0.348425
0.848292 0.781237 0.350451
0.848345 0.843588 0.350091
0.847464 0.906124 0.348553
0.84668 0.968899 0.348346
0.910705 0.781114 0.350427
0.910481 0.843633 0.350261
0.909882 0.906332 0.348429
0.909151 0.968777 0.34838
0.97319 0.781148 0.350405
0.973341 0.843513 0.35012
0.972435 0.906111 0.348544
0.971696 0.968892 0.348373
0.785624 0.781084 0.387751
0.785817 0.84355 0.387385
0.784844 0.906137 0.385867
0.784141 0.968931 0.385698
0.848015 0.781056 0.387755
0.847904 0.843651 0.387563
0.847309 0.906306 0.385818
0.846611 0.96878 0.385716
0.91064 0.781049 0.387729
0.910749 0.843513 0.387399
0.909827 0.906128 0.385895
0.909134 0.968913 0.385691
0.973077 0.781063 0.387739
0.972856 0.843583 0.387543
0.972253 0.906321 0.385794
0.971602 0.968779 0.385734
0.785467 0.780988 0.425044
0.785144 0.843597 0.424865
0.784524 0.906281 0.423137
0.783897 0.968814 0.423058
0.848022 0.781018 0.425088
0.848057 0.843465 0.424689
0.847064 0.906035 0.423215
0.846389 0.968775 0.423022
0.910463 0.780915 0.42498
0.910227 0.843549 0.424849
0.909577 0.906266 0.423166
0.908831 0.968747 0.423046
0.973041 0.781003 0.425053
0.973039 0.843446 0.424705
0.972075 0.906065 0.423236
0.971361 0.968891 0.423024
0.785408 0.78099 0.462422
0.785245 0.843397 0.46216
0.784447 0.906062 0.460647
0.783831 0.968895 0.460394
0.847802 0.780826 0.462365
0.847415 0.843398 0.462203
0.84689 0.90618 0.460505
0.846342 0.968801 0.460383
0.910373 0.780954 0.462378
0.910252 0.843303 0.462111
0.909405 0.905999 0.460646
0.908833 0.968898 0.460394
0.972819 0.780744 0.462384
0.972327 0.84339 0.462214
0.971951 0.906264 0.460527
0.971302 0.968786 0.460404
0.78445 0.90623 0.497972
0.783883 0.96888 0.4978
0.846372 0.968901 0.497717
0.909397 0.906048 0.497981
0.908897 0.968762 0.497793
0.971331 0.9689 0.497731
0.784708 0.843364 0.499701
0.785067 0.780601 0.499799
0.971886 0.905949 0.497999
0.846941 0.905955 0.498031
0.909758 0.843253 0.499659
0.972655 0.780572 0.499812
0.847515 0.84324 0.499575
0.972539 0.843126 0.499565
0.847611 0.780641 0.499803
0.784901 0.780348 0.537277
0.784852 0.843005 0.536958
0.784438 0.906054 0.535414
0.783986 0.96941 0.535128
0.847433 0.780312 0.537204
0.847144 0.843095 0.537052
0.846881 0.906331 0.53533
0.846601 0.969154 0.535107
0.909959 0.780222 0.537244
0.909776 0.84293 0.536917
0.909389 0.90597 0.535429
0.908936 0.969335 0.535128
0.972428 0.780243 0.537146
0.97206 0.843025 0.537005
0.971932 0.906348 0.535311
0.971638 0.969094 0.535069
0.784726 0.779594 0.5748
0.784694 0.842378 0.574453
0.784325 0.906005 0.572626
0.784081 0.969518 0.572628
0.847321 0.779378 0.574755
0.847248 0.842427 0.574345
0.846781 0.905871 0.572729
0.846567 0.969494 0.572703
0.909667 0.779468 0.574718
0.909679 0.842317 0.574384
0.909364 0.9059 0.572608
0.909068 0.969462 0.572592
0.972342 0.779298 0.574665
0.972265 0.842263 0.57427
0.971777 0.905806 0.572682
0.971586 0.969574 0.572602
0.784662 0.779586 0.613534
0.784715 0.842042 0.612501
0.784295 0.905758 0.610466
0.784092 0.969618 0.610832
0.847281 0.779811 0.613578
0.846939 0.841975 0.61247
0.846681 0.90586 0.61037
0.846742 0.969497 0.610766
0.909653 0.779635 0.613599
0.909654 0.84185 0.612383
0.909296 0.905628 0.610424
0.909089 0.969634 0.610764
0.972211 0.779683 0.613636
0.971917 0.841744 0.612402
0.971672 0.905752 0.610372
0.971746 0.969453 0.610791
0.784533 0.780647 0.653304
0.784801 0.842946 0.65152
0.784225 0.905909 0.648629
0.784402 0.970215 0.648946
0.847087 0.780937 0.653527
0.847321 0.843237 0.651919
0.847015 0.905686 0.648694
0.846719 0.970201 0.648966
0.909484 0.780821 0.653569
0.909595 0.843167 0.652015
0.909242 0.905717 0.648635
0.909291 0.970075 0.648983
0.97197 0.780903 0.653487
0.972044 0.843082 0.651847
0.971864 0.905609 0.648642
0.971686 0.97016 0.648991
0.784281 0.781953 0.694219
0.78433 0.844648 0.692546
0.784399 0.906742 0.687804
0.78431 0.96959 0.689415
0.846814 0.78195 0.694256
0.846561 0.844379 0.69313
0.846288 0.907305 0.688087
0.846735 0.969727 0.689398
0.909557 0.781913 0.694215
0.910113 0.844292 0.693259
0.910275 0.907481 0.688199
0.909391 0.969724 0.689352
0.972098 0.78204 0.694239
0.972351 0.844751 0.692873
0.972307 0.906913 0.687907
0.972035 0.969529 0.689274
0.784188 0.782196 0.735602
0.784031 0.844461 0.735302
0.784229 0.907442 0.730554
0.784465 0.969382 0.730785
0.846807 0.782341 0.735387
0.84785 0.844766 0.734864
0.847952 0.906897 0.730389
0.847065 0.969317 0.730646
0.909342 0.782422 0.735243
0.908586 0.845357 0.734436
0.908934 0.906458 0.730221
0.909477 0.969307 0.730662
0.972006 0.782151 0.735444
0.971818 0.844452 0.735336
0.97161 0.907773 0.730485
0.972004 0.969446 0.73069
0.784652 0.781989 0.777062
0.784844 0.843986 0.777058
0.784602 0.907157 0.772164
0.784591 0.969605 0.772114
0.847028 0.782171 0.776951
0.846904 0.84457 0.777261
0.847172 0.906877 0.772552
0.847066 0.969498 0.772142
0.909577 0.782033 0.77695
0.909465 0.844661 0.776667
0.909554 0.907303 0.772077
0.909622 0.96948 0.772155
0.971976 0.782084 0.776952
0.971611 0.844654 0.776711
0.971355 0.906766 0.772085
0.971986 0.969385 0.7721
0.784496 0.782219 0.818531
0.784221 0.844423 0.81875
0.784597 0.907085 0.814348
0.784691 0.969691 0.813705
0.847041 0.782205 0.818435
0.846645 0.84477 0.818243
0.847062 0.907016 0.813691
0.847189 0.969637 0.813496
0.909486 0.782145 0.818426
0.909398 0.844326 0.818502
0.909278 0.907696 0.813542
0.909598 0.969792 0.813418
0.971997 0.78233 0.818465
0.97277 0.844885 0.818423
0.972932 0.907172 0.814015
0.972144 0.969838 0.813534
0.784434 0.782049 0.859502
0.784368 0.844712 0.860294
0.784481 0.907141 0.855577
0.784584 0.970072 0.854551
0.846933 0.781855 0.859484
0.8465 0.844322 0.860329
0.846752 0.90745 0.855417
0.847108 0.970022 0.854497
0.909562 0.781891 0.859469
0.909809 0.844507 0.860132
0.909594 0.907369 0.855183
0.909629 0.970115 0.854407
0.972049 0.781856 0.859413
0.971598 0.844549 0.8603
0.97168 0.907609 0.855425
0.972042 0.970158 0.854484
0.784674 0.782051 0.899602
0.784664 0.846239 0.899871
0.784604 0.908465 0.896414
0.784691 0.970839 0.894933
0.847084 0.78199 0.899629
0.847258 0.846112 0.899916
0.847057 0.9084 0.896228
0.847199 0.971032 0.894905
0.909704 0.781958 0.899573
0.909662 0.846258 0.899958
0.909529 0.908535 0.896424
0.909622 0.970851 0.894978
0.972096 0.782005 0.899602
0.972237 0.846081 0.89986
0.97203 0.908489 0.896246
0.972189 0.970977 0.894953
0.784839 0.782772 0.937966
0.785153 0.84618 0.938347
0.78477 0.909868 0.935982
0.784653 0.971715 0.934787
0.847638 0.782599 0.937958
0.847341 0.846415 0.938272
0.847371 0.909688 0.936097
0.847112 0.971727 0.934846
0.909888 0.782763 0.938024
0.910186 0.846227 0.938329
0.909825 0.909823 0.935893
0.90962 0.97174 0.934755
0.972677 0.782613 0.937947
0.97241 0.846392 0.938296
0.972433 0.909596 0.935941
0.97216 0.971712 0.93477
0.785392 0.782762 0.976139
0.785283 0.846256 0.976127
0.784977 0.909442 0.974358
0.784757 0.971913 0.973856
0.847914 0.782866 0.976178
0.84797 0.846152 0.976137
0.847541 0.90939 0.974153
0.847355 0.971799 0.973871
0.910429 0.782704 0.976116
0.910242 0.846264 0.976044
0.910012 0.90938 0.97429
0.90986 0.97187 0.973743
0.972947 0.782814 0.976186
0.972918 0.846134 0.976187
0.972533 0.909402 0.974205
0.972416 0.971799 0.973742
0.00383284 9.84418e-04 0.0306088
0.00363877 0.0629058 0.0306568
0.00346985 0.124864 0.0307126
0.00329595 0.186942 0.0308538
0.00342492 0.249225 0.0310402
0.0661176 8.99521e-04 0.0305006
0.066185 0.0630472 0.0307051
0.0660106 0.12501 0.0307207
0.0661209 0.186764 0.0309441
0.065892 0.249466 0.0308679
0.128767 0.00108868 0.0305972
0.12851 0.0628997 0.0305918
0.128434 0.124857 0.0306831
0.128328 0.186907 0.0308824
0.128455 0.249318 0.0309561
0.191144 9.57663e-04 0.0304556
0.191116 0.0630988 0.0306683
0.190882 0.125014 0.0306717
0.190964 0.186879 0.0309923
0.19078 0.249572 0.0308579
0.00354862 0.0623469 0.0684905
0.00329115 0.124778 0.0686202
0.00348454 0.187079 0.0686509
0.127766 0.125232 0.217864
0.0660295 0.0624581 0.0685088
0.0658953 0.124756 0.0686413
0.0656397 0.187249 0.0687084
0.0657774 0.249619 0.0686758
0.128615 0.0624074 0.068464
0.128306 0.124951 0.0686036
0.128407 0.187169 0.0686821
0.0661528 2.34267e-04 0.0683745
0.190902 0.0625287 0.0685637
0.190831 0.124831 0.0686075
0.190563 0.18723 0.0686639
0.190759 0.249581 0.0686114
0.00325942 0.0625013 0.105978
0.00328649 0.124668 0.106008
0.00280247 0.187538 0.106073
0.190152 0.187743 0.217856
0.0660672 0.0622187 0.105937
0.0654778 0.124989 0.106016
0.0656485 0.187226 0.106012
0.128525 1.29191e-04 0.0684007
0.128297 0.0625393 0.105985
0.128283 0.124803 0.105999
0.127906 0.187441 0.106058
0.0035649 1.04019e-04 0.0684583
0.190946 0.0622909 0.105938
0.190526 0.124947 0.105949
0.190687 0.187279 0.106086
0.00315181 0.249861 0.0685289
0.003337 0.0623131 0.143266
0.00293334 0.124945 0.143316
0.00290059 0.187312 0.143335
0.0655696 0.0624955 0.143367
0.0656383 0.124828 0.143332
0.0652098 0.187455 0.14336
0.128058 0.249862 0.0685577
0.128329 0.0623875 0.143279
0.127914 0.124844 0.143342
0.127933 0.187247 0.143402
0.190446 0.0624566 0.143356
0.190492 0.124759 0.143257
0.19024 0.187503 0.143361
0.190357 0.124977 0.217901
0.00288059 0.0626327 0.180681
0.00282177 0.124891 0.180638
0.00275069 0.187629 0.180567
0.191069 8.19282e-05 0.0684057
0.0655039 0.0624039 0.180663
0.065308 0.125043 0.180584
0.0653476 0.187344 0.180626
0.127929 0.0624974 0.180714
0.12786 0.124836 0.18062
0.127723 0.187568 0.18059
0.190389 0.0623971 0.218017
0.190715 0.0623465 0.180677
0.190265 0.125037 0.180632
0.190413 0.187407 0.180639
0.00310422 1.01735e-04 0.217985
0.00307269 0.0625015 0.217991
0.00281853 0.125219 0.217877
0.00276855 0.18754 0.217938
0.0654147 0.0625784 0.217901
0.06541 0.124965 0.217915
0.0651674 0.187736 0.217856
0.127989 0.187419 0.217937
0.127976 0.0624627 0.217905
0.128079 8.10028e-05 0.218019
0.00311357 0.24977 0.106003
0.0659383 8.85454e-05 0.105927
0.190915 7.04222e-05 0.105925
0.128221 9.77262e-05 0.143299
0.127722 0.249982 0.180614
0.12806 0.249771 0.106084
0.00324024 1.01069e-04 0.143329
0.190548 1.99253e-04 0.180688
0.0653374 0.249821 0.143389
0.190428 0.249902 0.143353
0.0656259 1.66166e-04 0.180681
0.127354 0.0632445 0.479124
0.189919 4.07646e-04 0.479271
0.0646203 0.188307 0.479213
0.189598 0.188303 0.479188
0.189938 0.0631536 0.479185
0.189852 0.125919 0.479052
0.0648842 0.125918 0.479109
0.00286423 0.0626067 0.255164
0.00284103 0.124981 0.255136
0.00266751 0.187648 0.255135
0.0655357 0.0626573 0.255216
0.0652153 0.125078 0.255113
0.0653057 0.187411 0.255228
0.0649574 4.06417e-04 0.404561
0.127852 0.0626306 0.255197
0.127783 0.124991 0.2551
0.127523 0.187747 0.255092
0.190497 2.02174e-05 0.255297
0.190459 0.0626157 0.255197
0.190219 0.125223 0.255111
0.190252 0.187497 0.255233
0.00275744 3.38269e-04 0.292528
0.00273966 0.0627347 0.292499
0.00274782 0.125303 0.292412
0.00276163 0.187498 0.292508
0.065173 0.0627255 0.292532
0.0652693 0.124997 0.292495
0.0651258 0.187797 0.292459
0.127811 0.0626659 0.292562
0.127731 0.125215 0.292444
0.127658 0.187447 0.292493
0.127734 2.603e-04 0.29265
0.190221 0.0627316 0.292484
0.190247 0.125086 0.292514
0.190016 0.187802 0.292404
0.00261351 0.0629194 0.329846
0.00275226 0.125183 0.329787
0.00247028 0.187871 0.329814
0.0651813 3.94771e-04 0.329949
0.06511 0.0628458 0.329837
0.065169 0.125459 0.329866
0.0650561 0.18754 0.329879
0.127647 0.0628508 0.329863
0.12762 0.125136 0.329833
0.127481 0.187937 0.329794
0.190212 4.42792e-04 0.329982
0.190211 0.0627922 0.329967
0.190116 0.125379 0.329835
0.190069 0.187599 0.329882
0.00264925 3.98805e-04 0.367246
0.00261715 0.0627679 0.367177
0.00251304 0.125496 0.367197
0.00240903 0.187669 0.36716
0.127224 0.188518 0.479031
0.0650486 0.0629203 0.367203
0.065046 0.125286 0.367204
0.0648769 0.187987 0.367127
0.127632 0.062812 0.367241
0.127475 0.125399 0.36718
0.127435 0.187748 0.367246
0.127386 4.18399e-04 0.47931
0.190065 0.062899 0.367228
0.189983 0.125289 0.367236
0.189781 0.188036 0.36717
0.00239372 0.0629423 0.404546
0.00233214 0.125271 0.404539
0.00218397 0.187985 0.404488
0.189974 2.79143e-04 0.442011
0.0649627 0.0628329 0.404577
0.0648191 0.125471 0.404573
0.0645873 0.187754 0.404553
0.127339 0.125709 0.479113
0.127385 0.0628679 0.404559
0.127287 0.125217 0.404523
0.126932 0.187961 0.404458
0.189974 5.23532e-04 0.404629
0.1899 0.0627771 0.404555
0.18978 0.125435 0.404583
0.189663 0.187735 0.404521
0.00240429 4.64237e-04 0.441879
0.00249259 0.0628462 0.441845
0.00217318 0.125525 0.441854
0.00213491 0.188045 0.44184
0.190218 1.02967e-04 0.292683
0.0648872 0.0630561 0.441847
0.0648342 0.125405 0.441794
0.0645269 0.188172 0.441735
0.127424 3.96599e-04 0.441947
0.127522 0.062827 0.441909
0.127262 0.125571 0.441856
0.12711 0.188005 0.441879
0.0655512 1.15981e-04 0.255262
0.189895 0.0629438 0.441881
0.189796 0.125383 0.441799
0.189621 0.188226 0.441746
0.00233903 0.0633006 0.479185
0.00242846 0.125739 0.47917
0.00220314 0.188437 0.479019
0.0649274 5.08464e-04 0.479256
0.0648168 0.0632017 0.479131
0.12755 2.81317e-04 0.404632
0.190204 2.93278e-04 0.367402
0.00271074 1.85705e-04 0.40469
0.127635 3.52041e-04 0.367293
0.0653517 4.12481e-05 0.292658
0.0652208 3.34407e-04 0.367395
0.00273522 1.9823e-04 0.329994
0.00247373 3.52551e-04 0.479277
0.12768 2.59929e-04 0.330059
0.0650316 3.21125e-04 0.44198
0.00240852 6.33323e-04 0.516459
0.00234277 0.0632517 0.516404
0.00219199 0.126132 0.516325
0.00212795 0.188635 0.516403
0.0649328 4.54194e-04 0.516496
0.0648122 0.0633996 0.516417
0.0647906 0.12607 0.516315
0.0645608 0.188889 0.516411
0.127238 6.99239e-04 0.516454
0.127424 0.0632362 0.516434
0.127187 0.126102 0.516346
0.127161 0.188612 0.516365
0.189971 4.75115e-04 0.516525
0.18978 0.0634305 0.516415
0.189774 0.126002 0.516303
0.189502 0.188704 0.516343
0.00245558 7.58187e-04 0.55356
0.00246986 0.063662 0.553608
0.00239895 0.126568 0.553597
0.00239626 0.188702 0.553728
0.0652562 7.76431e-04 0.553592
0.0648938 0.063945 0.553566
0.0648689 0.126627 0.55367
0.0648653 0.189104 0.553646
0.127448 8.62132e-04 0.553678
0.127346 0.0637539 0.553601
0.127357 0.126576 0.553546
0.127322 0.188743 0.553695
0.190153 8.04084e-04 0.553589
0.189897 0.0639912 0.553607
0.189888 0.126476 0.553624
0.189907 0.189042 0.553641
0.00384928 0.00211165 0.992299
0.00367807 0.0637157 0.992028
0.00375124 0.12539 0.992229
0.0036299 0.186836 0.992479
0.00361775 0.248836 0.992906
0.0663096 0.00197002 0.992327
0.0661889 0.0638739 0.992118
0.0660424 0.125322 0.992328
0.066066 0.187021 0.99249
0.0662632 0.248846 0.993053
0.128793 0.00206534 0.992327
0.128596 0.0636431 0.992033
0.128536 0.125547 0.992257
0.128519 0.187038 0.992536
0.128476 0.248993 0.992932
0.191214 0.00207437 0.992308
0.191187 0.0640099 0.992131
0.191057 0.125277 0.992292
0.191155 0.187003 0.99248
0.191162 0.248793 0.993095
0.00338057 0.31205 0.0308594
0.0037782 0.374608 0.0318315
0.00421058 0.437393 0.0326666
0.0658505 0.312035 0.0310308
0.0661511 0.374851 0.031861
0.0667314 0.437897 0.0326069
0.128337 0.312096 0.030882
0.128662 0.374581 0.0318185
0.129019 0.437295 0.0326523
0.190794 0.312087 0.031091
0.191168 0.374868 0.0319631
0.191639 0.437912 0.0326493
0.00324016 0.312408 0.0685292
0.00366109 0.375258 0.0692827
0.00433213 0.437782 0.0699269
0.0655549 0.312426 0.0682808
0.0661105 0.374749 0.0692554
0.0667396 0.437379 0.0699302
0.12815 0.312411 0.0685144
0.128578 0.375293 0.0694038
0.129264 0.437746 0.0699795
0.19058 0.31239 0.0683638
0.191027 0.374703 0.0692816
0.191736 0.437394 0.0699705
0.0028993 0.312569 0.105639
0.0035493 0.37491 0.106699
0.00411076 0.437604 0.107204
0.0654909 0.312574 0.105962
0.0659725 0.375385 0.106705
0.0665808 0.437895 0.107386
0.127969 0.312666 0.105745
0.128575 0.374883 0.106659
0.129262 0.437617 0.10724
0.190481 0.312575 0.10603
0.191004 0.375368 0.106729
0.19162 0.437881 0.107333
0.00280989 0.250219 0.143261
0.00262302 0.312586 0.143324
0.00319623 0.375368 0.143988
0.00391838 0.437945 0.144648
0.0649871 0.312595 0.142986
0.0657012 0.374922 0.143964
0.0664828 0.437619 0.14452
0.127792 0.250181 0.143237
0.127661 0.312661 0.143314
0.128259 0.375343 0.14406
0.129035 0.437908 0.144669
0.190065 0.312594 0.143036
0.190857 0.374927 0.143974
0.191559 0.437669 0.144597
0.190478 0.250008 0.105934
0.00249303 0.312666 0.180283
0.00313085 0.375063 0.181302
0.00383263 0.437646 0.18185
0.0652353 0.250134 0.180562
0.0649299 0.312742 0.180555
0.0655945 0.375524 0.181386
0.0664316 0.438018 0.181986
0.19072 0.375102 0.218663
0.127523 0.312638 0.180299
0.128086 0.375053 0.181321
0.128839 0.437627 0.181823
0.190194 0.250142 0.1806
0.189979 0.3127 0.180576
0.190627 0.375411 0.181416
0.19141 0.438028 0.182023
0.00270184 0.250405 0.217848
0.00233155 0.312915 0.217894
0.00317783 0.375685 0.218665
0.00392889 0.438142 0.219353
0.189949 0.312753 0.217537
0.0649233 0.312805 0.21755
0.0657452 0.375258 0.218642
0.0665047 0.437652 0.219161
0.127702 0.250331 0.217857
0.127395 0.312927 0.217873
0.128123 0.375622 0.218728
0.128943 0.438125 0.219267
0.191502 0.437671 0.219153
0.0654256 0.250104 0.105878
0.0652319 0.250171 0.217937
0.190224 0.2502 0.217914
0.00270326 0.250131 0.180654
0.190369 0.375826 0.48059
0.00234813 0.312836 0.254869
0.00307618 0.375266 0.255923
0.00382775 0.437716 0.256516
0.065134 0.250361 0.255084
0.0646591 0.313137 0.255162
0.0656019 0.375697 0.255961
0.0664086 0.438105 0.256688
0.127294 0.312818 0.254833
0.128132 0.375263 0.255876
0.128838 0.437634 0.256468
0.190035 0.250291 0.255116
0.189704 0.312923 0.255127
0.190642 0.375659 0.255975
0.191351 0.438031 0.256605
0.00258586 0.250293 0.292297
0.00223052 0.312798 0.292451
0.00292225 0.375473 0.293307
0.00373002 0.437868 0.293909
0.0647025 0.312815 0.292107
0.0654707 0.375246 0.293189
0.066164 0.437574 0.293758
0.127411 0.250334 0.292294
0.127241 0.312712 0.292455
0.127957 0.375477 0.293287
0.128825 0.437806 0.293966
0.189662 0.312812 0.292112
0.190523 0.375101 0.293265
0.191177 0.437491 0.293768
0.00226397 0.312766 0.329425
0.00300513 0.375096 0.330545
0.00356556 0.437382 0.33106
0.0648672 0.250406 0.329625
0.0647701 0.312789 0.329744
0.0654776 0.375348 0.330656
0.0662595 0.437782 0.33122
0.127185 0.312763 0.329441
0.128037 0.37497 0.330566
0.128579 0.437328 0.331029
0.18987 0.250312 0.329658
0.189762 0.312783 0.329781
0.190533 0.375376 0.330645
0.191284 0.43785 0.331156
0.00223863 0.250496 0.367004
0.00223256 0.313026 0.367161
0.00316777 0.375448 0.368034
0.00389206 0.437864 0.368634
0.0646594 0.312917 0.366833
0.0657324 0.375079 0.367948
0.0660812 0.437499 0.368491
0.127137 0.250473 0.366999
0.127164 0.312906 0.367171
0.128156 0.375437 0.368015
0.12896 0.437897 0.368571
0.0645672 0.250324 0.367129
0.189665 0.3128 0.366826
0.190703 0.375068 0.367907
0.191095 0.437415 0.368391
0.00199868 0.250421 0.404453
0.00197921 0.312967 0.40421
0.00300811 0.375064 0.405374
0.00351847 0.437444 0.405928
0.064499 0.250602 0.40428
0.0644952 0.312979 0.404548
0.0655287 0.375516 0.405454
0.066324 0.437807 0.405835
0.126939 0.250379 0.404485
0.126913 0.312965 0.404303
0.128023 0.375096 0.405367
0.12851 0.437503 0.405892
0.127261 0.250227 0.329767
0.189427 0.250515 0.40431
0.189529 0.312941 0.404528
0.190461 0.375339 0.405419
0.191299 0.437824 0.405913
0.0018784 0.250849 0.441755
0.00210754 0.313214 0.441958
0.00291016 0.375568 0.442999
0.00377421 0.43772 0.443392
0.0643689 0.25071 0.44179
0.0643516 0.313103 0.441731
0.0653356 0.375262 0.442719
0.0659505 0.437509 0.443297
0.189566 0.313618 0.47945
0.126897 0.250749 0.441766
0.127003 0.31318 0.441958
0.127981 0.375509 0.443011
0.128584 0.437799 0.443449
0.00235804 0.250356 0.329737
0.1893 0.250701 0.441794
0.18926 0.313052 0.441788
0.190393 0.375191 0.442764
0.190981 0.437445 0.443395
0.191215 0.437912 0.480915
0.0019201 0.250988 0.479212
0.00204675 0.313315 0.479272
0.00286883 0.375636 0.480274
0.0033733 0.437786 0.480999
0.189285 0.251005 0.479042
0.0643741 0.251165 0.479124
0.0645753 0.313588 0.479408
0.0653519 0.375895 0.480571
0.0661241 0.437961 0.480925
0.126784 0.251009 0.479198
0.12699 0.313515 0.479273
0.127934 0.375506 0.480283
0.128394 0.43783 0.481017
0.189518 0.250353 0.36711
0.00263507 0.250109 0.255195
0.064987 0.25016 0.292405
0.128685 0.499872 0.44335
0.18997 0.250156 0.292446
0.127618 0.250114 0.25515
0.066165 0.499944 0.443311
0.191405 0.499973 0.331191
0.00368506 0.499934 0.443374
0.191074 0.499952 0.405936
0.191276 0.499988 0.443327
0.128719 0.499999 0.368546
0.00197769 0.251389 0.516415
0.00226436 0.314117 0.516844
0.0027973 0.376563 0.518148
0.00342427 0.438628 0.518702
0.0644093 0.251536 0.516598
0.0645276 0.314003 0.516902
0.0653386 0.37623 0.517566
0.065841 0.438595 0.518586
0.126881 0.2514 0.51638
0.127256 0.314082 0.516843
0.127755 0.376552 0.518084
0.128401 0.438526 0.518688
0.189337 0.251425 0.516512
0.189444 0.313998 0.516916
0.190326 0.376224 0.517618
0.190904 0.438585 0.51857
0.00206344 0.251477 0.553747
0.0022105 0.314231 0.554209
0.00294512 0.377062 0.555328
0.00312719 0.439709 0.556616
0.0648427 0.251184 0.553726
0.0648678 0.314326 0.554213
0.065243 0.3775 0.555316
0.0656578 0.439805 0.556615
0.127013 0.251412 0.553727
0.127414 0.314262 0.554194
0.127835 0.377057 0.555339
0.128013 0.439737 0.556505
0.189803 0.251172 0.553754
0.189865 0.314298 0.554215
0.190287 0.377342 0.555263
0.190617 0.439813 0.556564
0.00357116 0.311415 0.993566
0.00386019 0.374772 0.994384
0.00406679 0.437713 0.995345
0.0660169 0.311523 0.993284
0.0661824 0.374043 0.99457
0.0666143 0.437506 0.995432
0.128591 0.311518 0.993523
0.128826 0.374679 0.99445
0.129027 0.437725 0.995388
0.191125 0.311569 0.993237
0.191186 0.374071 0.99463
0.191559 0.437586 0.995438
0.00429258 0.500732 0.0327557
0.0042867 0.563351 0.0327648
0.00445721 0.626255 0.0328652
0.00455241 0.688687 0.0327747
0.0667314 0.50047 0.0327603
0.0668513 0.563615 0.0329082
0.0669098 0.626196 0.032909
0.06723 0.688855 0.0328314
0.129229 0.500754 0.0328006
0.129328 0.56346 0.0328702
0.12934 0.62634 0.0329184
0.129585 0.688721 0.0327635
0.191724 0.500522 0.0328079
0.191797 0.563539 0.0328763
0.191891 0.626199 0.0329461
0.192161 0.688788 0.0329088
0.00438415 0.500484 0.0699929
0.00437904 0.563388 0.0701074
0.00438206 0.625716 0.0701271
0.00462865 0.688569 0.0701766
0.0669111 0.500588 0.0700562
0.0669245 0.563183 0.0700818
0.0669731 0.625965 0.0701597
0.0671934 0.688405 0.0700276
0.129413 0.500462 0.0699844
0.129362 0.563341 0.0701543
0.129369 0.625798 0.070086
0.129587 0.688545 0.0702071
0.191891 0.50052 0.0700066
0.191848 0.563112 0.0701371
0.191859 0.625936 0.0702218
0.192163 0.688269 0.0699939
0.00443596 0.500535 0.107341
0.00446453 0.562941 0.107355
0.00468071 0.625652 0.10736
0.00485169 0.688001 0.107386
0.0668829 0.50033 0.107262
0.0670003 0.563115 0.107428
0.0670208 0.625557 0.107386
0.0674586 0.68826 0.107481
0.129483 0.500502 0.107334
0.129363 0.562927 0.107433
0.129624 0.625712 0.107423
0.129801 0.688033 0.107458
0.191671 0.500564 0.219401
0.192034 0.563042 0.107402
0.192047 0.625627 0.10744
0.192336 0.688213 0.107483
0.191744 0.562968 0.219344
0.00452344 0.562955 0.144743
0.00456878 0.625437 0.144689
0.00474707 0.688105 0.144817
0.066933 0.50046 0.144736
0.0669901 0.56285 0.144696
0.0670594 0.625665 0.14467
0.0672468 0.687878 0.144717
0.129258 0.625301 0.219366
0.129458 0.562983 0.144734
0.129606 0.625363 0.144645
0.129862 0.688107 0.144779
0.191809 0.500515 0.144686
0.191971 0.56283 0.14466
0.192086 0.625552 0.144699
0.192264 0.687894 0.144751
0.00417168 0.500474 0.182012
0.00428839 0.562897 0.182022
0.00439399 0.625413 0.182062
0.00447317 0.687798 0.181993
0.191864 0.687833 0.219395
0.0668844 0.563088 0.182042
0.0669408 0.625364 0.181956
0.0671838 0.688079 0.182086
0.129161 0.500526 0.182075
0.129291 0.562879 0.181996
0.129478 0.625518 0.182034
0.12955 0.687808 0.182004
0.129489 0.687936 0.219462
0.191817 0.563063 0.182091
0.191921 0.625428 0.182052
0.19219 0.688017 0.182157
0.191849 0.625586 0.219442
0.00432204 0.563033 0.219403
0.00427718 0.625266 0.219373
0.00440608 0.687942 0.219482
0.0666775 0.500537 0.219373
0.0666927 0.56295 0.219314
0.0669507 0.625503 0.219423
0.066912 0.687604 0.219427
0.129259 0.562945 0.219337
0.191852 0.500393 0.107229
0.129283 0.500284 0.144706
0.0666736 0.500383 0.181912
0.191689 0.500404 0.181892
0.00431463 0.500293 0.144642
0.129136 0.500322 0.219236
0.00415952 0.500329 0.21929
0.00417613 0.500388 0.256749
0.00418894 0.562894 0.256772
0.00421338 0.625403 0.256797
0.00423418 0.687555 0.256742
0.0667197 0.562923 0.25683
0.0667439 0.62519 0.256746
0.0667934 0.687881 0.256828
0.129125 0.500409 0.256678
0.129175 0.56295 0.256759
0.129244 0.6254 0.256789
0.129282 0.687637 0.256799
0.191768 0.687132 0.480612
0.191645 0.5629 0.256751
0.191736 0.625285 0.256766
0.191785 0.687839 0.256875
0.128953 0.686923 0.480655
0.00410349 0.562785 0.294053
0.00411415 0.625161 0.294098
0.00437919 0.687719 0.294125
0.0664882 0.500354 0.293992
0.0665211 0.562841 0.294027
0.0668121 0.62541 0.294108
0.0667546 0.687498 0.294124
0.191466 0.749529 0.480692
0.129135 0.562802 0.294059
0.129157 0.625129 0.294043
0.129424 0.687763 0.294207
0.191484 0.500201 0.293926
0.191514 0.562755 0.294052
0.191753 0.625295 0.294103
0.191654 0.687625 0.294084
0.00394094 0.500279 0.331287
0.00397644 0.562614 0.331352
0.00429175 0.62523 0.331433
0.00410106 0.687398 0.331356
0.129077 0.624686 0.480709
0.0666282 0.562791 0.331322
0.0665476 0.625017 0.331362
0.0667582 0.687755 0.331449
0.128998 0.500132 0.331293
0.129 0.562659 0.331361
0.12921 0.625244 0.331372
0.129136 0.687511 0.331361
0.191607 0.562772 0.331355
0.191577 0.625063 0.331388
0.191803 0.687786 0.331401
0.00409128 0.562583 0.368621
0.00413488 0.624905 0.368686
0.00430406 0.687617 0.36881
0.191446 0.624602 0.480619
0.0663977 0.562486 0.36864
0.0667171 0.625177 0.368697
0.0665521 0.687412 0.368681
0.129081 0.562574 0.3686
0.129088 0.624932 0.368742
0.129294 0.687589 0.368675
0.00421308 0.749726 0.48083
0.191348 0.562417 0.368541
0.1917 0.625051 0.36868
0.191586 0.687419 0.368677
0.129243 0.749723 0.480809
0.00371733 0.562366 0.405929
0.00410557 0.624899 0.405909
0.00410665 0.68727 0.40596
0.0665559 0.562459 0.405905
0.0665651 0.624864 0.405979
0.0668469 0.687542 0.405953
0.128776 0.562348 0.40592
0.129089 0.624816 0.405915
0.129166 0.6873 0.405928
0.191479 0.562411 0.405905
0.191555 0.624761 0.405988
0.191841 0.68753 0.405968
0.0039478 0.562323 0.443205
0.00402305 0.624716 0.443265
0.00431517 0.687395 0.443318
0.191367 0.562375 0.480742
0.0662686 0.562291 0.443257
0.0666042 0.624956 0.44333
0.0667173 0.68722 0.443298
0.128988 0.562338 0.443193
0.128937 0.624743 0.443235
0.12934 0.687413 0.443277
0.128696 0.500027 0.480859
0.191279 0.562353 0.443208
0.191684 0.624937 0.443314
0.191545 0.687059 0.443235
0.00369393 0.562249 0.480732
0.00409897 0.624651 0.480716
0.00395078 0.68693 0.480652
0.00369995 0.500142 0.480824
0.0664363 0.562383 0.480717
0.0663765 0.624528 0.480584
0.0667231 0.687191 0.480636
0.0665704 0.749577 0.480791
0.128634 0.56228 0.48072
0.0665604 0.500185 0.368589
0.128876 0.500097 0.293909
0.129121 0.749862 0.443305
0.0661909 0.500026 0.405943
0.0666089 0.5002 0.256634
0.0660498 0.500046 0.480868
0.191023 0.500071 0.480768
0.00388116 0.50001 0.405939
0.00385641 0.500111 0.293989
0.128937 0.500059 0.405986
0.191445 0.500122 0.368601
0.0041674 0.749737 0.443348
0.191576 0.500272 0.256657
0.0666656 0.749892 0.405989
0.066325 0.500013 0.331238
0.191771 0.74993 0.44346
0.0667392 0.749974 0.443499
0.191677 0.749882 0.405977
0.00376241 0.500045 0.368557
0.00343554 0.500836 0.518668
0.00377096 0.562731 0.518647
0.00391183 0.624608 0.518526
0.00394687 0.686823 0.518399
0.00393603 0.749279 0.51833
0.0660111 0.500817 0.518704
0.0660942 0.562849 0.518628
0.066374 0.624733 0.518624
0.0663894 0.686622 0.518369
0.066421 0.749351 0.518403
0.128243 0.501013 0.518687
0.128752 0.562703 0.518636
0.128878 0.624672 0.51854
0.128953 0.686825 0.518376
0.128895 0.749086 0.51837
0.191013 0.500763 0.518669
0.191262 0.562868 0.518563
0.191364 0.62473 0.518578
0.191361 0.686525 0.518297
0.191394 0.749359 0.518373
0.00329919 0.501688 0.557023
0.0034255 0.563365 0.557208
0.00352773 0.625138 0.557042
0.00358887 0.686614 0.556617
0.00363567 0.748685 0.556309
0.0658274 0.501761 0.557062
0.0658704 0.56359 0.557153
0.0662296 0.624947 0.556882
0.0661176 0.686651 0.556705
0.0659251 0.748578 0.556085
0.128207 0.501893 0.556934
0.128598 0.563476 0.557217
0.128606 0.625092 0.557012
0.128691 0.686582 0.556571
0.128621 0.748644 0.556251
0.190839 0.50178 0.556982
0.190947 0.563555 0.557137
0.191175 0.624922 0.556928
0.191256 0.68673 0.556708
0.191047 0.74863 0.556009
0.00424368 0.500862 0.995633
0.00421819 0.56373 0.995639
0.00421338 0.626457 0.995629
0.00444121 0.688703 0.995519
0.0664156 0.500856 0.995666
0.0667188 0.564063 0.995669
0.0667767 0.62651 0.995593
0.0668172 0.689091 0.995512
0.129176 0.50085 0.995657
0.129135 0.563667 0.995724
0.129313 0.626662 0.995688
0.129277 0.688677 0.995452
0.191352 0.5008 0.995748
0.19169 0.563879 0.995672
0.191687 0.62664 0.995607
0.191757 0.68899 0.995502
0.00493649 0.751444 0.0328016
0.00460837 0.814197 0.0323028
0.00425934 0.876416 0.0311016
0.00374887 0.938595 0.0305238
0.0673868 0.751572 0.0326759
0.0673396 0.813975 0.0322941
0.0665694 0.876233 0.0316054
0.0662988 0.938625 0.0306998
0.129934 0.75146 0.0327565
0.129641 0.814189 0.0323404
0.129258 0.876403 0.0310826
0.128774 0.938674 0.03053
0.192323 0.751417 0.0326556
0.192308 0.813864 0.032308
0.191666 0.876306 0.031594
0.19126 0.938744 0.030708
0.065861 0.937689 0.218003
0.00493849 0.751046 0.0699853
0.00483558 0.813488 0.069969
0.00403262 0.875592 0.0689666
0.00364873 0.937809 0.0682018
0.00479435 0.812692 0.219772
0.0674788 0.75108 0.0701249
0.0671899 0.813518 0.0697616
0.0665147 0.875939 0.068612
0.0658666 0.937859 0.068248
0.19085 0.937791 0.21802
0.129834 0.751072 0.0700145
0.129919 0.813521 0.0699147
0.129041 0.875601 0.0689657
0.128612 0.937779 0.0681527
0.0667751 0.875317 0.21856
0.192469 0.751035 0.0701186
0.192372 0.813509 0.0697694
0.191509 0.875988 0.0686007
0.190814 0.937877 0.0682393
0.00415303 0.874983 0.218708
0.00495998 0.750719 0.107406
0.00493747 0.813117 0.107251
0.00418534 0.875605 0.106248
0.00345101 0.93787 0.10581
0.128527 0.937262 0.218156
0.0675596 0.750736 0.107413
0.0675317 0.813043 0.107435
0.0666182 0.875271 0.106419
0.0661427 0.937482 0.105846
0.0670942 0.75039 0.219647
0.130064 0.750718 0.107461
0.12989 0.813118 0.107251
0.129127 0.8755 0.10626
0.128441 0.93783 0.105797
0.129074 0.875022 0.218662
0.192532 0.750747 0.107448
0.192742 0.813014 0.107384
0.191544 0.875345 0.106479
0.191197 0.937463 0.105925
0.12981 0.812722 0.219742
0.00490427 0.75044 0.144731
0.00511081 0.812886 0.144889
0.00405636 0.875159 0.143877
0.0036077 0.937495 0.143291
0.00347944 0.937464 0.218103
0.0674256 0.750401 0.144904
0.0675078 0.812863 0.144659
0.0665664 0.875511 0.143748
0.0658639 0.937782 0.14328
0.192148 0.750412 0.219606
0.130038 0.750506 0.144753
0.130076 0.812907 0.144939
0.129061 0.87515 0.14386
0.128518 0.937408 0.143369
0.0673884 0.75038 0.182101
0.192626 0.750567 0.14491
0.192581 0.813064 0.144696
0.191489 0.875529 0.143724
0.190808 0.937791 0.143234
0.192338 0.812834 0.219451
0.00481404 0.750375 0.182238
0.00493969 0.812868 0.182035
0.00407914 0.875415 0.181228
0.00319351 0.937749 0.180686
0.191699 0.875288 0.218588
0.0674631 0.812715 0.182315
0.0665216 0.875026 0.181235
0.0659427 0.937403 0.18079
0.00447785 0.750301 0.219465
0.129816 0.750488 0.182285
0.129921 0.812898 0.182056
0.128999 0.875371 0.181155
0.128371 0.937824 0.180612
0.0673399 0.812782 0.219445
0.192407 0.812778 0.182328
0.191631 0.875061 0.181223
0.190928 0.937453 0.180759
0.192322 0.750297 0.182141
0.128592 0.999874 0.105864
0.129552 0.75033 0.219492
0.191021 0.999902 0.143339
0.0035033 0.999898 0.105896
0.128254 0.999879 0.180793
0.190641 0.999897 0.218106
0.0657802 0.999964 0.218036
0.0659554 0.999892 0.143309
0.00328888 0.99997 0.180789
0.191433 0.8124 0.481028
0.00428418 0.750331 0.256921
0.00472866 0.812791 0.256819
0.00407421 0.875449 0.255917
0.00341746 0.93777 0.255303
0.0671513 0.812791 0.25712
0.066631 0.875078 0.25601
0.0659126 0.937347 0.255398
0.129488 0.750288 0.256968
0.129832 0.812723 0.256858
0.129197 0.875458 0.255966
0.12839 0.937707 0.255322
0.192356 0.812665 0.25712
0.191643 0.875014 0.256032
0.190909 0.937371 0.255422
0.190958 0.874833 0.47999
0.00468521 0.812785 0.294423
0.00404725 0.875204 0.293355
0.00319031 0.937517 0.292709
0.0669161 0.750377 0.294264
0.0672764 0.812904 0.294156
0.0664161 0.875525 0.293292
0.065583 0.937826 0.29259
0.129675 0.812739 0.294379
0.128915 0.875197 0.293366
0.128165 0.937535 0.292797
0.191913 0.750399 0.294222
0.192312 0.812775 0.29413
0.191504 0.875499 0.293269
0.190617 0.937869 0.292594
0.00427418 0.750364 0.331464
0.00466606 0.812815 0.331428
0.00396906 0.875498 0.330561
0.0030869 0.937953 0.329913
0.066878 0.750178 0.256843
0.0670404 0.812772 0.331761
0.0664437 0.87511 0.33064
0.0656297 0.937611 0.330101
0.129327 0.750382 0.331518
0.129729 0.812822 0.331447
0.128886 0.875529 0.330544
0.128 0.93799 0.329913
0.192089 0.81284 0.331763
0.191431 0.875104 0.330689
0.190572 0.937582 0.330117
0.00461063 0.812541 0.369052
0.00397621 0.875037 0.368
0.00311057 0.937569 0.367425
0.0668215 0.750284 0.368797
0.0671348 0.812769 0.368754
0.0664218 0.875424 0.367893
0.0655977 0.937929 0.367266
0.191873 0.750094 0.256863
0.129521 0.812587 0.369028
0.128885 0.875034 0.367981
0.128082 0.937556 0.367446
0.19184 0.750242 0.36879
0.192087 0.81274 0.36879
0.191381 0.875422 0.367906
0.190526 0.937956 0.367316
0.00421503 0.750063 0.406159
0.00438489 0.812558 0.406076
0.00381732 0.875353 0.405251
0.00301265 0.937855 0.404571
0.0670217 0.812609 0.406359
0.0661518 0.874877 0.405403
0.0654755 0.937509 0.404707
0.129285 0.750141 0.406088
0.129412 0.812697 0.406057
0.128782 0.875463 0.405249
0.127949 0.937883 0.404635
0.191935 0.81258 0.40639
0.191279 0.874888 0.405361
0.190424 0.937552 0.40473
0.00418797 0.812364 0.44371
0.00343166 0.874827 0.442681
0.00273107 0.937453 0.442005
0.190203 0.937347 0.479436
0.0666763 0.812558 0.443393
0.0660184 0.875499 0.442591
0.0653404 0.937772 0.441943
0.129225 0.812552 0.443695
0.128506 0.874987 0.442711
0.12778 0.937583 0.442141
0.191657 0.812507 0.443409
0.191136 0.875351 0.442606
0.190293 0.937841 0.441976
0.00399237 0.812426 0.480871
0.00329845 0.875171 0.480064
0.00266903 0.937794 0.479272
0.0665159 0.81238 0.481143
0.065836 0.874768 0.480073
0.065175 0.937334 0.479424
0.128997 0.81239 0.480872
0.128308 0.875293 0.480049
0.127695 0.937802 0.479358
0.00428407 0.750145 0.294147
0.19165 0.750166 0.331421
0.129283 0.750325 0.294204
0.129147 0.750088 0.368709
0.0666998 0.750177 0.33146
0.00420543 0.750011 0.368769
0.127939 0.999971 0.255359
0.00309145 0.999999 0.255333
0.00387898 0.812053 0.518423
0.00332098 0.874584 0.517537
0.00271407 0.937247 0.516643
0.0664586 0.811984 0.518305
0.0659211 0.874939 0.517423
0.0651526 0.937748 0.516655
0.128811 0.812049 0.518419
0.128311 0.874508 0.517547
0.12773 0.937273 0.516707
0.191427 0.81206 0.518312
0.190854 0.874953 0.517417
0.190144 0.937796 0.516694
0.0035004 0.811376 0.555664
0.00318932 0.874785 0.554942
0.00280732 0.93765 0.553977
0.0660865 0.811454 0.556022
0.0658675 0.87399 0.55475
0.065223 0.93753 0.553899
0.128426 0.811283 0.555664
0.128267 0.87475 0.554891
0.12769 0.93767 0.553973
0.191068 0.811513 0.55597
0.190817 0.874003 0.554808
0.190205 0.937527 0.553919
0.0046769 0.751474 0.995445
0.00462963 0.81423 0.995068
0.00423408 0.8771 0.99393
0.00397053 0.93981 0.992737
0.0669339 0.751147 0.995403
0.0669682 0.814312 0.994976
0.0668452 0.877468 0.994035
0.0664255 0.940025 0.992669
0.129848 0.751449 0.995373
0.129578 0.814309 0.995068
0.129174 0.877114 0.993952
0.128878 0.939829 0.992725
0.191917 0.751163 0.995424
0.191859 0.814371 0.994969
0.191774 0.877457 0.993981
0.191369 0.940027 0.992703
0.253716 0.00100304 0.0305967
0.25346 0.0630793 0.0305916
0.253446 0.125009 0.0307038
0.25334 0.187174 0.0308695
0.253445 0.249303 0.0310049
0.316049 0.00101364 0.0304825
0.316015 0.0631707 0.0306407
0.315864 0.125112 0.0306254
0.315864 0.18691 0.030964
0.31582 0.249479 0.0308529
0.37866 0.00111654 0.0305857
0.378367 0.0630952 0.0305805
0.378396 0.124978 0.0307037
0.378273 0.187024 0.0308392
0.378358 0.24927 0.0310104
0.441032 9.13105e-04 0.0304779
0.440892 0.0631675 0.0306904
0.440838 0.125023 0.0306199
0.440946 0.186914 0.0309639
0.440811 0.249369 0.0309265
0.253435 0.0624725 0.0684689
0.253116 0.124861 0.0685835
0.253357 0.187205 0.0686243
0.25308 0.249888 0.0685113
0.315805 0.0625283 0.0685079
0.315819 0.124809 0.0685758
0.315581 0.187168 0.0687078
0.315764 0.249686 0.0686337
0.378422 0.0624334 0.068419
0.378223 0.124774 0.0686271
0.378313 0.187171 0.0686821
0.253506 9.58238e-05 0.0684143
0.440821 0.0625251 0.0685056
0.440861 0.124793 0.0686007
0.440508 0.187187 0.0686955
0.440755 0.249658 0.0686192
0.253258 0.0624294 0.105962
0.253381 0.124692 0.10604
0.252907 0.187352 0.106071
0.378548 1.73205e-04 0.0683706
0.315954 0.0622573 0.105897
0.315481 0.124981 0.105976
0.315602 0.18715 0.106064
0.378228 0.0624456 0.105984
0.378234 0.124767 0.106036
0.377853 0.187526 0.106031
0.441121 2.90186e-04 0.0683466
0.441034 0.0622648 0.105982
0.440495 0.124959 0.106011
0.440613 0.187184 0.10609
0.253249 0.0623393 0.143286
0.252781 0.124917 0.143386
0.252887 0.187292 0.143396
0.315535 0.0624771 0.14334
0.31551 0.124725 0.143315
0.315191 0.187555 0.143381
0.378206 0.0623009 0.143264
0.377847 0.124922 0.143353
0.377832 0.187281 0.143373
0.440581 0.0624625 0.143387
0.440497 0.124799 0.143338
0.440212 0.187461 0.143361
0.252837 0.0625666 0.180702
0.252869 0.124791 0.180639
0.252737 0.187617 0.180616
0.316097 2.45084e-04 0.0683464
0.315643 0.0623179 0.180667
0.315249 0.125033 0.180665
0.315574 0.187443 0.1807
0.377929 0.0624849 0.180665
0.377922 0.124788 0.180636
0.377782 0.187601 0.180562
0.378062 0.249865 0.0685796
0.440649 0.0623686 0.180562
0.440219 0.124992 0.18062
0.440469 0.187317 0.180632
0.253045 1.20065e-04 0.218031
0.253063 0.0624367 0.217968
0.252841 0.12518 0.217881
0.252863 0.187437 0.217899
0.440229 0.187804 0.217913
0.315371 0.0625128 0.218002
0.315389 0.124935 0.217891
0.315251 0.187789 0.217864
0.315591 1.2871e-04 0.180679
0.378001 0.0623688 0.217985
0.377745 0.125035 0.21788
0.37795 0.187454 0.217901
0.440394 0.0625311 0.217991
0.440376 0.124978 0.218002
0.315392 0.249956 0.143331
0.440572 1.15557e-04 0.180655
0.440378 0.249883 0.143396
0.37811 1.17666e-04 0.218015
0.253074 0.249833 0.106021
0.378183 1.99448e-05 0.143296
0.440755 3.28413e-05 0.105912
0.377912 0.249943 0.106064
0.253207 1.54066e-05 0.143243
0.377833 0.249976 0.180655
0.31528 2.63325e-04 0.367324
0.314767 0.125963 0.479088
0.377162 0.188501 0.479049
0.377356 0.125684 0.479141
0.439764 0.125854 0.479033
0.439931 0.063097 0.479156
0.252934 0.0625893 0.2552
0.252803 0.125037 0.255187
0.25269 0.187742 0.255107
0.315441 3.98445e-05 0.255322
0.31553 0.0625891 0.255279
0.31525 0.12518 0.255106
0.315341 0.187449 0.25514
0.439902 5.67823e-04 0.479272
0.377854 0.0625904 0.255183
0.377809 0.125057 0.255194
0.37767 0.187754 0.255137
0.440527 1.43202e-04 0.255294
0.440427 0.0625674 0.255245
0.440289 0.125223 0.2552
0.440335 0.18744 0.255218
0.252722 3.58627e-04 0.292669
0.252778 0.0626849 0.292482
0.252781 0.125241 0.292426
0.252685 0.187448 0.292518
0.377747 3.91443e-04 0.367215
0.315221 0.0627699 0.292536
0.315182 0.125087 0.292515
0.315189 0.187734 0.292405
0.377813 2.99731e-04 0.292616
0.377745 0.0626874 0.292558
0.377629 0.125238 0.292446
0.377643 0.187466 0.292521
0.440199 0.0627405 0.292497
0.440189 0.125183 0.292592
0.440005 0.18786 0.292444
0.252545 0.0628577 0.329884
0.252635 0.125162 0.329858
0.252435 0.187917 0.329797
0.315225 4.54737e-04 0.329939
0.315155 0.0628245 0.329922
0.315013 0.125411 0.329837
0.314996 0.187699 0.32986
0.37771 0.0628683 0.329875
0.377638 0.125178 0.329818
0.377454 0.187988 0.329779
0.440188 4.50138e-04 0.329901
0.440201 0.0627841 0.329964
0.440172 0.12538 0.329805
0.440068 0.187673 0.329872
0.25266 3.82001e-04 0.36728
0.25258 0.0628792 0.367264
0.252492 0.125508 0.367143
0.252319 0.187754 0.36722
0.314588 0.188323 0.479194
0.315039 0.0629257 0.367181
0.314932 0.125338 0.367197
0.314721 0.18803 0.367068
0.377664 0.0629198 0.367221
0.377494 0.125451 0.367168
0.377315 0.187711 0.36716
0.377365 0.0632465 0.479151
0.440075 0.063014 0.36723
0.440001 0.125323 0.367216
0.439788 0.187818 0.367121
0.439541 0.18832 0.479191
0.25226 0.0629659 0.404533
0.252373 0.125356 0.404521
0.25206 0.188035 0.404494
0.314903 4.54195e-04 0.404596
0.314941 0.0628151 0.404539
0.314796 0.125442 0.404534
0.314475 0.187829 0.404524
0.377267 0.0628871 0.404528
0.377253 0.125303 0.40455
0.377032 0.188017 0.404412
0.439953 4.03313e-04 0.404543
0.439907 0.0628031 0.404567
0.439779 0.125375 0.40454
0.439661 0.187622 0.404522
0.25243 5.51772e-04 0.441917
0.252464 0.0628454 0.441916
0.252279 0.125603 0.441843
0.252133 0.187916 0.441829
0.377364 3.86166e-04 0.479449
0.314867 0.0629403 0.44186
0.314843 0.125462 0.441857
0.314571 0.188124 0.441762
0.377448 4.31819e-04 0.441981
0.377364 0.062878 0.441898
0.377186 0.125578 0.44182
0.376946 0.187996 0.441918
0.377774 2.87985e-04 0.330039
0.439835 0.062836 0.441847
0.439814 0.125425 0.441813
0.439483 0.188152 0.441753
0.252471 4.34176e-04 0.479388
0.252339 0.0632968 0.479132
0.252302 0.125719 0.479197
0.25211 0.188401 0.479056
0.314939 5.13977e-04 0.479218
0.314922 0.0631536 0.479176
0.252768 1.40521e-04 0.330056
0.314976 2.71899e-04 0.442043
0.252489 2.41748e-04 0.404654
0.440053 2.12463e-04 0.442021
0.377543 1.43874e-04 0.404633
0.44017 2.68685e-04 0.367338
0.378092 3.83613e-06 0.255442
0.440355 9.45305e-05 0.292696
0.315318 1.83377e-04 0.29269
0.252308 6.86835e-04 0.516515
0.252393 0.063189 0.516468
0.252201 0.126155 0.516353
0.25221 0.188705 0.516437
0.314984 3.70807e-04 0.51659
0.314766 0.0634037 0.516406
0.314803 0.126064 0.516266
0.314602 0.188808 0.516354
0.377336 6.98125e-04 0.516522
0.377355 0.0633496 0.516445
0.377154 0.126274 0.51631
0.377109 0.18871 0.516399
0.439873 4.80289e-04 0.516522
0.439715 0.0635595 0.5164
0.439719 0.126123 0.516292
0.439655 0.188965 0.516341
0.25233 6.99908e-04 0.553681
0.252473 0.0637309 0.553659
0.252323 0.126577 0.553556
0.252269 0.188729 0.553708
0.315114 8.6351e-04 0.553595
0.314856 0.0639934 0.55364
0.314901 0.126591 0.55367
0.314837 0.188966 0.553619
0.377447 8.57335e-04 0.553639
0.377403 0.0638152 0.553605
0.377346 0.126694 0.553533
0.377178 0.188834 0.553758
0.440089 8.7767e-04 0.553567
0.439762 0.0640877 0.553538
0.4399 0.126628 0.553705
0.439847 0.189094 0.553682
0.253799 0.00231109 0.992381
0.253558 0.0637942 0.992133
0.253605 0.125619 0.992153
0.253541 0.187039 0.992468
0.253573 0.249003 0.992885
0.316246 0.00214218 0.992359
0.316112 0.0640622 0.992086
0.315958 0.125494 0.992266
0.315979 0.187202 0.992421
0.31615 0.248998 0.992948
0.378712 0.00220783 0.992395
0.378601 0.0638243 0.992148
0.378466 0.125588 0.992154
0.378405 0.187105 0.992515
0.378489 0.248964 0.992959
0.441246 0.00218934 0.992389
0.441122 0.0641068 0.992128
0.440873 0.125411 0.992289
0.44095 0.187093 0.992491
0.441081 0.248903 0.993097
0.253317 0.312104 0.0308457
0.253732 0.374673 0.0318656
0.25404 0.437349 0.0326936
0.315778 0.312069 0.0310656
0.316137 0.374937 0.031996
0.316592 0.437869 0.0326593
0.378298 0.312143 0.0308653
0.378675 0.374716 0.0318823
0.379061 0.43741 0.0326292
0.440674 0.311983 0.0310759
0.441172 0.37503 0.0319695
0.441584 0.43788 0.0326232
0.253107 0.312472 0.0685177
0.253475 0.375263 0.0693705
0.2542 0.437861 0.0699704
0.315593 0.31241 0.0683524
0.316044 0.374845 0.0692837
0.31672 0.437502 0.0699955
0.377954 0.312444 0.0685677
0.378602 0.375423 0.069268
0.379334 0.437943 0.0699503
0.440498 0.312394 0.0683548
0.441128 0.374848 0.0692827
0.44176 0.437424 0.0699486
0.252861 0.312588 0.105704
0.253639 0.37491 0.106648
0.254206 0.437644 0.107235
0.377281 0.312811 0.21787
0.315548 0.312529 0.105976
0.315955 0.375488 0.106772
0.31667 0.437968 0.10738
0.377824 0.312579 0.105667
0.378574 0.374907 0.106728
0.379231 0.437678 0.107269
0.37775 0.250168 0.217832
0.440389 0.312602 0.105995
0.440933 0.375351 0.106699
0.441684 0.437995 0.107333
0.252905 0.250175 0.143281
0.252723 0.312617 0.143293
0.253296 0.375575 0.144046
0.253939 0.438046 0.144722
0.440001 0.312754 0.217604
0.315144 0.31261 0.143071
0.315771 0.374977 0.144012
0.316467 0.437609 0.144546
0.37772 0.250182 0.143305
0.377652 0.312652 0.14326
0.378291 0.375429 0.144048
0.379071 0.437996 0.144697
0.378937 0.438124 0.219377
0.440061 0.312655 0.142998
0.440793 0.374929 0.143983
0.441517 0.437606 0.144573
0.440784 0.375222 0.218645
0.252541 0.312653 0.180279
0.253177 0.375073 0.181292
0.253899 0.437644 0.181851
0.315321 0.250185 0.180559
0.314971 0.312742 0.18065
0.315596 0.375466 0.1814
0.316452 0.4381 0.182093
0.441486 0.437714 0.219189
0.377548 0.312704 0.180311
0.378225 0.375164 0.181312
0.378824 0.437625 0.181838
0.440309 0.250177 0.180566
0.439951 0.312682 0.180602
0.440605 0.375474 0.181381
0.441447 0.438041 0.182065
0.252686 0.250145 0.217822
0.252342 0.312849 0.217905
0.253131 0.375668 0.218736
0.254012 0.438072 0.219335
0.378305 0.37551 0.218727
0.314979 0.312758 0.217584
0.315746 0.375233 0.218664
0.316437 0.437692 0.219255
0.440221 0.250233 0.217871
0.315273 0.25013 0.217893
0.440451 0.250062 0.105983
0.252857 0.250075 0.180623
0.315337 0.250053 0.105891
0.440478 0.375842 0.480547
0.252365 0.312792 0.25484
0.253172 0.375253 0.255914
0.253898 0.437549 0.256518
0.315052 0.250346 0.255009
0.314812 0.312857 0.255174
0.315623 0.375656 0.256031
0.316397 0.438087 0.256673
0.377417 0.312898 0.254827
0.378126 0.375308 0.255972
0.378994 0.437703 0.256573
0.440031 0.25036 0.255066
0.439919 0.31291 0.255171
0.440593 0.375548 0.256002
0.441494 0.438123 0.256653
0.252468 0.250255 0.292357
0.252117 0.312749 0.292473
0.252966 0.375519 0.293261
0.253791 0.437841 0.293888
0.378384 0.437707 0.481048
0.314802 0.312764 0.292086
0.315534 0.375019 0.29324
0.316246 0.437476 0.29382
0.377461 0.250289 0.292309
0.377214 0.312872 0.292363
0.377987 0.375412 0.293302
0.378886 0.437841 0.294004
0.43967 0.312694 0.292113
0.440427 0.375119 0.293227
0.441204 0.437453 0.293813
0.440052 0.250225 0.292415
0.252284 0.312704 0.329476
0.252984 0.375125 0.330578
0.253456 0.437317 0.331003
0.314791 0.250388 0.329639
0.314711 0.312724 0.329729
0.315527 0.375265 0.330633
0.316298 0.437765 0.331248
0.439544 0.313556 0.479444
0.377185 0.312766 0.329458
0.378056 0.3751 0.330549
0.378656 0.437411 0.331073
0.439863 0.250286 0.329633
0.43962 0.312816 0.329824
0.440453 0.375269 0.330657
0.441362 0.437725 0.331242
0.252108 0.250506 0.366939
0.25222 0.312917 0.367202
0.253152 0.375405 0.368018
0.25388 0.437824 0.368636
0.441262 0.437893 0.480966
0.439325 0.251008 0.479087
0.314759 0.31278 0.366931
0.31568 0.375076 0.367937
0.316132 0.437326 0.368455
0.377193 0.250452 0.366963
0.377128 0.312855 0.367189
0.378159 0.375414 0.368079
0.378875 0.437732 0.368573
0.439451 0.250395 0.367056
0.439614 0.312869 0.366861
0.440589 0.375084 0.367985
0.441075 0.437427 0.36843
0.251918 0.250416 0.404496
0.251939 0.312991 0.404265
0.252977 0.375037 0.4053
0.253479 0.437523 0.405923
0.314476 0.250442 0.404296
0.314446 0.312948 0.404543
0.31541 0.37541 0.405456
0.316233 0.437699 0.405948
0.314966 0.2502 0.29243
0.376828 0.250407 0.404487
0.376891 0.312907 0.40429
0.37802 0.375063 0.405401
0.378511 0.437469 0.405946
0.439368 0.250361 0.404322
0.439477 0.312895 0.404562
0.440445 0.375371 0.405427
0.441318 0.437743 0.405964
0.251919 0.250724 0.441781
0.251999 0.313075 0.441901
0.252883 0.375481 0.442999
0.253582 0.437602 0.443423
0.314337 0.250601 0.441805
0.314226 0.313023 0.441782
0.315375 0.375248 0.44276
0.315911 0.437449 0.443335
0.376833 0.250675 0.441768
0.376998 0.31317 0.441978
0.377958 0.375467 0.443037
0.378614 0.437774 0.44342
0.439282 0.250592 0.441804
0.439237 0.313009 0.441845
0.44034 0.375322 0.44275
0.440957 0.437551 0.443364
0.252605 0.250135 0.255189
0.251834 0.251118 0.479187
0.251881 0.313515 0.479324
0.252896 0.375659 0.480229
0.253449 0.437814 0.481
0.314325 0.251051 0.479096
0.314523 0.313501 0.479475
0.315415 0.375786 0.48056
0.316273 0.437887 0.481019
0.376766 0.25098 0.479254
0.376962 0.313411 0.479246
0.377914 0.375492 0.480289
0.31455 0.250425 0.36706
0.252335 0.250276 0.329676
0.377259 0.250254 0.329713
0.377572 0.25018 0.255172
0.253733 0.499905 0.368548
0.378697 0.499932 0.368534
0.378736 0.499845 0.443422
0.25365 0.499829 0.443414
0.378665 0.499902 0.480826
0.316351 0.499908 0.443364
0.253871 0.499941 0.406009
0.44121 0.499833 0.443339
0.441157 0.499927 0.406002
0.316108 0.499948 0.406009
0.316354 0.499962 0.331214
0.378806 0.499999 0.406006
0.251808 0.251305 0.516391
0.252269 0.314074 0.516859
0.252915 0.37647 0.518125
0.253421 0.438583 0.518638
0.314295 0.251412 0.516463
0.314457 0.313961 0.516889
0.315378 0.376227 0.517598
0.315925 0.438622 0.51859
0.37687 0.251423 0.516452
0.377197 0.314144 0.516872
0.377796 0.376431 0.518069
0.378527 0.438624 0.518643
0.439403 0.251482 0.5165
0.439493 0.313814 0.516915
0.440353 0.376189 0.517667
0.440919 0.43849 0.518536
0.251873 0.251385 0.553748
0.252218 0.314314 0.554152
0.252772 0.377101 0.555293
0.253163 0.439694 0.556508
0.314848 0.25126 0.553717
0.314931 0.31436 0.554173
0.3153 0.3775 0.555344
0.315735 0.439877 0.556681
0.376953 0.251418 0.553729
0.377284 0.314331 0.554153
0.377844 0.376994 0.555276
0.378129 0.439548 0.556446
0.439831 0.25127 0.553761
0.439871 0.314282 0.554193
0.440231 0.377515 0.555263
0.440769 0.439825 0.556612
0.253603 0.311454 0.993546
0.253875 0.374731 0.994449
0.254082 0.437834 0.995375
0.316008 0.311543 0.993243
0.316112 0.374182 0.994578
0.316631 0.437528 0.99548
0.378499 0.311539 0.993484
0.378752 0.374796 0.994443
0.379041 0.437702 0.995401
0.440915 0.311682 0.993255
0.441125 0.374114 0.994606
0.441535 0.4376 0.99548
0.254216 0.500753 0.0328783
0.254175 0.563414 0.032847
0.254475 0.626222 0.0328976
0.254528 0.688741 0.0327436
0.316663 0.500503 0.0327879
0.316873 0.563543 0.0328678
0.316913 0.626186 0.03297
0.317108 0.688908 0.0328364
0.379265 0.500775 0.0328378
0.379171 0.563511 0.0327872
0.379494 0.626213 0.0328773
0.379635 0.688669 0.0327907
0.441672 0.500567 0.032758
0.441788 0.563594 0.03285
0.441793 0.626209 0.0328579
0.44223 0.68879 0.0328413
0.254276 0.500364 0.070008
0.254253 0.563351 0.0701257
0.254454 0.625734 0.0701144
0.254654 0.688659 0.0702222
0.316882 0.500658 0.0700269
0.316753 0.563271 0.0701757
0.317017 0.625886 0.0702207
0.317344 0.68835 0.0699867
0.379315 0.500429 0.069991
0.379408 0.56335 0.070097
0.379442 0.625734 0.0701008
0.37972 0.688551 0.0701779
0.441863 0.500644 0.0700576
0.441849 0.563201 0.0700346
0.44201 0.625955 0.0701547
0.442207 0.688329 0.06999
0.254419 0.500541 0.107329
0.254371 0.562967 0.107385
0.254674 0.625727 0.107535
0.254822 0.688112 0.107405
0.441744 0.500535 0.219406
0.317016 0.563095 0.107441
0.317112 0.625634 0.107424
0.31729 0.688218 0.107441
0.379497 0.50059 0.107341
0.379246 0.563026 0.107386
0.379566 0.625663 0.107442
0.379876 0.688036 0.107389
0.441812 0.500414 0.107275
0.441907 0.5631 0.107391
0.442086 0.625589 0.107393
0.442354 0.688206 0.107509
0.4419 0.625555 0.21948
0.254542 0.563073 0.144757
0.254714 0.625482 0.144681
0.254906 0.688027 0.144753
0.316948 0.500685 0.144755
0.317085 0.562943 0.144731
0.317177 0.625567 0.144743
0.317367 0.687953 0.144697
0.379543 0.687962 0.21951
0.379642 0.56305 0.144712
0.379541 0.625452 0.144726
0.379969 0.688025 0.144801
0.441912 0.500589 0.144729
0.442005 0.563009 0.14476
0.442133 0.625562 0.14471
0.442283 0.687811 0.144733
0.254301 0.500511 0.181975
0.254408 0.563009 0.182081
0.254402 0.625586 0.182047
0.254554 0.687816 0.182083
0.441874 0.687716 0.219384
0.316946 0.563022 0.182101
0.316871 0.62543 0.182043
0.317167 0.688106 0.18212
0.379227 0.500524 0.18204
0.379439 0.562867 0.182047
0.379575 0.625537 0.182151
0.379626 0.6878 0.182068
0.441711 0.562843 0.219427
0.441939 0.56308 0.182131
0.441938 0.625394 0.182012
0.442276 0.688135 0.18213
0.316893 0.50037 0.107303
0.254326 0.562943 0.219448
0.254325 0.625269 0.219369
0.254508 0.688004 0.219562
0.31674 0.500482 0.219396
0.316733 0.562809 0.219385
0.316948 0.62548 0.219392
0.316949 0.687773 0.219406
0.254264 0.500389 0.144678
0.379363 0.562986 0.219441
0.379352 0.625396 0.219461
0.316737 0.500434 0.181939
0.254134 0.500305 0.219316
0.379214 0.5003 0.219299
0.379346 0.500376 0.144645
0.441698 0.500427 0.181967
0.254052 0.50043 0.256753
0.254145 0.562896 0.256793
0.25428 0.625473 0.256827
0.254171 0.687667 0.256821
0.441638 0.749956 0.443512
0.316798 0.563019 0.256729
0.316732 0.625347 0.256732
0.316845 0.687859 0.256892
0.379163 0.500453 0.256746
0.3792 0.562908 0.256731
0.379273 0.625345 0.256861
0.379271 0.687632 0.256788
0.316691 0.687093 0.480612
0.441763 0.562945 0.256786
0.441764 0.625232 0.25679
0.44185 0.687881 0.256868
0.441485 0.562398 0.480705
0.254183 0.562751 0.294054
0.254134 0.625189 0.29405
0.25441 0.687863 0.294143
0.316464 0.500249 0.294015
0.316542 0.562788 0.294096
0.316781 0.625367 0.294108
0.316706 0.687561 0.294077
0.379137 0.749785 0.443333
0.379158 0.562839 0.294049
0.379201 0.625238 0.294129
0.379383 0.68783 0.29415
0.441504 0.500277 0.294065
0.441544 0.562842 0.294061
0.441723 0.625402 0.294101
0.441775 0.687561 0.294144
0.25398 0.500093 0.331277
0.253924 0.562597 0.331321
0.254195 0.62526 0.331324
0.25407 0.687553 0.331386
0.316671 0.562733 0.331351
0.316579 0.625036 0.33135
0.316763 0.687795 0.33143
0.378988 0.500134 0.331266
0.379009 0.562627 0.331335
0.379194 0.625257 0.331361
0.379103 0.687515 0.331362
0.316549 0.749617 0.480777
0.441599 0.562753 0.33139
0.441606 0.625072 0.331326
0.441876 0.687772 0.331442
0.254144 0.562582 0.36865
0.254088 0.624876 0.368656
0.254318 0.687513 0.368705
0.316339 0.562497 0.368631
0.31674 0.62513 0.368667
0.316629 0.68748 0.368686
0.379049 0.56261 0.368616
0.379063 0.62498 0.368694
0.37935 0.687646 0.368684
0.379237 0.749988 0.368786
0.441366 0.562459 0.368655
0.441738 0.625118 0.36864
0.441663 0.687338 0.368698
0.379013 0.686975 0.480639
0.253697 0.562312 0.405947
0.254102 0.624856 0.405953
0.25414 0.68715 0.405949
0.316458 0.562463 0.405876
0.316651 0.62482 0.405972
0.316815 0.687567 0.405931
0.441541 0.749692 0.480792
0.378858 0.562353 0.405938
0.379213 0.624881 0.405913
0.379065 0.687263 0.405945
0.441424 0.562361 0.405957
0.44162 0.624683 0.405979
0.441788 0.687489 0.405986
0.379087 0.624653 0.480688
0.253972 0.562394 0.443233
0.253937 0.624644 0.44323
0.254418 0.687428 0.443273
0.378802 0.562311 0.48073
0.316305 0.562295 0.443314
0.316846 0.624864 0.443281
0.316738 0.687151 0.443173
0.379018 0.562298 0.443273
0.379059 0.62464 0.443216
0.379418 0.68746 0.443257
0.4413 0.562266 0.443286
0.441748 0.624816 0.443362
0.441624 0.687165 0.443195
0.441799 0.687223 0.480647
0.253632 0.50004 0.480923
0.25365 0.562361 0.48076
0.254088 0.624679 0.480683
0.25393 0.686936 0.480668
0.44148 0.624696 0.480623
0.316443 0.562366 0.480702
0.316536 0.624619 0.480623
0.37924 0.749787 0.480836
0.44158 0.500225 0.256686
0.316196 0.500049 0.480834
0.378792 0.500114 0.293939
0.316422 0.500104 0.368598
0.25408 0.749725 0.480787
0.31664 0.749867 0.406012
0.441481 0.500109 0.368625
0.25387 0.500078 0.293943
0.441702 0.749901 0.406004
0.254153 0.749768 0.443336
0.441177 0.500054 0.480845
0.254137 0.749971 0.36869
0.316575 0.500223 0.256668
0.441275 0.500004 0.331259
0.253424 0.50087 0.518659
0.253703 0.562773 0.51858
0.253881 0.624645 0.518458
0.2539 0.686782 0.518382
0.2539 0.749211 0.518292
0.31615 0.500812 0.518655
0.316138 0.562806 0.518545
0.316423 0.624879 0.518605
0.316453 0.686642 0.518346
0.316399 0.749387 0.518328
0.378471 0.500925 0.518646
0.378626 0.562787 0.51856
0.37899 0.624688 0.518569
0.37895 0.686926 0.518372
0.378954 0.749299 0.518383
0.441087 0.500796 0.518701
0.441141 0.56273 0.518581
0.441324 0.624825 0.51865
0.441446 0.686682 0.518398
0.441466 0.749544 0.518436
0.253299 0.501853 0.556916
0.253571 0.563411 0.557144
0.253579 0.625025 0.557033
0.253672 0.686597 0.556591
0.253595 0.748635 0.556212
0.31581 0.501826 0.55697
0.315905 0.563555 0.557137
0.316251 0.624997 0.556874
0.316164 0.686783 0.556716
0.315959 0.748735 0.55605
0.37832 0.501795 0.556913
0.378598 0.563414 0.55706
0.378619 0.625069 0.557012
0.378676 0.686657 0.556592
0.378643 0.748756 0.556254
0.440838 0.50176 0.556968
0.440946 0.563513 0.557111
0.441258 0.625001 0.556795
0.441148 0.686804 0.556643
0.44104 0.748891 0.556063
0.254147 0.500859 0.995686
0.254094 0.563784 0.995697
0.254223 0.626636 0.995702
0.254405 0.688728 0.995479
0.316451 0.500905 0.995686
0.316612 0.563968 0.99566
0.316712 0.626567 0.995602
0.316772 0.688977 0.995548
0.379163 0.500856 0.995631
0.379048 0.563781 0.995614
0.37924 0.626529 0.995654
0.379381 0.688703 0.995375
0.441411 0.500995 0.995692
0.441759 0.563883 0.995641
0.441706 0.62661 0.995533
0.441748 0.689069 0.995454
0.254958 0.75144 0.0327885
0.254652 0.814153 0.0322991
0.254093 0.876603 0.0310869
0.253633 0.938577 0.0305217
0.317406 0.751527 0.0326234
0.31743 0.813924 0.032248
0.316736 0.876224 0.031628
0.316139 0.93861 0.0306756
0.3799 0.75137 0.0327922
0.379566 0.814171 0.0322622
0.379187 0.876466 0.0311333
0.378658 0.938688 0.030573
0.442396 0.751518 0.0326692
0.44231 0.814007 0.0323078
0.441616 0.876257 0.0316791
0.441192 0.938712 0.0306606
0.442349 0.812861 0.219444
0.255023 0.751015 0.0700438
0.254909 0.813355 0.069923
0.253974 0.875582 0.0689002
0.253612 0.937846 0.0681795
0.379518 0.750297 0.21954
0.317491 0.751004 0.0701435
0.317324 0.813567 0.0697273
0.316596 0.875932 0.0686141
0.315789 0.937915 0.0682043
0.440859 0.93765 0.218027
0.379935 0.75107 0.0699209
0.379964 0.813499 0.0699414
0.379086 0.875661 0.0689581
0.378595 0.937838 0.0681879
0.379097 0.875014 0.218674
0.442479 0.751114 0.0701868
0.442237 0.813585 0.0698326
0.441525 0.875907 0.068686
0.440773 0.937995 0.0681838
0.31711 0.750441 0.219606
0.255078 0.750761 0.107424
0.254898 0.813176 0.107209
0.254233 0.875594 0.106249
0.253383 0.937786 0.1058
0.441626 0.875242 0.218626
0.317572 0.750816 0.107435
0.317676 0.813088 0.107353
0.316597 0.875246 0.106418
0.316205 0.937606 0.105821
0.253521 0.9373 0.218117
0.380171 0.750705 0.107378
0.379909 0.813118 0.107216
0.379094 0.875671 0.1062
0.378458 0.93776 0.105786
0.442055 0.750423 0.219627
0.442582 0.750744 0.107366
0.442651 0.81311 0.107423
0.44168 0.875263 0.106463
0.441089 0.937615 0.10584
0.379819 0.812727 0.2198
0.25501 0.750401 0.144684
0.255115 0.812903 0.144837
0.254051 0.875031 0.143785
0.253468 0.937486 0.143275
0.254133 0.874965 0.218692
0.317506 0.750434 0.14486
0.317503 0.812959 0.144671
0.31665 0.875471 0.143726
0.315783 0.937855 0.143328
0.378419 0.937273 0.218148
0.380052 0.750555 0.144681
0.380081 0.81292 0.144869
0.379071 0.87511 0.143784
0.378571 0.937422 0.14327
0.316613 0.875319 0.218535
0.442473 0.750524 0.144901
0.442551 0.813041 0.144638
0.441639 0.875562 0.143782
0.440799 0.937815 0.143279
0.315885 0.937666 0.217993
0.254773 0.750393 0.182252
0.254968 0.81292 0.182007
0.254085 0.875479 0.181182
0.253256 0.937815 0.180632
0.317345 0.750402 0.182129
0.317413 0.812756 0.182301
0.316597 0.875036 0.18118
0.315931 0.937413 0.180761
0.317258 0.812761 0.219409
0.379773 0.750447 0.182262
0.379857 0.812926 0.182046
0.379043 0.875367 0.181177
0.37818 0.937817 0.180662
0.4423 0.750371 0.18212
0.442332 0.812792 0.182348
0.441487 0.875022 0.181247
0.440967 0.937395 0.180829
0.254614 0.750325 0.219507
0.254791 0.812664 0.21975
0.3783 0.999822 0.18076
0.315693 0.999757 0.218076
0.253655 0.999835 0.105854
0.440689 0.999892 0.218143
0.378498 0.999893 0.105783
0.440987 0.999916 0.14328
0.25329 0.999969 0.180753
0.315906 0.999968 0.105792
0.315951 0.999905 0.143237
0.316918 0.750127 0.256883
0.254477 0.750322 0.256998
0.254889 0.812824 0.256821
0.25422 0.875402 0.255999
0.253332 0.937794 0.255311
0.317331 0.812703 0.257126
0.316668 0.874988 0.256026
0.315957 0.937301 0.255432
0.379495 0.750339 0.256975
0.379897 0.81273 0.256785
0.379249 0.875359 0.25594
0.378374 0.937735 0.255298
0.442402 0.81272 0.257174
0.441665 0.875105 0.256027
0.440986 0.937427 0.255443
0.254717 0.812777 0.294458
0.253916 0.875204 0.293402
0.253201 0.937505 0.292828
0.316852 0.750381 0.294251
0.317372 0.812937 0.294153
0.316439 0.875529 0.293393
0.315712 0.937862 0.292622
0.379631 0.812757 0.294446
0.378971 0.875118 0.293335
0.378169 0.937635 0.29277
0.441942 0.750404 0.294208
0.442361 0.812879 0.294081
0.441515 0.875517 0.293281
0.44066 0.93788 0.292609
0.254295 0.750339 0.331458
0.254739 0.812785 0.331464
0.25385 0.875577 0.330565
0.253089 0.937929 0.329959
0.317088 0.81278 0.331763
0.316369 0.875205 0.330649
0.315556 0.937654 0.330129
0.379334 0.750378 0.331503
0.379715 0.812907 0.331394
0.378903 0.875449 0.33056
0.378096 0.937884 0.329983
0.442097 0.812907 0.331729
0.441422 0.875155 0.330671
0.440585 0.937503 0.330184
0.254533 0.812655 0.369021
0.253885 0.875073 0.368058
0.253042 0.937682 0.367372
0.316776 0.750198 0.368817
0.317166 0.812693 0.368802
0.316471 0.875389 0.367869
0.315524 0.937881 0.367265
0.379601 0.812634 0.369027
0.378951 0.875041 0.368039
0.378046 0.937614 0.367387
0.441847 0.750234 0.368784
0.442077 0.812658 0.368792
0.441466 0.875388 0.367897
0.440571 0.937919 0.367241
0.254494 0.812624 0.406082
0.253698 0.875328 0.405259
0.252914 0.93791 0.404567
0.316904 0.812555 0.406331
0.316106 0.874945 0.405355
0.315462 0.937564 0.404711
0.379307 0.75012 0.406057
0.379422 0.812689 0.406048
0.378742 0.875379 0.405223
0.377903 0.937875 0.404539
0.442013 0.812506 0.40637
0.441102 0.874917 0.405312
0.440402 0.937473 0.404707
0.254183 0.812495 0.443674
0.253533 0.874889 0.442693
0.252782 0.937578 0.442113
0.316636 0.812592 0.44333
0.316029 0.875445 0.442581
0.31522 0.937822 0.441958
0.379226 0.812475 0.443675
0.378454 0.874935 0.442663
0.37774 0.937482 0.442087
0.441735 0.812546 0.443409
0.441065 0.875302 0.442517
0.440241 0.937882 0.441991
0.254015 0.812461 0.480876
0.253397 0.875253 0.480046
0.252608 0.937814 0.479273
0.316542 0.812467 0.480995
0.315993 0.874775 0.480052
0.315274 0.937288 0.479427
0.378979 0.812409 0.480792
0.37834 0.875176 0.480024
0.377776 0.937812 0.479319
0.441544 0.812402 0.481035
0.440804 0.874805 0.480008
0.440146 0.937345 0.47941
0.254215 0.750097 0.406096
0.441778 0.750126 0.331413
0.441938 0.750167 0.256869
0.254415 0.750207 0.294218
0.379358 0.750172 0.29416
0.316695 0.750189 0.331383
0.316835 0.750041 0.443449
0.253051 0.999984 0.255395
0.2539 0.812077 0.518352
0.25326 0.874582 0.517577
0.252658 0.937245 0.516683
0.316369 0.812071 0.518315
0.315955 0.874972 0.517363
0.315081 0.937737 0.51669
0.37885 0.812149 0.518415
0.378265 0.874615 0.517493
0.377598 0.937354 0.516703
0.441386 0.812108 0.518268
0.4409 0.874982 0.517395
0.44012 0.937814 0.516698
0.253446 0.811387 0.555685
0.252997 0.874733 0.554948
0.252773 0.937648 0.554059
0.316007 0.811522 0.556019
0.315809 0.87401 0.554777
0.315129 0.937615 0.553923
0.378528 0.81137 0.555742
0.378226 0.874674 0.554897
0.377716 0.937795 0.554011
0.44113 0.811758 0.556085
0.440867 0.874205 0.554748
0.440066 0.937686 0.553888
0.254705 0.751472 0.995432
0.254613 0.814351 0.995066
0.254151 0.877141 0.993947
0.254084 0.939905 0.992794
0.316932 0.751045 0.995408
0.316911 0.814343 0.994937
0.316872 0.877451 0.993958
0.316302 0.940057 0.992739
0.379734 0.751382 0.995398
0.379672 0.814369 0.99497
0.379191 0.877274 0.993949
0.378942 0.939905 0.992814
0.44193 0.751168 0.995397
0.441918 0.814334 0.99498
0.441802 0.87747 0.993935
0.441382 0.940014 0.99277
0.503655 0.00111704 0.0306324
0.503353 0.0631196 0.030672
0.50333 0.124944 0.030692
0.503246 0.187007 0.0308159
0.50331 0.249248 0.0310605
0.566055 9.6182e-04 0.0304352
0.566047 0.0631194 0.0307044
0.565824 0.124991 0.0307118
0.565829 0.186853 0.0309291
0.565705 0.249498 0.0309628
0.628709 0.00121854 0.0306027
0.628462 0.0630581 0.0307103
0.628379 0.125019 0.0307195
0.628322 0.187064 0.030909
0.628331 0.249244 0.0310461
0.69116 9.56924e-04 0.0305037
0.69108 0.0632066 0.0306736
0.69097 0.124998 0.0307175
0.691094 0.186775 0.0309801
0.690824 0.249426 0.0309267
0.5033 0.0623335 0.0684527
0.503207 0.124823 0.0685467
0.503332 0.187102 0.0686503
0.566015 2.41797e-04 0.0683617
0.565821 0.0625119 0.0685407
0.565832 0.124843 0.068576
0.565496 0.187318 0.0686545
0.565752 0.249638 0.0686234
0.628406 0.0624931 0.068545
0.628148 0.124907 0.0686156
0.628317 0.187111 0.0686124
0.503092 1.27706e-04 0.143273
0.690834 0.0625669 0.0685275
0.690787 0.124902 0.0686304
0.690553 0.187276 0.0686683
0.690683 0.249631 0.0686298
0.50321 0.062478 0.105997
0.503198 0.12477 0.106045
0.502856 0.187525 0.106055
0.690633 1.07163e-04 0.180678
0.565942 0.0623627 0.105948
0.565465 0.124912 0.106022
0.56557 0.187171 0.106022
0.628174 0.0625566 0.105992
0.628226 0.124723 0.106007
0.62781 0.187467 0.106035
0.690297 0.0626409 0.217973
0.690959 0.0622288 0.105945
0.690555 0.124949 0.106014
0.690567 0.18722 0.105966
0.503108 0.24977 0.0685534
0.503318 0.0623842 0.143264
0.502904 0.124932 0.143365
0.502928 0.187256 0.143395
0.565476 0.0625652 0.143344
0.565516 0.124851 0.143352
0.565212 0.187498 0.143385
0.690262 0.187848 0.21788
0.628353 0.0623675 0.143281
0.627869 0.124998 0.143349
0.627959 0.187318 0.143319
0.690566 0.0625583 0.143327
0.690615 0.124878 0.143308
0.690263 0.187559 0.143335
0.627929 0.187513 0.217955
0.502876 0.0625867 0.180684
0.502952 0.12484 0.180668
0.502802 0.1876 0.18061
0.565616 0.0624523 0.180673
0.565329 0.125082 0.180622
0.565457 0.187259 0.180631
0.627895 0.0625776 0.180691
0.628016 0.124835 0.180555
0.627718 0.187599 0.180614
0.690558 0.0623861 0.18065
0.690397 0.125042 0.180613
0.690416 0.187397 0.18065
0.690386 0.125078 0.217934
0.503078 0.0625011 0.217975
0.502747 0.125088 0.217896
0.502903 0.187464 0.217917
0.565321 0.0625608 0.217975
0.565388 0.125045 0.217895
0.565242 0.18773 0.217831
0.628163 8.19705e-06 0.217978
0.628099 0.0624656 0.218
0.627761 0.125263 0.217865
0.628461 1.54353e-04 0.0683811
0.503084 1.34321e-04 0.218045
0.503548 9.14853e-05 0.068386
0.628047 0.2499 0.0685598
0.691026 1.82798e-04 0.0683688
0.565924 9.45187e-05 0.105918
0.565541 2.19678e-04 0.180685
0.690915 1.48414e-04 0.105916
0.69079 2.01513e-05 0.218069
0.628032 0.249845 0.106058
0.50293 0.24985 0.105993
0.628153 8.26837e-05 0.143333
0.503394 1.80614e-06 0.105793
0.627863 0.249999 0.180656
0.565735 2.62317e-05 0.218091
0.690448 0.249929 0.143315
0.565911 6.53932e-05 0.143369
0.690575 1.52286e-04 0.255297
0.689968 4.62274e-04 0.404574
0.564595 0.188384 0.47914
0.564806 0.125959 0.479044
0.689968 6.68785e-04 0.479234
0.56496 0.0632121 0.479125
0.502776 0.0626476 0.255249
0.502826 0.12508 0.255208
0.502616 0.187778 0.255109
0.565571 2.37514e-04 0.255259
0.565464 0.062517 0.255209
0.565214 0.125265 0.255131
0.565291 0.187589 0.25518
0.627736 0.062679 0.255207
0.627845 0.125033 0.25516
0.627679 0.187829 0.255104
0.689862 0.12599 0.479035
0.690556 0.0627402 0.255181
0.690301 0.125175 0.255151
0.690355 0.187512 0.255257
0.502765 0.0626744 0.292547
0.502582 0.125306 0.292453
0.502657 0.187543 0.292484
0.689628 0.188345 0.479196
0.565168 0.062806 0.292478
0.565205 0.125098 0.292441
0.565024 0.187804 0.292414
0.627822 3.44908e-04 0.292565
0.627757 0.062791 0.292553
0.627648 0.12528 0.292397
0.62776 0.187485 0.292482
0.69012 0.0628419 0.292538
0.690187 0.125078 0.292484
0.689912 0.187802 0.292446
0.502671 0.0628793 0.32989
0.502591 0.125176 0.329843
0.502471 0.187937 0.329763
0.565314 5.10873e-04 0.329936
0.565183 0.062931 0.329873
0.565041 0.125366 0.32986
0.565027 0.187612 0.329798
0.627258 0.188529 0.478952
0.62766 0.0628758 0.329867
0.62758 0.125198 0.329893
0.62744 0.187892 0.329754
0.690305 4.8351e-04 0.329935
0.690125 0.0629056 0.329881
0.690091 0.125415 0.329845
0.690045 0.187722 0.329852
0.502697 3.91598e-04 0.36726
0.502615 0.062824 0.367242
0.502477 0.125424 0.367229
0.502351 0.187686 0.367183
0.627308 0.125741 0.479111
0.565033 0.0628065 0.3672
0.565078 0.125314 0.367228
0.564802 0.187955 0.367193
0.6277 4.73308e-04 0.36724
0.627596 0.062999 0.367232
0.627502 0.125446 0.367231
0.627328 0.187803 0.367198
0.627451 0.0632102 0.479077
0.690081 0.0629809 0.367174
0.69004 0.125271 0.367238
0.689796 0.187996 0.367153
0.502355 0.0628868 0.404574
0.502296 0.125297 0.404561
0.502036 0.188004 0.404477
0.564931 4.47864e-04 0.404532
0.564891 0.0628159 0.404554
0.56477 0.125515 0.404582
0.564697 0.187766 0.404553
0.689933 0.0631294 0.479187
0.627402 0.0629382 0.404554
0.627261 0.125305 0.404586
0.627074 0.187979 0.404469
0.689993 0.0627918 0.404562
0.689804 0.125495 0.404539
0.689699 0.18779 0.404531
0.502373 5.17483e-04 0.441903
0.502446 0.0628597 0.441902
0.502192 0.125609 0.441825
0.502012 0.187962 0.441861
0.564949 0.0629352 0.441848
0.564802 0.125425 0.441862
0.564546 0.18818 0.441803
0.627542 4.74702e-04 0.441923
0.627463 0.0629156 0.441864
0.62726 0.125617 0.44181
0.627156 0.188049 0.441786
0.5651 1.86877e-04 0.441983
0.689936 0.063012 0.441801
0.689956 0.125535 0.441815
0.689603 0.188021 0.441814
0.502372 4.18074e-04 0.479318
0.502359 0.063199 0.479121
0.502325 0.125742 0.479073
0.502189 0.188502 0.479019
0.56493 5.64395e-04 0.47924
0.628125 5.07188e-05 0.255374
0.565327 2.91739e-04 0.367349
0.5027 3.45352e-04 0.292603
0.6274 2.91369e-04 0.479284
0.502619 2.24721e-04 0.404648
0.690106 2.79342e-04 0.441956
0.627645 2.25674e-04 0.404636
0.502837 2.46847e-04 0.330035
0.627854 2.73009e-04 0.330055
0.690324 2.29162e-04 0.292669
0.565379 1.8111e-04 0.292708
0.690337 3.47722e-04 0.367368
0.502299 7.51781e-04 0.516425
0.502376 0.0633683 0.516441
0.50226 0.126265 0.516374
0.502032 0.188639 0.516383
0.564971 5.35169e-04 0.516497
0.564799 0.0635096 0.516361
0.56478 0.126144 0.516286
0.564577 0.188859 0.516317
0.627331 7.30803e-04 0.516397
0.627382 0.0633703 0.516332
0.627242 0.126246 0.516361
0.627064 0.188699 0.516395
0.690011 4.83883e-04 0.516436
0.689753 0.0634931 0.516324
0.689901 0.126089 0.516204
0.689538 0.188897 0.51638
0.502413 9.3735e-04 0.553585
0.502422 0.0638267 0.553542
0.502393 0.126641 0.553516
0.502278 0.188792 0.55372
0.56522 9.65173e-04 0.553511
0.564898 0.064043 0.553557
0.564878 0.126615 0.553624
0.564829 0.189003 0.55361
0.627544 8.51849e-04 0.553558
0.627475 0.063876 0.553488
0.627286 0.126598 0.553487
0.627322 0.188763 0.553676
0.690277 7.82823e-04 0.553532
0.689918 0.0639554 0.553529
0.689973 0.126501 0.553623
0.689871 0.188991 0.553614
0.503712 0.00225266 0.992355
0.503537 0.0638337 0.992108
0.503505 0.125518 0.992194
0.50344 0.187086 0.992515
0.503407 0.248948 0.992914
0.566205 0.00212979 0.992376
0.566077 0.0639386 0.992249
0.565842 0.125374 0.992406
0.565993 0.187118 0.992491
0.56619 0.248959 0.993077
0.628729 0.00223406 0.992388
0.628484 0.0637366 0.992185
0.628545 0.125477 0.992217
0.628338 0.186967 0.992638
0.62844 0.248927 0.992994
0.69117 0.0021475 0.992419
0.691038 0.0640088 0.99221
0.690897 0.125261 0.992398
0.690956 0.186999 0.992632
0.691053 0.248753 0.993148
0.50332 0.311885 0.0309165
0.503694 0.374549 0.0318529
0.503969 0.437429 0.0326656
0.565742 0.312098 0.0311341
0.566077 0.375026 0.0319488
0.566618 0.437771 0.0326293
0.628354 0.311976 0.0309692
0.628691 0.374601 0.0318146
0.629128 0.437311 0.0326726
0.690681 0.312045 0.0311599
0.691221 0.374977 0.0319758
0.691672 0.437785 0.0326259
0.503065 0.312544 0.0685837
0.503635 0.375362 0.0693196
0.504103 0.437879 0.0699069
0.565479 0.312472 0.0683708
0.566046 0.374865 0.0693212
0.566591 0.437519 0.0699131
0.628065 0.312433 0.0685207
0.628499 0.375322 0.069274
0.629187 0.437801 0.0700074
0.690615 0.312387 0.0684358
0.691076 0.374809 0.0693303
0.691689 0.437414 0.0699699
0.502769 0.312569 0.105727
0.503546 0.374844 0.106643
0.504135 0.437563 0.107253
0.691358 0.437712 0.219158
0.565345 0.31259 0.105985
0.565853 0.375444 0.10668
0.566638 0.437932 0.107285
0.627775 0.312566 0.105712
0.628464 0.374897 0.106582
0.629198 0.437573 0.107277
0.690416 0.312651 0.105973
0.690964 0.375485 0.106727
0.691619 0.437978 0.107295
0.502892 0.25022 0.143255
0.502571 0.312606 0.143273
0.503133 0.375317 0.144071
0.50404 0.438001 0.144701
0.564994 0.312669 0.143053
0.565705 0.374882 0.14399
0.566474 0.437588 0.144612
0.627863 0.250247 0.143242
0.627535 0.312763 0.143283
0.628177 0.375525 0.144018
0.628996 0.437979 0.14472
0.690054 0.312653 0.143065
0.690677 0.374964 0.144003
0.691483 0.437593 0.144554
0.690653 0.375235 0.218604
0.502492 0.312655 0.180296
0.503093 0.37504 0.181301
0.503891 0.437668 0.181846
0.565403 0.250222 0.180566
0.564979 0.312879 0.180554
0.565583 0.375499 0.181329
0.566374 0.438156 0.182016
0.689918 0.31288 0.217531
0.627577 0.312616 0.180303
0.628069 0.375116 0.181298
0.6288 0.437621 0.181827
0.690252 0.250269 0.180557
0.689905 0.312745 0.18059
0.690534 0.375498 0.181377
0.691422 0.438078 0.182009
0.502747 0.250342 0.217799
0.502452 0.312895 0.217887
0.503272 0.375639 0.218717
0.503891 0.438072 0.21936
0.628934 0.438151 0.219382
0.564917 0.31286 0.217588
0.565726 0.375127 0.218648
0.566426 0.437731 0.219223
0.627801 0.250297 0.217889
0.627347 0.312921 0.217871
0.628099 0.375617 0.218684
0.690431 0.250108 0.105888
0.565212 0.250277 0.217884
0.690379 0.250223 0.217952
0.565438 0.250067 0.10587
0.56544 0.250032 0.143337
0.502915 0.250085 0.180676
0.689456 0.25111 0.479038
0.502355 0.31286 0.254831
0.503132 0.375233 0.255977
0.503858 0.437594 0.256486
0.565012 0.25029 0.255048
0.564778 0.312937 0.25515
0.565631 0.37576 0.256025
0.566406 0.43808 0.256637
0.627394 0.312843 0.254848
0.628206 0.375285 0.255947
0.628908 0.437603 0.256537
0.690066 0.250408 0.255087
0.689789 0.313013 0.255144
0.690568 0.375681 0.256022
0.691464 0.43808 0.256693
0.502535 0.250351 0.292343
0.502262 0.312833 0.292428
0.502939 0.375521 0.293278
0.50373 0.437883 0.293975
0.564745 0.31277 0.292122
0.565434 0.375131 0.293291
0.566167 0.437491 0.293816
0.627481 0.250272 0.292316
0.627163 0.312776 0.292456
0.627918 0.375513 0.293317
0.628738 0.437769 0.29398
0.689684 0.312804 0.292153
0.690461 0.375119 0.293237
0.691304 0.437511 0.293827
0.691367 0.43793 0.480964
0.50226 0.312642 0.329488
0.503018 0.375099 0.330592
0.503509 0.43741 0.33106
0.564855 0.250356 0.329685
0.564705 0.312779 0.329859
0.565551 0.375342 0.330746
0.566211 0.4378 0.331207
0.627179 0.31272 0.329455
0.628081 0.37502 0.330607
0.628574 0.437386 0.331102
0.68994 0.250451 0.32971
0.689711 0.31278 0.329858
0.690566 0.375392 0.330729
0.691337 0.437787 0.331276
0.502192 0.250423 0.367009
0.502065 0.312912 0.367218
0.503155 0.37544 0.368038
0.503947 0.437801 0.368636
0.564555 0.250341 0.367035
0.564643 0.312768 0.366892
0.565637 0.375058 0.367984
0.566147 0.437399 0.368488
0.627192 0.250418 0.367093
0.627263 0.312922 0.367213
0.628194 0.375498 0.368057
0.628862 0.437873 0.368634
0.689634 0.250474 0.367145
0.689703 0.312783 0.366894
0.690658 0.375071 0.367992
0.691081 0.437438 0.36852
0.501868 0.250377 0.404535
0.501875 0.312887 0.404318
0.503018 0.375063 0.405345
0.50354 0.437528 0.40593
0.564437 0.250461 0.404324
0.564547 0.313004 0.404575
0.56545 0.37555 0.405469
0.566362 0.437748 0.405969
0.564981 0.250183 0.292422
0.626928 0.250427 0.404487
0.626853 0.312959 0.404293
0.62798 0.375101 0.405391
0.628435 0.437533 0.405916
0.689445 0.250455 0.40428
0.6896 0.31311 0.404598
0.690499 0.375549 0.405439
0.6913 0.437835 0.405989
0.68965 0.313602 0.479449
0.501837 0.250839 0.441708
0.50197 0.313179 0.441956
0.502868 0.375474 0.442982
0.503669 0.437747 0.443372
0.503875 0.499949 0.406033
0.564376 0.250701 0.441835
0.564292 0.31298 0.44177
0.565398 0.375343 0.4427
0.565995 0.437529 0.443375
0.626864 0.250728 0.441751
0.627007 0.31314 0.441962
0.627939 0.3755 0.442993
0.628648 0.437712 0.44335
0.689955 0.250166 0.292516
0.689386 0.25067 0.441795
0.689412 0.313095 0.441809
0.690441 0.375309 0.442721
0.690964 0.437525 0.443374
0.501879 0.251122 0.479193
0.501897 0.313513 0.479246
0.502932 0.375518 0.480272
0.503604 0.43771 0.480974
0.690471 0.375889 0.480501
0.564315 0.251166 0.479106
0.564546 0.313511 0.479463
0.565464 0.375769 0.480515
0.566289 0.437869 0.480923
0.626892 0.251008 0.479175
0.626998 0.313463 0.479242
0.627951 0.375596 0.480293
0.628615 0.437705 0.480973
0.627305 0.250204 0.329762
0.627664 0.250211 0.255217
0.5023 0.250289 0.32977
0.691042 0.499995 0.406003
0.503698 0.49996 0.368613
0.502598 0.250145 0.255204
0.503696 0.499849 0.443397
0.628729 0.499904 0.368646
0.628715 0.499965 0.443392
0.566337 0.499983 0.443344
0.566284 0.499982 0.331236
0.691348 0.499941 0.331219
0.56614 0.499998 0.406005
0.501853 0.251437 0.516336
0.502259 0.314172 0.516908
0.502894 0.376503 0.51817
0.503341 0.438462 0.518645
0.564349 0.251466 0.516555
0.564583 0.31385 0.516926
0.565439 0.376186 0.517583
0.565885 0.438579 0.518665
0.62695 0.251446 0.516401
0.627294 0.314176 0.516906
0.627894 0.376427 0.518063
0.628501 0.438444 0.518633
0.689385 0.251467 0.516513
0.689607 0.313873 0.516921
0.690359 0.376174 0.517578
0.690947 0.438619 0.518649
0.502058 0.251377 0.553792
0.502228 0.314372 0.554177
0.502863 0.377119 0.555269
0.50318 0.439626 0.556534
0.564946 0.251195 0.553802
0.565028 0.314282 0.554227
0.565219 0.37741 0.555303
0.565753 0.439801 0.556577
0.627155 0.251375 0.5538
0.627345 0.31423 0.55416
0.627929 0.37708 0.555292
0.628089 0.439675 0.55652
0.689997 0.251246 0.553744
0.690024 0.314258 0.554252
0.690272 0.377354 0.555271
0.690719 0.439815 0.556603
0.503569 0.31143 0.993571
0.503817 0.374628 0.994487
0.504055 0.43775 0.995385
0.566076 0.31159 0.993298
0.566073 0.373917 0.994647
0.566548 0.437437 0.99549
0.628348 0.311442 0.993616
0.628653 0.374671 0.994467
0.628928 0.437649 0.995406
0.691052 0.311609 0.993357
0.691035 0.373942 0.994665
0.691579 0.437419 0.995447
0.504316 0.50078 0.0327995
0.504206 0.56338 0.0327885
0.504413 0.626289 0.0328184
0.504517 0.688769 0.0327144
0.566727 0.500521 0.032741
0.566797 0.563538 0.0328505
0.566788 0.6261 0.0328593
0.567132 0.688846 0.0328133
0.629326 0.500742 0.0328127
0.62922 0.563376 0.0327668
0.62955 0.626275 0.0328486
0.62956 0.688762 0.0327611
0.691662 0.500507 0.0328131
0.691771 0.563547 0.0328127
0.691853 0.626189 0.0328925
0.69216 0.688766 0.0328144
0.504317 0.500453 0.0699796
0.50435 0.563326 0.0700374
0.504345 0.625829 0.0700725
0.504589 0.688577 0.0701865
0.566891 0.50049 0.0699726
0.566786 0.563223 0.070105
0.566863 0.626017 0.070122
0.567245 0.688386 0.0700357
0.629338 0.500374 0.0699171
0.629282 0.563319 0.0701049
0.629352 0.625809 0.070085
0.629636 0.688588 0.0702341
0.691874 0.500594 0.0699925
0.691765 0.563137 0.0700588
0.691837 0.626005 0.0701739
0.692156 0.688363 0.0699997
0.504468 0.500554 0.107339
0.504295 0.563006 0.107347
0.504639 0.625636 0.107422
0.504783 0.688114 0.10742
0.566812 0.500414 0.107288
0.566953 0.563079 0.107411
0.56707 0.625504 0.107428
0.567373 0.688271 0.107461
0.629452 0.500535 0.10734
0.62926 0.563013 0.107376
0.629535 0.625707 0.107409
0.629771 0.688052 0.107376
0.629171 0.500565 0.18199
0.69189 0.563095 0.10736
0.691925 0.625585 0.10733
0.692306 0.688334 0.107405
0.504337 0.500273 0.144637
0.504555 0.563073 0.144788
0.504682 0.625468 0.144695
0.504891 0.688105 0.144773
0.566809 0.500556 0.144726
0.566956 0.56295 0.14466
0.567114 0.625579 0.144702
0.567284 0.68791 0.144721
0.691871 0.625544 0.219404
0.629539 0.563055 0.14471
0.629622 0.625496 0.144679
0.629888 0.688012 0.144776
0.691858 0.500497 0.144691
0.691939 0.56291 0.144646
0.692117 0.62543 0.144668
0.69222 0.687884 0.144688
0.50427 0.500519 0.182015
0.504291 0.562897 0.182067
0.504445 0.625564 0.18206
0.504584 0.687819 0.182083
0.691728 0.562876 0.219409
0.566935 0.563016 0.182095
0.566872 0.625308 0.182011
0.567214 0.688088 0.182149
0.691854 0.500437 0.107245
0.629237 0.562949 0.181983
0.629544 0.625573 0.182031
0.629553 0.687793 0.182091
0.629517 0.688069 0.2195
0.691806 0.563039 0.182097
0.691942 0.625366 0.182023
0.692128 0.688042 0.182127
0.691771 0.68771 0.219383
0.504334 0.562973 0.21946
0.50429 0.625312 0.219417
0.50454 0.687971 0.219501
0.566674 0.500634 0.21941
0.566698 0.562946 0.219386
0.566884 0.625514 0.219413
0.566905 0.68764 0.21938
0.691698 0.500484 0.219428
0.629292 0.563009 0.219418
0.629258 0.625336 0.219398
0.691597 0.500345 0.181897
0.566666 0.500338 0.181957
0.504156 0.500319 0.219327
0.629274 0.500361 0.144623
0.629099 0.500278 0.219294
0.504082 0.500472 0.256772
0.504118 0.562862 0.256792
0.504222 0.625433 0.256791
0.504279 0.687559 0.256776
0.566841 0.687173 0.48061
0.566793 0.562875 0.256782
0.566807 0.625247 0.256776
0.566929 0.687917 0.25687
0.628753 0.562347 0.480816
0.629101 0.500443 0.256774
0.629243 0.562901 0.256785
0.629303 0.625379 0.256793
0.62924 0.687554 0.256821
0.629065 0.624759 0.4807
0.691701 0.562886 0.256785
0.691749 0.625246 0.256803
0.691873 0.687811 0.256911
0.628767 0.500024 0.480889
0.56654 0.749625 0.480795
0.504189 0.56283 0.29411
0.504233 0.62516 0.294078
0.504339 0.687806 0.294203
0.566476 0.50026 0.294038
0.566574 0.562768 0.29409
0.566707 0.625353 0.294143
0.566648 0.687578 0.294115
0.566102 0.500127 0.48084
0.629153 0.562792 0.294126
0.629193 0.625158 0.294125
0.629456 0.687721 0.294114
0.691038 0.500102 0.480825
0.691458 0.5002 0.294066
0.691638 0.562802 0.294102
0.691734 0.625237 0.294155
0.691726 0.687568 0.294171
0.503999 0.500116 0.331375
0.503917 0.562485 0.331382
0.504192 0.625237 0.33143
0.504016 0.687489 0.331438
0.691349 0.562437 0.48079
0.566662 0.562606 0.331344
0.566605 0.625016 0.331371
0.566838 0.687811 0.33147
0.628943 0.50014 0.331345
0.628875 0.562572 0.331384
0.629238 0.625342 0.331447
0.629109 0.687527 0.331422
0.691763 0.687215 0.48069
0.691592 0.562653 0.331348
0.691653 0.625052 0.331423
0.691825 0.687755 0.331469
0.504117 0.562631 0.368666
0.504097 0.624824 0.368693
0.504391 0.687608 0.368731
0.503758 0.500025 0.480898
0.566401 0.562476 0.368688
0.566706 0.625062 0.36872
0.566605 0.68743 0.368682
0.629088 0.562603 0.368664
0.629082 0.624956 0.368718
0.629356 0.687716 0.368737
0.691734 0.749951 0.40603
0.691379 0.562412 0.368669
0.691727 0.625137 0.368757
0.691676 0.687345 0.368741
0.691488 0.749594 0.480827
0.503692 0.562323 0.406009
0.504103 0.624865 0.405971
0.504066 0.687266 0.406023
0.566534 0.562429 0.405971
0.566561 0.624821 0.405946
0.566782 0.687592 0.406018
0.628918 0.687054 0.480702
0.628713 0.562423 0.405947
0.629103 0.62492 0.405978
0.629119 0.687326 0.405982
0.691381 0.562478 0.405955
0.691509 0.624935 0.406029
0.691768 0.687541 0.406012
0.566431 0.624653 0.480695
0.503934 0.562341 0.443299
0.504032 0.624609 0.443311
0.504219 0.687429 0.443305
0.56618 0.56227 0.443317
0.566698 0.624941 0.443322
0.566698 0.687145 0.443252
0.628995 0.562367 0.443291
0.628995 0.624775 0.443275
0.629263 0.687464 0.443233
0.691195 0.562319 0.44333
0.691717 0.624963 0.443367
0.691632 0.6873 0.443267
0.503873 0.562368 0.480807
0.504059 0.62473 0.48073
0.503877 0.687034 0.480681
0.691382 0.624684 0.48073
0.566462 0.562453 0.480801
0.628896 0.50008 0.293947
0.629112 0.749899 0.480868
0.504097 0.74978 0.480828
0.566371 0.500109 0.368661
0.503898 0.500142 0.293968
0.691409 0.500173 0.368615
0.628719 0.500011 0.406013
0.566575 0.500283 0.256713
0.691285 0.500037 0.443358
0.629125 0.7498 0.443404
0.691585 0.500308 0.256672
0.504173 0.749833 0.443373
0.503428 0.500833 0.518726
0.503702 0.562789 0.518591
0.503881 0.624794 0.518577
0.503951 0.686927 0.518456
0.503924 0.74939 0.51837
0.566157 0.500785 0.518711
0.566233 0.56278 0.518582
0.566308 0.624868 0.518627
0.566374 0.686726 0.518476
0.566362 0.749513 0.518451
0.628432 0.500809 0.518671
0.62877 0.562769 0.518605
0.628922 0.624824 0.518531
0.629022 0.687036 0.518466
0.628969 0.749298 0.518393
0.691097 0.50081 0.518751
0.691137 0.56291 0.518626
0.691425 0.624919 0.518687
0.691394 0.686776 0.518505
0.691402 0.749484 0.518537
0.503381 0.501828 0.556947
0.503537 0.563377 0.557149
0.503628 0.625167 0.557066
0.50375 0.686774 0.556578
0.503621 0.748903 0.556365
0.565757 0.501775 0.557001
0.566015 0.563441 0.557173
0.566118 0.624997 0.556828
0.566161 0.686891 0.556675
0.565944 0.749084 0.556163
0.628357 0.501845 0.556969
0.62852 0.563419 0.557129
0.628511 0.62514 0.557047
0.628655 0.686801 0.556629
0.628651 0.749016 0.556494
0.690859 0.501824 0.556968
0.690919 0.56356 0.557119
0.691118 0.625078 0.556898
0.691169 0.686858 0.556731
0.690954 0.748949 0.556158
0.504172 0.500836 0.995649
0.504241 0.563856 0.995606
0.504256 0.626609 0.995606
0.504296 0.688772 0.995401
0.566371 0.50089 0.995725
0.566641 0.563923 0.995628
0.566683 0.626495 0.99558
0.566751 0.689076 0.995527
0.629194 0.500801 0.995652
0.629164 0.563798 0.995656
0.629209 0.626629 0.995612
0.629382 0.688793 0.99548
0.691368 0.500934 0.995753
0.691639 0.563869 0.99565
0.691732 0.626498 0.995558
0.691845 0.68913 0.995557
0.504799 0.751371 0.0327884
0.504562 0.8141 0.0323676
0.504103 0.876478 0.0311443
0.503687 0.938664 0.0305684
0.56727 0.751548 0.0326484
0.567321 0.813925 0.0322571
0.56661 0.87625 0.0316365
0.56624 0.938623 0.0306759
0.62988 0.751485 0.0327655
0.629588 0.814149 0.0322767
0.629073 0.87645 0.0311454
0.628716 0.938624 0.0305843
0.692345 0.751588 0.032589
0.692293 0.813954 0.0322372
0.691668 0.876201 0.0315172
0.691234 0.938674 0.030678
0.692245 0.812747 0.219435
0.504926 0.75106 0.069982
0.504983 0.813526 0.0699147
0.50398 0.875613 0.0689103
0.50359 0.937888 0.0681577
0.566709 0.87542 0.218562
0.567474 0.751039 0.0701718
0.56731 0.81362 0.0697415
0.566468 0.875995 0.0686582
0.56586 0.937952 0.0682217
0.692074 0.750336 0.219581
0.629926 0.751094 0.0699967
0.629926 0.813525 0.0698935
0.629012 0.875602 0.0688949
0.628516 0.937744 0.0682228
0.567096 0.750432 0.219625
0.69234 0.751014 0.0700875
0.692132 0.813601 0.069756
0.691593 0.875895 0.0685673
0.690829 0.937951 0.0682376
0.503486 0.937331 0.218096
0.50509 0.750757 0.107462
0.504879 0.813252 0.107239
0.504074 0.875539 0.106253
0.503379 0.937843 0.105817
0.629892 0.812668 0.21981
0.567538 0.750735 0.107385
0.567641 0.813138 0.107353
0.566556 0.875221 0.106485
0.566086 0.93752 0.10584
0.504606 0.750318 0.219539
0.629957 0.750746 0.107402
0.629912 0.813127 0.107211
0.629134 0.875619 0.106316
0.628387 0.937869 0.105858
0.629567 0.750375 0.219511
0.692551 0.750742 0.10739
0.692615 0.813107 0.107354
0.691632 0.875267 0.106477
0.691101 0.937509 0.1059
0.629094 0.875072 0.21872
0.505018 0.750506 0.1447
0.504994 0.812953 0.144899
0.504119 0.875146 0.14393
0.503609 0.937472 0.143286
0.565962 0.937704 0.217994
0.567548 0.750578 0.14487
0.567531 0.812973 0.144679
0.566498 0.875575 0.143779
0.565742 0.937908 0.143314
0.691659 0.875316 0.218545
0.630001 0.750467 0.144749
0.630115 0.812883 0.144873
0.629057 0.875151 0.143845
0.628528 0.937512 0.14334
0.504895 0.812668 0.219802
0.692491 0.750513 0.144874
0.692456 0.81304 0.144597
0.691479 0.875535 0.143759
0.690655 0.937786 0.143279
0.567287 0.812862 0.219394
0.504864 0.750597 0.1822
0.504853 0.81291 0.182044
0.504034 0.875453 0.181153
0.503278 0.937872 0.180711
0.690922 0.937733 0.217988
0.567316 0.750326 0.182106
0.567378 0.812782 0.182285
0.566555 0.875095 0.18121
0.565909 0.937462 0.180801
0.504109 0.874925 0.218676
0.629798 0.750434 0.182208
0.629879 0.812876 0.182038
0.629025 0.875472 0.181149
0.628287 0.9379 0.18066
0.628553 0.937363 0.218189
0.692195 0.750349 0.182082
0.692392 0.812733 0.18234
0.69158 0.874912 0.181236
0.691035 0.937356 0.180791
0.628205 0.999943 0.180757
0.503242 0.999974 0.180725
0.628397 0.999967 0.105885
0.690979 0.999981 0.143321
0.566944 0.750244 0.25685
0.504439 0.750282 0.257017
0.504985 0.812793 0.256871
0.504249 0.875447 0.256008
0.503353 0.937667 0.255331
0.567318 0.812764 0.257176
0.566606 0.875002 0.256009
0.565873 0.937456 0.255465
0.629517 0.750286 0.257015
0.629799 0.812755 0.256872
0.629231 0.875437 0.255942
0.628482 0.93779 0.255319
0.692327 0.812659 0.257133
0.691687 0.875033 0.256045
0.690903 0.937373 0.25551
0.691918 0.750178 0.256854
0.504716 0.812933 0.294491
0.503947 0.875163 0.293378
0.503137 0.937476 0.292768
0.566887 0.750393 0.294212
0.567354 0.812969 0.294122
0.566571 0.875624 0.29326
0.565652 0.93794 0.292577
0.629723 0.812824 0.29443
0.628931 0.875145 0.29336
0.628181 0.937647 0.292802
0.69193 0.750357 0.294226
0.692324 0.812967 0.294189
0.691545 0.875607 0.293323
0.690639 0.938 0.292639
0.504357 0.750387 0.331447
0.504755 0.812878 0.331437
0.503938 0.875447 0.33059
0.503102 0.937943 0.329926
0.567078 0.812769 0.331761
0.566393 0.875169 0.330632
0.565605 0.937715 0.330123
0.629301 0.750357 0.331517
0.629743 0.812851 0.331454
0.628996 0.875468 0.330599
0.628191 0.937917 0.329904
0.690291 0.937384 0.479336
0.692189 0.812815 0.331757
0.691386 0.875184 0.330712
0.690528 0.937584 0.330129
0.5045 0.812645 0.369014
0.503812 0.875074 0.368044
0.503102 0.937633 0.367424
0.566707 0.750244 0.368777
0.567032 0.812727 0.368739
0.566521 0.875397 0.36786
0.565559 0.937874 0.367258
0.62955 0.812634 0.369028
0.628963 0.875094 0.368053
0.628101 0.937656 0.36742
0.691736 0.750298 0.368823
0.692115 0.812715 0.368787
0.691507 0.875397 0.367924
0.690673 0.937912 0.367261
0.504303 0.750079 0.406171
0.504462 0.81258 0.406115
0.503784 0.875334 0.405254
0.502837 0.937773 0.404588
0.566992 0.81259 0.406311
0.566165 0.874885 0.405373
0.5655 0.937507 0.404704
0.629246 0.750169 0.406113
0.629412 0.812563 0.40609
0.628767 0.875239 0.405225
0.62783 0.937796 0.404562
0.691993 0.812551 0.406358
0.691217 0.874934 0.405322
0.690502 0.937509 0.404731
0.504266 0.812534 0.443675
0.503453 0.874788 0.442708
0.502775 0.937502 0.442029
0.56668 0.81253 0.443405
0.56601 0.875309 0.442573
0.56516 0.93783 0.441963
0.629255 0.812586 0.44375
0.628555 0.874854 0.442773
0.627696 0.937541 0.442041
0.690893 0.874928 0.480025
0.691726 0.812543 0.443427
0.691005 0.875245 0.442571
0.690226 0.93783 0.441904
0.504022 0.812443 0.480841
0.503362 0.875296 0.479965
0.502683 0.937893 0.479344
0.566612 0.812468 0.48107
0.56587 0.874905 0.480051
0.565218 0.937439 0.479356
0.629037 0.812548 0.480907
0.628331 0.875279 0.479997
0.627713 0.937769 0.479298
0.691525 0.812463 0.481075
0.629263 0.75021 0.29418
0.691809 0.75017 0.443501
0.504183 0.75013 0.368754
0.504379 0.75032 0.294159
0.566793 0.750187 0.331348
0.691745 0.750191 0.33144
0.62919 0.750016 0.368747
0.566661 0.750005 0.40603
0.566708 0.750069 0.443513
0.503092 0.999941 0.255378
0.503837 0.812164 0.518477
0.503411 0.874692 0.517536
0.502647 0.937448 0.516647
0.566485 0.812162 0.518345
0.565822 0.875084 0.517445
0.565161 0.937874 0.51663
0.628906 0.812217 0.518475
0.628309 0.874725 0.517502
0.627681 0.937416 0.516652
0.691454 0.812047 0.518414
0.690888 0.874937 0.517476
0.690183 0.937926 0.516604
0.503423 0.811635 0.555843
0.503273 0.874782 0.554911
0.50269 0.937858 0.553979
0.566092 0.811782 0.556049
0.565873 0.874214 0.554817
0.565082 0.937622 0.553834
0.628563 0.811452 0.555831
0.628276 0.874782 0.554937
0.627839 0.93775 0.554001
0.691104 0.811715 0.556141
0.690906 0.87422 0.554776
0.690207 0.937739 0.553885
0.504732 0.751462 0.995356
0.50463 0.814353 0.995056
0.504096 0.877165 0.993969
0.503915 0.939946 0.992766
0.566881 0.751114 0.995397
0.566872 0.814392 0.994924
0.566771 0.877449 0.994032
0.566211 0.940121 0.992784
0.629671 0.751394 0.995388
0.629519 0.814276 0.995059
0.629149 0.877038 0.994033
0.628847 0.939866 0.992829
0.69185 0.75118 0.995426
0.691927 0.814342 0.995005
0.6918 0.877597 0.994051
0.691267 0.940108 0.992743
0.753673 0.00106649 0.0306279
0.753564 0.0630068 0.0306711
0.753521 0.125027 0.0306867
0.753243 0.187041 0.0309261
0.753426 0.249356 0.0310316
0.816166 9.91576e-04 0.0304921
0.816114 0.0631698 0.0306901
0.815934 0.124979 0.0306601
0.815921 0.186867 0.0309607
0.815837 0.249463 0.0309318
0.878721 0.00103657 0.0305991
0.878629 0.0630243 0.0307003
0.878543 0.124896 0.0306838
0.878298 0.18698 0.0308649
0.87843 0.249301 0.0310733
0.941204 9.14205e-04 0.0304635
0.941222 0.0630395 0.0307052
0.941055 0.124994 0.0306215
0.940956 0.186827 0.030929
0.940872 0.249406 0.0308942
0.753468 0.0624285 0.0684882
0.753275 0.124792 0.0686058
0.753325 0.187095 0.0686698
0.753084 1.11666e-04 0.217994
0.815892 0.0625802 0.0685045
0.815948 0.124812 0.0685921
0.815556 0.187221 0.0686601
0.815777 0.249614 0.068605
0.878562 0.0623896 0.0685011
0.878239 0.124727 0.0685571
0.878474 0.187088 0.0686619
0.878121 0.249744 0.068546
0.940921 0.0624864 0.0685563
0.940853 0.124736 0.0685841
0.940543 0.187298 0.0687127
0.940888 0.249664 0.0685132
0.753164 0.0624519 0.105976
0.753265 0.124718 0.105957
0.752902 0.187545 0.106057
0.816114 2.25679e-04 0.0684122
0.816078 0.0622363 0.105946
0.815485 0.124901 0.106021
0.815663 0.187219 0.106054
0.940387 0.249997 0.143367
0.878245 0.0624499 0.105946
0.87835 0.124709 0.105945
0.877915 0.187592 0.105988
0.878479 1.43869e-04 0.0684236
0.941088 0.0623217 0.105955
0.9405 0.124921 0.10596
0.940601 0.187147 0.10604
0.940398 0.125138 0.217869
0.753293 0.0624023 0.143302
0.752942 0.124949 0.143366
0.752981 0.187355 0.143432
0.815511 0.0625786 0.143335
0.815544 0.124842 0.143292
0.815256 0.187533 0.1433
0.753531 1.19164e-04 0.0684297
0.878343 0.0623188 0.143229
0.877822 0.124981 0.143352
0.877923 0.187327 0.143302
0.940592 0.0624323 0.143322
0.940564 0.124779 0.143292
0.940204 0.187489 0.143308
0.940153 0.187713 0.217859
0.752865 0.062592 0.180654
0.752988 0.124924 0.180577
0.752665 0.187613 0.180601
0.815541 0.0624612 0.180646
0.815263 0.125054 0.180584
0.815439 0.187524 0.180638
0.877808 0.0625664 0.180697
0.877902 0.124871 0.18059
0.877802 0.187612 0.180575
0.941178 1.63816e-04 0.0683976
0.940659 0.0623675 0.18062
0.940312 0.125038 0.180661
0.940385 0.187334 0.180597
0.940363 0.0626676 0.217972
0.753014 0.062464 0.217959
0.752857 0.125275 0.21785
0.752882 0.187637 0.217928
0.81536 0.0627092 0.217957
0.815364 0.12508 0.217882
0.815223 0.187828 0.217845
0.878083 1.51409e-04 0.218013
0.878029 0.0626054 0.217947
0.877777 0.125228 0.217837
0.877851 0.187457 0.217948
0.753052 0.249792 0.068615
0.878179 1.04769e-04 0.143298
0.815535 1.68645e-04 0.180638
0.940614 1.9915e-04 0.180653
0.75308 0.249843 0.106035
0.87805 0.249885 0.106014
0.815452 0.249985 0.143321
0.753171 1.11909e-04 0.1433
0.815897 1.84788e-05 0.105936
0.940696 5.62601e-05 0.218138
0.815536 0.249998 0.105872
0.752201 0.188403 0.478996
0.940285 2.76437e-04 0.367307
0.877459 0.0632364 0.479154
0.877291 0.125668 0.47912
0.877227 0.188493 0.479004
0.752855 0.0626682 0.255182
0.752843 0.125174 0.255108
0.752697 0.187765 0.255185
0.752896 3.51832e-04 0.292586
0.815458 0.0626064 0.255182
0.815153 0.125227 0.25511
0.815323 0.187562 0.255165
0.877843 0.0627198 0.255193
0.877721 0.124999 0.255169
0.877637 0.187783 0.255105
0.940429 0.0626598 0.25519
0.940282 0.125262 0.255027
0.94033 0.187513 0.255259
0.752678 0.0628016 0.292531
0.752751 0.125362 0.292462
0.752766 0.187552 0.292517
0.939863 4.85421e-04 0.479222
0.815237 0.0627801 0.292504
0.815256 0.125118 0.292486
0.815175 0.187801 0.29243
0.939684 0.188401 0.47923
0.877787 0.0627032 0.292548
0.877738 0.125253 0.292388
0.877754 0.187543 0.292541
0.940135 0.0629066 0.292516
0.940274 0.125193 0.292524
0.940139 0.187872 0.292433
0.939842 0.126 0.479035
0.939961 0.0631254 0.479181
0.752622 0.0629131 0.329801
0.752669 0.125187 0.329834
0.752467 0.187958 0.329819
0.815303 3.91739e-04 0.330001
0.815098 0.062834 0.329868
0.815144 0.125463 0.329819
0.815166 0.187612 0.329861
0.814872 0.125877 0.479007
0.877701 0.0629226 0.3298
0.877605 0.125143 0.329833
0.87753 0.18794 0.329803
0.752454 0.0632895 0.479111
0.940155 0.062848 0.329871
0.94017 0.125389 0.32983
0.940095 0.187676 0.329811
0.752594 0.0629166 0.367219
0.752533 0.125484 0.367146
0.752395 0.187687 0.367174
0.814607 0.188354 0.479161
0.815042 0.0630006 0.367173
0.815129 0.125283 0.367195
0.814792 0.18801 0.367151
0.877765 3.98675e-04 0.367222
0.87764 0.0627886 0.367188
0.877526 0.125399 0.367176
0.877471 0.187729 0.367242
0.814889 0.0631472 0.479159
0.939996 0.0628457 0.367184
0.939969 0.125211 0.367145
0.939855 0.188047 0.367165
0.752488 0.06299 0.404546
0.752386 0.125346 0.404486
0.752169 0.187923 0.404467
0.815075 5.12012e-04 0.404538
0.815015 0.0628255 0.404525
0.814831 0.125429 0.40455
0.814757 0.187798 0.404536
0.877492 4.77664e-04 0.479285
0.877419 0.0629242 0.404456
0.877471 0.125379 0.404496
0.877128 0.187951 0.404429
0.75273 4.24134e-04 0.367231
0.939993 0.0628029 0.404515
0.939842 0.125382 0.404493
0.939672 0.187786 0.404512
0.752438 4.61333e-04 0.441914
0.752561 0.0629092 0.441883
0.752272 0.125685 0.44175
0.752194 0.188033 0.441807
0.814941 5.15924e-04 0.479233
0.814937 0.0629242 0.441824
0.814922 0.125463 0.441797
0.814661 0.188222 0.441798
0.877501 4.01912e-04 0.441838
0.877495 0.0628257 0.441854
0.877207 0.125543 0.441821
0.877184 0.188047 0.44182
0.752406 0.125654 0.479089
0.939909 0.0628799 0.441851
0.939844 0.125368 0.441805
0.939625 0.188117 0.441781
0.752503 3.17518e-04 0.479257
0.815591 1.78594e-04 0.255359
0.752614 2.82845e-04 0.404627
0.940355 4.70657e-04 0.329912
0.940604 1.35347e-04 0.255269
0.877797 3.69256e-04 0.292568
0.939993 4.39266e-04 0.404557
0.940044 2.41326e-04 0.442017
0.81523 4.03006e-04 0.367289
0.753143 1.10513e-04 0.255339
0.877554 2.10371e-04 0.404618
0.815155 2.63104e-04 0.441984
0.878056 9.60409e-05 0.255328
0.752782 2.94568e-04 0.330046
0.877916 2.85527e-04 0.329944
0.815383 1.61195e-04 0.292645
0.940351 1.45369e-04 0.292634
0.752454 7.11561e-04 0.51643
0.752353 0.0633618 0.516408
0.752203 0.126218 0.516351
0.752152 0.188646 0.516478
0.81492 4.22706e-04 0.51649
0.814732 0.0634434 0.516328
0.814868 0.12605 0.516236
0.814505 0.188787 0.516403
0.877389 6.14669e-04 0.516458
0.877424 0.0632011 0.516415
0.877139 0.12626 0.516354
0.877165 0.188604 0.51635
0.939873 4.56046e-04 0.516499
0.939791 0.0634327 0.516373
0.939761 0.126063 0.516257
0.939592 0.188834 0.516356
0.75251 8.6456e-04 0.5536
0.752419 0.0637589 0.553567
0.752356 0.126584 0.553549
0.752405 0.18871 0.553674
0.815357 8.65042e-04 0.553587
0.814939 0.0639232 0.55355
0.814969 0.126534 0.553616
0.814821 0.189105 0.553647
0.877414 9.14342e-04 0.553683
0.877445 0.0637196 0.553571
0.877344 0.126446 0.553538
0.877311 0.188604 0.553721
0.940211 7.34487e-04 0.553536
0.939904 0.0638925 0.553562
0.939986 0.126516 0.553624
0.939949 0.188907 0.553633
0.753759 0.00223289 0.992372
0.753572 0.0637103 0.992178
0.753573 0.125412 0.99226
0.753339 0.186896 0.992619
0.753445 0.248894 0.992986
0.816286 0.00207405 0.992359
0.816113 0.063954 0.992203
0.815921 0.125282 0.992369
0.815948 0.18703 0.992605
0.816206 0.248896 0.993155
0.878787 0.00211798 0.992375
0.878611 0.0636262 0.992161
0.878558 0.125489 0.992284
0.878419 0.186854 0.992653
0.878582 0.248912 0.992997
0.941335 0.0019618 0.992315
0.941227 0.0638769 0.992191
0.940974 0.125333 0.992359
0.941066 0.186934 0.992531
0.941253 0.248882 0.993095
0.753386 0.311939 0.0309441
0.753585 0.374615 0.0317959
0.754058 0.437368 0.0325806
0.815789 0.312029 0.0310817
0.816152 0.374909 0.0319567
0.816631 0.437771 0.0325377
0.878342 0.312102 0.0308391
0.878747 0.374613 0.0317483
0.879079 0.43738 0.0326854
0.940806 0.312215 0.0310239
0.94122 0.374938 0.0319302
0.941659 0.43781 0.032618
0.753093 0.312495 0.068538
0.753599 0.375247 0.0693558
0.754199 0.437797 0.0699511
0.815578 0.312424 0.0682918
0.816056 0.374847 0.0692947
0.816722 0.437461 0.0699168
0.878185 0.312507 0.0685109
0.878492 0.375236 0.0692711
0.879196 0.437869 0.0699808
0.94062 0.312389 0.0683608
0.941078 0.374857 0.0692892
0.941711 0.437439 0.0698961
0.752894 0.312714 0.105707
0.753513 0.374906 0.106615
0.754118 0.437591 0.107233
0.815439 0.312499 0.105972
0.81579 0.375388 0.106711
0.816658 0.437929 0.107342
0.877872 0.312512 0.10565
0.878484 0.374941 0.106594
0.879088 0.437668 0.107203
0.9405 0.312579 0.105954
0.940925 0.375398 0.106666
0.941677 0.437959 0.107317
0.752904 0.250204 0.143221
0.752578 0.312699 0.143278
0.753165 0.375396 0.14397
0.75401 0.437949 0.144664
0.815069 0.312608 0.142997
0.81571 0.375033 0.143954
0.816503 0.437627 0.144591
0.877902 0.250193 0.143183
0.877654 0.312643 0.143205
0.878229 0.375376 0.143995
0.878984 0.437931 0.144607
0.939958 0.312611 0.142999
0.940789 0.374836 0.143947
0.941445 0.437538 0.144535
0.939914 0.312783 0.217562
0.752556 0.312576 0.180301
0.753064 0.37509 0.181302
0.753757 0.437756 0.181806
0.815304 0.250186 0.180515
0.814872 0.312705 0.180591
0.815528 0.375447 0.181357
0.81637 0.438023 0.182043
0.941436 0.437728 0.219185
0.87746 0.312717 0.180322
0.878096 0.375057 0.181289
0.878862 0.437673 0.181827
0.94023 0.250191 0.180583
0.939837 0.312683 0.18058
0.940563 0.375403 0.18135
0.941387 0.438096 0.182044
0.752746 0.250333 0.217865
0.752448 0.312938 0.217891
0.753196 0.375641 0.218689
0.753942 0.438136 0.219263
0.940695 0.375267 0.218585
0.815029 0.312884 0.217626
0.815694 0.37521 0.218681
0.816484 0.437713 0.219137
0.877828 0.250367 0.217772
0.877282 0.312901 0.217907
0.878207 0.375643 0.218691
0.878921 0.43805 0.219281
0.940274 0.250166 0.217923
0.940487 0.250133 0.105878
0.815366 0.250209 0.217891
0.877792 0.250064 0.180545
0.752799 0.250027 0.180668
0.939337 0.251075 0.479032
0.752301 0.312851 0.254789
0.753049 0.375322 0.25596
0.753911 0.437669 0.25648
0.815145 0.250303 0.255062
0.814846 0.312962 0.255216
0.815583 0.375667 0.256022
0.816417 0.438119 0.256637
0.941152 0.437896 0.480973
0.877486 0.312834 0.254799
0.878087 0.375302 0.255918
0.878894 0.437731 0.256458
0.940063 0.250332 0.255147
0.939775 0.312865 0.255163
0.940624 0.375773 0.255986
0.941336 0.438101 0.256627
0.752534 0.250377 0.292385
0.752147 0.312879 0.292469
0.752885 0.375523 0.293351
0.753741 0.437957 0.293992
0.814755 0.312824 0.292147
0.815511 0.375133 0.293253
0.816119 0.437556 0.293787
0.877583 0.250306 0.292361
0.877185 0.312855 0.292418
0.877939 0.375605 0.293309
0.878724 0.437877 0.293979
0.939798 0.312673 0.292054
0.940413 0.375178 0.293255
0.941076 0.437537 0.293787
0.940501 0.375871 0.480547
0.752341 0.312759 0.329494
0.753087 0.375047 0.33059
0.753586 0.437386 0.331079
0.81486 0.250385 0.329734
0.814769 0.31287 0.329817
0.815536 0.375321 0.330698
0.816327 0.437887 0.331226
0.877308 0.312661 0.329487
0.878077 0.375068 0.330603
0.878615 0.437375 0.331094
0.939967 0.250384 0.329616
0.939743 0.312839 0.329809
0.940531 0.375401 0.330653
0.941289 0.437914 0.331212
0.752211 0.250484 0.367016
0.752238 0.312977 0.367258
0.753049 0.375546 0.368061
0.754031 0.437861 0.368637
0.753719 0.499829 0.443418
0.814594 0.250487 0.367128
0.814767 0.312819 0.36684
0.81562 0.375099 0.367968
0.816146 0.437476 0.368485
0.877311 0.250456 0.366951
0.877249 0.313004 0.367182
0.878123 0.375522 0.368065
0.878895 0.437992 0.368638
0.939646 0.250309 0.367073
0.939772 0.312762 0.366898
0.940727 0.375017 0.367939
0.941116 0.437478 0.368462
0.751938 0.250387 0.404477
0.751913 0.312988 0.404356
0.753144 0.375132 0.405358
0.753509 0.437541 0.405985
0.814511 0.250536 0.404337
0.814591 0.31306 0.404551
0.815588 0.375542 0.405464
0.816329 0.437761 0.405988
0.877007 0.250365 0.404455
0.877095 0.312935 0.40426
0.878081 0.375102 0.405364
0.878383 0.437466 0.405945
0.752348 0.250354 0.329777
0.939547 0.250544 0.404331
0.93953 0.312892 0.404533
0.940654 0.375522 0.405457
0.941341 0.437802 0.405931
0.751879 0.250745 0.441736
0.752117 0.313243 0.442013
0.753069 0.375525 0.443006
0.753726 0.437636 0.443489
0.814342 0.250692 0.441735
0.814428 0.313026 0.441801
0.815481 0.375275 0.442669
0.816099 0.437501 0.443378
0.876946 0.250818 0.441747
0.877164 0.313142 0.441997
0.877976 0.37564 0.443035
0.878691 0.437741 0.443409
0.878705 0.499911 0.443415
0.939367 0.250683 0.441811
0.939398 0.313035 0.441829
0.940412 0.375223 0.442704
0.940973 0.437504 0.443333
0.815064 0.250215 0.292435
0.751954 0.251016 0.479203
0.752082 0.313453 0.479303
0.752987 0.375573 0.480315
0.753537 0.437715 0.481088
0.814433 0.251053 0.479095
0.814633 0.313539 0.479395
0.815453 0.375836 0.480545
0.816303 0.437933 0.480971
0.876881 0.251033 0.479213
0.877017 0.313436 0.479288
0.878134 0.375508 0.480343
0.878596 0.437847 0.481067
0.93962 0.313606 0.479416
0.94008 0.250117 0.292369
0.816084 0.499949 0.405971
0.8777 0.250283 0.255163
0.752645 0.250171 0.255205
0.877321 0.250266 0.329734
0.878873 0.499962 0.406003
0.75382 0.499937 0.368664
0.816342 0.499971 0.443371
0.941214 0.499963 0.44328
0.941037 0.499947 0.406003
0.753813 0.499999 0.406004
0.941125 0.499997 0.480902
0.751852 0.251428 0.516424
0.752349 0.314064 0.516896
0.752873 0.376488 0.518112
0.753483 0.438685 0.51865
0.814448 0.251445 0.516576
0.81463 0.313898 0.516885
0.815442 0.376076 0.517628
0.815883 0.438576 0.518659
0.876988 0.25136 0.516458
0.877254 0.314068 0.516863
0.877906 0.376565 0.518127
0.878353 0.438537 0.518717
0.939448 0.251389 0.516574
0.939647 0.313901 0.516889
0.940348 0.376238 0.517635
0.940863 0.438623 0.518651
0.752044 0.251461 0.553771
0.752282 0.314309 0.554225
0.752953 0.377034 0.555359
0.753224 0.439642 0.55658
0.814802 0.251194 0.55376
0.814847 0.314199 0.554193
0.81527 0.377421 0.555263
0.815704 0.439845 0.556579
0.876996 0.251314 0.55377
0.877311 0.314176 0.554115
0.877882 0.376953 0.555341
0.878118 0.439684 0.556581
0.939878 0.251102 0.553782
0.939893 0.31431 0.554202
0.940281 0.377411 0.555337
0.940726 0.439871 0.556676
0.753518 0.31145 0.993553
0.753771 0.374733 0.994455
0.754075 0.437675 0.995346
0.816125 0.311589 0.993337
0.816126 0.373987 0.994589
0.816576 0.437554 0.995451
0.878596 0.311531 0.99356
0.878804 0.374756 0.994415
0.878985 0.437703 0.995374
0.941046 0.311628 0.993257
0.941226 0.374081 0.994577
0.941645 0.437632 0.995427
0.754313 0.500774 0.0328413
0.754203 0.563343 0.0327717
0.75439 0.62627 0.0328522
0.754532 0.688808 0.0327488
0.81668 0.500611 0.0327501
0.816828 0.563585 0.0328986
0.816749 0.626095 0.0328697
0.817119 0.688802 0.032765
0.879401 0.50073 0.0327977
0.879176 0.563436 0.0327676
0.879354 0.626286 0.0327986
0.879442 0.688757 0.0328273
0.941642 0.500463 0.0327041
0.94181 0.563575 0.0328779
0.941813 0.626195 0.0328422
0.942193 0.688805 0.0328451
0.754315 0.500387 0.0699474
0.754282 0.563269 0.0700059
0.754364 0.625817 0.0700512
0.754596 0.688698 0.0701307
0.816868 0.500604 0.0699394
0.816801 0.563176 0.0700523
0.816882 0.626022 0.0701143
0.817172 0.688367 0.0699839
0.879378 0.500468 0.0699545
0.879288 0.563275 0.070036
0.879399 0.625769 0.0700372
0.879549 0.688513 0.070188
0.941942 0.500661 0.0700159
0.94171 0.563276 0.0700626
0.94197 0.625967 0.0700905
0.942062 0.68835 0.0699997
0.754461 0.500537 0.107294
0.754276 0.563035 0.10736
0.754551 0.625649 0.107349
0.754739 0.688056 0.107411
0.816893 0.500328 0.107261
0.816922 0.563125 0.107388
0.816986 0.62557 0.107416
0.817402 0.688222 0.107383
0.879388 0.500451 0.107338
0.87935 0.562974 0.107328
0.879567 0.625648 0.107318
0.879806 0.688046 0.107336
0.941892 0.500306 0.10725
0.941995 0.563114 0.107457
0.942019 0.625563 0.107407
0.942412 0.688301 0.107452
0.941777 0.625508 0.219394
0.75448 0.563039 0.144688
0.754498 0.625463 0.144661
0.754856 0.688104 0.144769
0.816914 0.500498 0.144717
0.816922 0.562899 0.144666
0.816987 0.625516 0.144637
0.817175 0.687868 0.144704
0.941646 0.500541 0.21936
0.879436 0.563064 0.144645
0.879512 0.625458 0.144701
0.879768 0.68806 0.14473
0.941823 0.50053 0.144657
0.94197 0.56289 0.144671
0.942101 0.625452 0.144675
0.942227 0.687805 0.144731
0.754217 0.500619 0.181964
0.75432 0.562872 0.182018
0.754464 0.625473 0.182067
0.754517 0.687742 0.182063
0.941776 0.562869 0.219368
0.816925 0.562965 0.182081
0.817038 0.62519 0.182021
0.817165 0.688038 0.182064
0.879205 0.500595 0.181953
0.879297 0.562865 0.182
0.879399 0.625483 0.18204
0.87951 0.687838 0.182045
0.941729 0.687622 0.219379
0.941864 0.563044 0.18212
0.94188 0.625287 0.182012
0.942075 0.688057 0.182039
0.879208 0.625308 0.219389
0.754295 0.563057 0.21938
0.75427 0.625297 0.219404
0.754421 0.688084 0.219463
0.879286 0.562922 0.21942
0.816658 0.500531 0.21939
0.816721 0.562948 0.219362
0.816793 0.625494 0.219404
0.816803 0.687768 0.219397
0.879408 0.688019 0.219525
0.879175 0.500252 0.21922
0.754275 0.500259 0.144571
0.941705 0.500326 0.181922
0.879356 0.500278 0.14457
0.816717 0.500336 0.1819
0.754183 0.500382 0.219231
0.75411 0.500374 0.256658
0.754184 0.562754 0.256734
0.754318 0.625425 0.256828
0.754219 0.687555 0.256757
0.87888 0.500213 0.29399
0.816645 0.562903 0.25676
0.816722 0.625145 0.256777
0.816833 0.687867 0.256861
0.9415 0.7496 0.480774
0.879144 0.50049 0.25665
0.879188 0.562817 0.256734
0.879163 0.625391 0.256821
0.87915 0.687555 0.256743
0.816492 0.500219 0.368592
0.941829 0.562939 0.256732
0.941702 0.625188 0.256724
0.941764 0.687886 0.256808
0.878709 0.5001 0.480833
0.879094 0.7497 0.480895
0.754262 0.562778 0.294133
0.754153 0.625149 0.294122
0.754397 0.687848 0.294161
0.941643 0.687076 0.480665
0.816421 0.500223 0.294023
0.816493 0.562752 0.294071
0.816715 0.625237 0.294167
0.816747 0.687505 0.294053
0.941532 0.624522 0.480638
0.879175 0.562734 0.294051
0.879237 0.625161 0.294061
0.879382 0.687826 0.294152
0.753754 0.500155 0.480889
0.941504 0.50028 0.293978
0.94155 0.562682 0.294032
0.941682 0.625277 0.294113
0.94172 0.687546 0.294066
0.7539 0.562433 0.331364
0.754133 0.625241 0.331471
0.753989 0.687495 0.331438
0.941299 0.500139 0.331217
0.816568 0.562759 0.33134
0.816614 0.625084 0.331383
0.816801 0.687757 0.331408
0.879015 0.500271 0.331278
0.878916 0.562585 0.331308
0.87921 0.625337 0.331383
0.879097 0.687556 0.331343
0.941617 0.562833 0.331292
0.941601 0.625113 0.331377
0.941728 0.687744 0.331397
0.754086 0.562652 0.368716
0.754052 0.624961 0.368728
0.754337 0.687686 0.368763
0.754085 0.749925 0.480843
0.816343 0.562544 0.368701
0.816747 0.62504 0.368703
0.816592 0.687299 0.368721
0.879081 0.562667 0.368677
0.879082 0.624987 0.368679
0.879289 0.687616 0.368704
0.754033 0.500156 0.331327
0.941315 0.562575 0.368653
0.941715 0.625169 0.368694
0.941552 0.687362 0.368686
0.879014 0.6247 0.480691
0.753692 0.562346 0.406042
0.754115 0.624968 0.40599
0.754095 0.687273 0.406022
0.816424 0.56249 0.405997
0.816548 0.624806 0.406078
0.816753 0.687413 0.406071
0.878752 0.562352 0.405952
0.879139 0.6249 0.406014
0.879185 0.687262 0.406049
0.941486 0.562494 0.405899
0.941488 0.624836 0.406046
0.941849 0.687503 0.405974
0.878747 0.562348 0.480795
0.754006 0.562412 0.443268
0.754017 0.624647 0.443291
0.754319 0.687476 0.443339
0.878842 0.686937 0.480719
0.816264 0.562328 0.443343
0.816742 0.624882 0.443353
0.816725 0.68709 0.443306
0.879003 0.562306 0.443378
0.879062 0.624606 0.443271
0.879254 0.687468 0.443382
0.941193 0.562286 0.443288
0.941657 0.624873 0.443386
0.941638 0.687123 0.443269
0.753725 0.562363 0.480825
0.753953 0.624798 0.480747
0.753858 0.687041 0.480782
0.941354 0.562378 0.48077
0.816379 0.562505 0.480755
0.816364 0.624561 0.480739
0.816637 0.687173 0.480665
0.816534 0.749625 0.480814
0.941643 0.749762 0.406011
0.941321 0.500179 0.368625
0.754167 0.749931 0.368784
0.81615 0.500006 0.480848
0.879182 0.749884 0.443382
0.7541 0.749817 0.443422
0.941614 0.500275 0.256686
0.878824 0.500038 0.368586
0.816682 0.749948 0.443557
0.816713 0.749907 0.406087
0.816568 0.500211 0.256673
0.753892 0.50016 0.293927
0.81639 0.500018 0.33128
0.753357 0.500928 0.518691
0.753711 0.562761 0.518653
0.753929 0.624805 0.51857
0.753992 0.686994 0.518475
0.753839 0.749296 0.5184
0.816081 0.500704 0.51867
0.816154 0.562812 0.518681
0.816408 0.624747 0.51861
0.816418 0.686697 0.518441
0.816495 0.749491 0.518478
0.878427 0.500869 0.51864
0.878719 0.562788 0.518615
0.878893 0.624829 0.51857
0.879041 0.686915 0.518405
0.878933 0.749181 0.518379
0.940995 0.500767 0.518781
0.941011 0.562834 0.518671
0.941322 0.624773 0.518622
0.941412 0.6866 0.518373
0.941453 0.749412 0.518411
0.753349 0.501999 0.556937
0.753383 0.563478 0.557155
0.753565 0.625166 0.557147
0.753584 0.686785 0.556685
0.753681 0.748828 0.556376
0.815935 0.501857 0.557057
0.815923 0.563613 0.557171
0.816218 0.625058 0.556901
0.81621 0.686764 0.556698
0.815967 0.74876 0.556194
0.878431 0.501871 0.557043
0.878526 0.563474 0.557269
0.878481 0.625166 0.557114
0.878707 0.686719 0.556706
0.87859 0.748892 0.55633
0.940884 0.501784 0.55712
0.940866 0.563498 0.557197
0.941215 0.625023 0.556892
0.941174 0.68681 0.556717
0.940895 0.748733 0.55612
0.754123 0.500979 0.995626
0.754107 0.563749 0.995609
0.754201 0.626565 0.99561
0.754447 0.688778 0.995467
0.816363 0.500851 0.995683
0.816638 0.563859 0.995672
0.816619 0.626476 0.995554
0.81672 0.689043 0.995534
0.879119 0.500921 0.995639
0.879036 0.563692 0.995626
0.879282 0.626582 0.995617
0.879469 0.688742 0.995419
0.941423 0.500772 0.995751
0.941699 0.563923 0.995582
0.941563 0.626598 0.995575
0.941778 0.689053 0.99559
0.754831 0.751406 0.0327652
0.754623 0.814152 0.0323168
0.754132 0.876435 0.0311393
0.753675 0.938723 0.0305793
0.817295 0.751521 0.0326352
0.817378 0.813938 0.0322856
0.816699 0.876255 0.0316103
0.816235 0.938755 0.0306847
0.879884 0.751403 0.0327828
0.879616 0.814247 0.0323734
0.879156 0.876513 0.0311647
0.878751 0.938728 0.0305551
0.942357 0.751572 0.0326553
0.942383 0.814006 0.0322587
0.941663 0.876275 0.0316265
0.941219 0.938675 0.0306571
0.942331 0.812763 0.21936
0.754945 0.75107 0.0699643
0.754875 0.81346 0.0698511
0.753984 0.875437 0.0689146
0.753531 0.937895 0.0681146
0.815945 0.937782 0.217935
0.817413 0.751113 0.0701762
0.817243 0.813586 0.0697214
0.816519 0.876004 0.068564
0.815786 0.938009 0.0681886
0.941699 0.875307 0.218617
0.879807 0.751135 0.0699746
0.879923 0.813579 0.0699674
0.878939 0.875684 0.06885
0.878566 0.93795 0.0681732
0.817319 0.750445 0.182115
0.942383 0.751108 0.07011
0.94227 0.813596 0.0697676
0.941608 0.876044 0.0686118
0.940885 0.937978 0.0681947
0.75405 0.874963 0.218644
0.755056 0.750736 0.107442
0.755005 0.813245 0.10722
0.754244 0.875726 0.106259
0.753343 0.93782 0.105816
0.879438 0.750285 0.219523
0.817419 0.750704 0.107425
0.81762 0.813057 0.107356
0.816468 0.875259 0.106476
0.816134 0.937628 0.105846
0.816708 0.875392 0.218529
0.879935 0.750786 0.107384
0.879853 0.81325 0.107248
0.879175 0.875518 0.106248
0.878341 0.937864 0.105822
0.942039 0.750374 0.219571
0.942499 0.750722 0.107384
0.942622 0.813111 0.107353
0.941646 0.875201 0.106495
0.941096 0.937628 0.105853
0.878458 0.937422 0.218122
0.754957 0.750421 0.144767
0.755056 0.812934 0.144856
0.753999 0.875088 0.143867
0.753538 0.937477 0.143328
0.817023 0.750433 0.219642
0.81731 0.750534 0.144871
0.817452 0.812969 0.144694
0.816519 0.87554 0.143759
0.815747 0.937904 0.14328
0.879716 0.812715 0.219759
0.87996 0.750428 0.144773
0.879961 0.812883 0.14484
0.87904 0.875041 0.143857
0.878633 0.937467 0.143321
0.753564 0.937396 0.218147
0.942425 0.750522 0.144864
0.942504 0.812981 0.144637
0.941525 0.875487 0.143799
0.940807 0.937804 0.143267
0.879123 0.875038 0.218592
0.754791 0.750449 0.182223
0.754957 0.812889 0.18201
0.754 0.875496 0.181154
0.753299 0.937816 0.180694
0.940863 0.93775 0.218008
0.754467 0.75039 0.219478
0.817333 0.81285 0.182368
0.81654 0.875053 0.181236
0.816096 0.937359 0.18075
0.817368 0.812691 0.219412
0.879697 0.750513 0.182201
0.879845 0.812945 0.182003
0.879065 0.875334 0.181175
0.878306 0.937876 0.180674
0.942321 0.750366 0.18207
0.942403 0.812781 0.182338
0.941563 0.874958 0.181213
0.940995 0.937496 0.180733
0.754796 0.812632 0.219775
0.878467 0.999792 0.105867
0.753432 0.999834 0.10587
0.815687 0.999932 0.218088
0.753272 0.999944 0.180734
0.81594 0.999946 0.14331
0.878224 0.999976 0.180702
0.940887 0.999943 0.143323
0.940956 0.999987 0.105899
0.816839 0.750103 0.256879
0.754348 0.750389 0.256946
0.754862 0.812766 0.256847
0.754156 0.875458 0.255981
0.75334 0.937834 0.255349
0.817226 0.812715 0.257173
0.816569 0.875128 0.256017
0.815914 0.93751 0.255471
0.94182 0.75024 0.256834
0.879384 0.750337 0.256913
0.879796 0.812817 0.256837
0.879165 0.87539 0.255891
0.878406 0.937766 0.255256
0.942295 0.812804 0.257141
0.941587 0.874968 0.255997
0.940925 0.937395 0.255382
0.754771 0.812731 0.294401
0.754034 0.875144 0.293403
0.753148 0.93761 0.2928
0.816872 0.750385 0.294238
0.817352 0.812925 0.294115
0.816479 0.875613 0.293261
0.815705 0.937943 0.292593
0.879651 0.812833 0.294426
0.87899 0.875215 0.293317
0.878096 0.937558 0.29271
0.941815 0.750312 0.294177
0.942361 0.812884 0.29409
0.941523 0.875519 0.293279
0.940686 0.937852 0.292508
0.754243 0.750414 0.331471
0.754707 0.812839 0.331434
0.753986 0.87558 0.330573
0.753087 0.93804 0.329897
0.81713 0.812709 0.331702
0.816406 0.875129 0.330647
0.815595 0.937693 0.330079
0.879319 0.750472 0.331462
0.879692 0.81283 0.331434
0.879046 0.875392 0.330565
0.878132 0.93802 0.329814
0.942046 0.812718 0.331745
0.941391 0.875137 0.330638
0.940563 0.937649 0.330038
0.754323 0.750135 0.294197
0.754595 0.812677 0.369038
0.753985 0.875016 0.368031
0.753187 0.937571 0.36745
0.816809 0.750171 0.368805
0.817179 0.812827 0.368809
0.816477 0.875397 0.367923
0.815694 0.937977 0.367194
0.879564 0.812606 0.368994
0.878888 0.875031 0.368026
0.878167 0.937549 0.36742
0.941713 0.750202 0.368821
0.942086 0.812755 0.368806
0.941451 0.875466 0.367905
0.940689 0.937968 0.367231
0.754285 0.750129 0.406161
0.754479 0.812581 0.4061
0.753795 0.875368 0.405232
0.75285 0.937926 0.404526
0.816925 0.812644 0.406388
0.8162 0.874986 0.405364
0.815377 0.937537 0.404689
0.879195 0.750164 0.406127
0.879384 0.81263 0.406057
0.87887 0.875356 0.405239
0.87796 0.937827 0.404579
0.941968 0.812619 0.406352
0.941246 0.875055 0.405325
0.940469 0.937548 0.40471
0.754154 0.812529 0.443759
0.753486 0.874976 0.442766
0.752794 0.937534 0.442032
0.940217 0.937309 0.479385
0.816615 0.81256 0.443443
0.815963 0.875301 0.442508
0.815272 0.937796 0.441949
0.879192 0.812558 0.443667
0.878479 0.874916 0.442694
0.877852 0.937466 0.442012
0.940969 0.874813 0.480029
0.941698 0.81249 0.443356
0.941085 0.875414 0.442594
0.9403 0.93785 0.441955
0.754043 0.812568 0.480873
0.753474 0.87537 0.480042
0.752612 0.937897 0.479308
0.816494 0.81248 0.481069
0.815977 0.874821 0.480071
0.815246 0.937446 0.479365
0.878941 0.812376 0.480869
0.87847 0.875196 0.480059
0.877676 0.937798 0.479253
0.941532 0.812347 0.481091
0.816764 0.750141 0.331439
0.879236 0.750123 0.29412
0.879192 0.750069 0.368762
0.941721 0.75004 0.443543
0.941611 0.750004 0.331413
0.753835 0.812199 0.518527
0.753368 0.874607 0.517576
0.752614 0.937225 0.516666
0.816353 0.81199 0.518308
0.815882 0.875055 0.51741
0.815105 0.937851 0.516631
0.878803 0.811989 0.518421
0.878272 0.874471 0.517565
0.877758 0.937315 0.5167
0.941321 0.81202 0.518306
0.940877 0.874954 0.517382
0.940141 0.937782 0.516666
0.753389 0.811561 0.555884
0.753296 0.874794 0.554942
0.752873 0.937701 0.553978
0.816061 0.81163 0.556041
0.815924 0.874093 0.554788
0.815113 0.937584 0.553857
0.878489 0.811325 0.555795
0.878162 0.874829 0.554978
0.8777 0.937776 0.553982
0.941042 0.81157 0.556035
0.940945 0.873997 0.554752
0.940198 0.937591 0.553843
0.754652 0.751448 0.995465
0.75461 0.814335 0.9951
0.75428 0.877212 0.99398
0.75396 0.939966 0.992806
0.816841 0.751259 0.995367
0.816955 0.814439 0.994961
0.816881 0.877607 0.993972
0.816411 0.940053 0.992691
0.879599 0.751426 0.995399
0.879618 0.814331 0.995042
0.879206 0.877107 0.993922
0.878976 0.939767 0.992708
0.941891 0.751205 0.995447
0.942006 0.814424 0.99497
0.94172 0.877413 0.994007
0.941394 0.940044 0.992639
0.128053 0.188389 0.749456
0.0656512 0.0630611 0.749225
0.0655964 0.188268 0.74959
0.0655074 0.12557 0.749451
0.190616 0.188552 0.709055
0.128221 0.125583 0.749373
0.00297619 0.188216 0.749602
0.190745 0.063015 0.749372
0.128333 3.08847e-04 0.749054
0.00321508 0.125645 0.749452
0.190542 0.188421 0.749463
0.12822 0.0628725 0.74929
0.0657583 4.84988e-04 0.749169
0.190558 4.88584e-04 0.74915
0.19066 0.125651 0.749428
0.00234215 0.0622625 0.590966
0.00143628 0.126237 0.591048
0.00217133 0.189684 0.59112
0.0644155 0.0630982 0.59099
0.0646405 0.125675 0.5909
0.0641694 0.188796 0.591186
0.12716 0.0622187 0.590969
0.126455 0.126211 0.591074
0.12716 0.18984 0.591059
0.189183 0.0631262 0.590947
0.189487 0.125869 0.590963
0.188993 0.188812 0.591157
0.00264589 6.87175e-04 0.628689
0.00268634 0.063813 0.629077
0.00256815 0.126239 0.629446
0.00293321 0.188355 0.629397
0.0651944 7.96626e-04 0.628531
0.0649584 0.0642448 0.629049
0.0652959 0.126245 0.629376
0.0652718 0.188352 0.629444
0.127496 7.15554e-04 0.628655
0.127704 0.0638026 0.628966
0.127633 0.126386 0.629401
0.127976 0.188368 0.62941
0.190101 9.41758e-04 0.628478
0.189942 0.0642841 0.62908
0.190421 0.12631 0.629384
0.190167 0.188336 0.629538
0.00306632 8.48197e-04 0.6676
0.00303064 0.0636548 0.668496
0.0029458 0.125841 0.668883
0.00299687 0.188254 0.668793
0.0653975 0.00120345 0.667609
0.0654807 0.0636608 0.668457
0.0655993 0.125965 0.668865
0.0654109 0.188397 0.668783
0.128063 9.43484e-04 0.66747
0.127945 0.063591 0.668487
0.127993 0.125966 0.668921
0.127925 0.188458 0.668777
0.190411 0.00108003 0.667526
0.190527 0.0636424 0.668446
0.19056 0.125845 0.668892
0.190474 0.188644 0.668796
0.00320222 9.33784e-05 0.708027
0.00304269 0.0630105 0.708634
0.00298165 0.125768 0.709014
0.00300837 0.188404 0.709045
0.0654841 0.0628686 0.708666
0.0655892 0.125801 0.709012
0.0655257 0.188635 0.709011
0.00310422 0.0627908 0.749297
0.128101 0.0630125 0.708657
0.12808 0.125817 0.709061
0.127978 0.188684 0.708996
0.00321871 7.22618e-04 0.749194
0.190651 0.0629591 0.708683
0.190529 0.125892 0.709033
0.190626 3.11022e-05 0.708
0.19101 0.24734 0.953606
0.190956 0.125691 0.952594
0.190722 0.0650393 0.952553
0.190693 0.186528 0.95298
0.0657797 0.00405881 0.953003
0.0656889 0.0648852 0.952546
0.0663 0.249817 0.872886
0.066009 0.125581 0.952619
0.128511 0.24708 0.95371
0.065879 0.186478 0.952934
0.00341132 0.247015 0.953783
0.128483 0.186486 0.95294
0.12831 0.00420246 0.952954
0.00356862 0.186383 0.952956
0.190588 0.00396 0.953002
0.065974 0.247339 0.953584
0.12847 0.125691 0.952527
0.00332845 0.125673 0.952629
0.00372071 0.249885 0.872973
0.00311314 0.0011013 0.790479
0.00321163 0.0633265 0.790428
0.0031975 0.125706 0.790461
0.00327889 0.188095 0.790553
0.0657858 0.0011642 0.790472
0.0657621 0.0635555 0.790407
0.0658375 0.125731 0.790397
0.0658382 0.188036 0.790576
0.128318 0.00132759 0.790413
0.128267 0.0634618 0.790335
0.128381 0.125803 0.790334
0.128224 0.188118 0.790472
0.191052 0.00108945 0.790499
0.190856 0.0634689 0.790379
0.19089 0.125835 0.790318
0.190829 0.188274 0.79045
0.00341792 0.00145254 0.831585
0.00349534 0.0636719 0.831408
0.00344067 0.125948 0.831325
0.00346794 0.188178 0.831581
0.0659031 0.001463 0.831501
0.0660343 0.0638236 0.831347
0.065982 0.12596 0.831364
0.0659872 0.188151 0.831631
0.128359 0.0015623 0.831585
0.12853 0.0635741 0.8314
0.128617 0.125978 0.831416
0.128614 0.18821 0.83153
0.190814 0.00161136 0.831642
0.190965 0.0637915 0.831357
0.191082 0.126055 0.831288
0.191154 0.188258 0.831462
0.00344951 0.0020162 0.872461
0.003498 0.0639008 0.872063
0.00359054 0.125909 0.871927
0.00349834 0.187896 0.872306
0.0659484 0.00206318 0.872561
0.0660729 0.0639366 0.872042
0.0661312 0.125956 0.871951
0.0661243 0.18801 0.8723
0.00323219 0.0648967 0.952686
0.128509 0.00199634 0.872467
0.128462 0.0640177 0.872022
0.128572 0.125868 0.87199
0.128601 0.187958 0.872311
0.128283 0.0648992 0.952565
0.191005 0.00196409 0.872413
0.191043 0.064056 0.872022
0.191119 0.12595 0.871902
0.191021 0.188109 0.872206
0.00329646 0.00436756 0.953071
0.00346023 0.00313647 0.913166
0.00328978 0.0645232 0.912518
0.00349084 0.12577 0.912441
0.003491 0.187356 0.912817
0.00352421 0.24859 0.913738
0.0656181 0.00301584 0.913129
0.0659686 0.0646008 0.912533
0.0661225 0.125925 0.912489
0.066147 0.187185 0.912937
0.0660376 0.248768 0.913668
0.128379 0.00303284 0.913038
0.128283 0.0644789 0.912516
0.128627 0.125863 0.91241
0.128602 0.187436 0.912762
0.128574 0.248686 0.913723
0.190694 0.00306261 0.913084
0.190924 0.0644514 0.912554
0.190979 0.12619 0.91246
0.191109 0.187406 0.912804
0.191128 0.249037 0.91362
0.19065 0.314397 0.749096
0.127833 0.439235 0.717531
0.0655555 0.314026 0.667369
0.12824 0.313939 0.749211
0.128501 0.314424 0.708107
0.0654866 0.250891 0.668353
0.066057 0.372964 0.709912
0.0656779 0.438441 0.717911
0.0655935 0.313253 0.708111
0.0654991 0.250884 0.708728
0.1908 0.43936 0.717581
0.00310608 0.440578 0.676206
0.12878 0.379176 0.673671
0.128132 0.25109 0.668256
0.00296168 0.379369 0.715615
0.00287726 0.313879 0.707996
0.190236 0.440433 0.676222
0.190505 0.251381 0.708723
0.128154 0.251127 0.749463
0.00305167 0.439499 0.717721
0.00295757 0.251102 0.708767
0.00287494 0.312658 0.749504
0.190305 0.314414 0.708045
0.190511 0.251261 0.749369
0.128567 0.377999 0.715886
0.0656936 0.440096 0.676461
0.190009 0.379364 0.673726
0.190121 0.378207 0.715996
0.065759 0.312573 0.749631
0.190408 0.251077 0.668327
0.128041 0.251406 0.708772
0.190276 0.314244 0.667331
0.0655475 0.250652 0.749643
0.128095 0.313921 0.66732
0.0659932 0.378976 0.67397
0.127946 0.440171 0.676343
0.00185139 0.252252 0.591269
0.00253923 0.316637 0.591492
0.002662 0.380622 0.593856
0.00343722 0.442692 0.595577
0.0646486 0.253235 0.591469
0.0645894 0.316148 0.59143
0.0659886 0.380818 0.593341
0.0658997 0.443075 0.595468
0.126838 0.252304 0.591296
0.127494 0.316794 0.591532
0.128052 0.380649 0.593793
0.128662 0.442963 0.595387
0.189606 0.25327 0.591574
0.189588 0.316195 0.591476
0.191045 0.380875 0.593255
0.190766 0.44323 0.595383
0.00259742 0.251273 0.629182
0.00276307 0.31562 0.629152
0.00397136 0.380376 0.632307
0.0036968 0.441745 0.635358
0.0652957 0.251311 0.629123
0.0651554 0.315664 0.629246
0.0660237 0.380608 0.632323
0.0657752 0.441177 0.635607
0.127596 0.251361 0.629225
0.127744 0.315822 0.629142
0.12827 0.380775 0.632363
0.128105 0.441381 0.635601
0.190337 0.251515 0.629176
0.190399 0.316052 0.62941
0.19069 0.380562 0.632674
0.190805 0.441409 0.635584
0.00296351 0.250992 0.668291
0.00301229 0.313823 0.667264
0.00382839 0.379708 0.673456
0.00303955 0.250696 0.749732
0.128819 0.370796 0.956327
0.190968 0.371031 0.956617
0.00236733 0.373969 0.751431
0.00295496 0.438001 0.759144
0.129057 0.435176 0.958443
0.129409 0.499378 0.958169
0.0654647 0.373528 0.751135
0.0654167 0.438458 0.759046
0.191768 0.435636 0.958253
0.127711 0.37843 0.757115
0.12781 0.43956 0.758746
0.191254 0.307807 0.955057
0.19155 0.498731 0.95827
0.190854 0.378324 0.756825
0.190749 0.439531 0.758815
0.00311214 0.250453 0.790841
0.00277586 0.312888 0.790873
0.00224103 0.374096 0.792178
0.00319657 0.437449 0.800471
0.0655927 0.250339 0.790665
0.0658016 0.312418 0.790731
0.0639854 0.373993 0.792382
0.0652138 0.437833 0.800376
0.128205 0.25054 0.790564
0.128036 0.313349 0.790333
0.126302 0.37923 0.797947
0.127903 0.439278 0.800045
0.190864 0.25061 0.790552
0.19071 0.31224 0.790415
0.190283 0.372838 0.792232
0.190867 0.43861 0.800047
0.00343127 0.250408 0.831938
0.0031724 0.312356 0.832342
0.00318391 0.373325 0.834079
0.00396797 0.437299 0.842033
0.0660565 0.250389 0.831947
0.0661497 0.312201 0.832291
0.0651061 0.373765 0.834178
0.0658523 0.437207 0.842109
0.128607 0.250365 0.831825
0.12855 0.312325 0.832148
0.128359 0.373784 0.834037
0.12846 0.437011 0.842069
0.191119 0.250407 0.831775
0.19106 0.312284 0.832048
0.190782 0.373815 0.833601
0.190673 0.437193 0.841981
0.00375848 0.311296 0.873821
0.00413882 0.372209 0.876369
0.00362315 0.437638 0.882797
0.0663484 0.311565 0.873744
0.0662782 0.372328 0.876345
0.0659642 0.437345 0.882804
0.12882 0.311758 0.87368
0.128594 0.372689 0.876147
0.128559 0.437466 0.882748
0.191042 0.311747 0.873749
0.191037 0.37268 0.87624
0.190927 0.437549 0.882804
0.00355412 0.309933 0.914776
0.00352407 0.370787 0.917752
0.00379528 0.435971 0.92085
0.0661264 0.309838 0.914687
0.0664471 0.37063 0.917864
0.0662879 0.435572 0.92052
0.128645 0.310079 0.914619
0.128553 0.37078 0.917775
0.128861 0.435919 0.920778
0.191092 0.310115 0.914507
0.191221 0.37063 0.917952
0.191205 0.435848 0.920698
0.00358182 0.308303 0.954762
0.003889 0.370759 0.956234
0.00396104 0.434979 0.958272
0.00442698 0.499282 0.958101
0.0661083 0.307855 0.955084
0.0660603 0.371097 0.956598
0.0667671 0.435679 0.958303
0.0666536 0.498653 0.958155
0.12859 0.308233 0.954744
0.128663 0.250005 0.872895
0.191157 0.250124 0.872809
0.0655335 0.501269 0.717893
0.0031033 0.501439 0.717837
0.128073 0.564007 0.677302
0.190561 0.626002 0.718026
0.065732 0.688205 0.717673
0.190621 0.563831 0.677258
0.0032598 0.626075 0.717967
0.0655243 0.626012 0.717967
0.190602 0.563862 0.717959
0.190529 0.501464 0.71774
0.128094 0.626108 0.717966
0.128088 0.68822 0.717645
0.127995 0.501459 0.717801
0.00305075 0.563679 0.717959
0.00323659 0.688321 0.717711
0.0655362 0.563724 0.717921
0.190761 0.687886 0.676921
0.190548 0.502039 0.67692
0.128035 0.563757 0.717929
0.00305182 0.626019 0.677347
0.00309692 0.502074 0.676941
0.0030933 0.564005 0.6773
0.190527 0.688193 0.717674
0.128023 0.502005 0.676986
0.0656771 0.564017 0.677299
0.00313609 0.687987 0.676944
0.190602 0.626009 0.677327
0.065586 0.688004 0.676896
0.0655189 0.501773 0.677034
0.128144 0.625939 0.677316
0.12813 0.687976 0.676909
0.065642 0.62597 0.677293
0.00363138 0.503829 0.59637
0.00375614 0.564602 0.596627
0.0036646 0.625641 0.596734
0.00340099 0.686147 0.596258
0.0035894 0.746751 0.595401
0.0662569 0.503911 0.596317
0.0664732 0.564765 0.596714
0.0659426 0.625438 0.596551
0.0660058 0.686184 0.596236
0.065993 0.746954 0.595426
0.128659 0.503737 0.596468
0.128653 0.564577 0.596688
0.128493 0.625429 0.59665
0.128466 0.685966 0.596261
0.128545 0.746481 0.595262
0.19097 0.503803 0.596384
0.191203 0.564635 0.596728
0.190884 0.625391 0.596582
0.190983 0.686136 0.596225
0.190967 0.746952 0.595515
0.00337719 0.502943 0.6363
0.00355773 0.564394 0.636725
0.00325407 0.625632 0.636695
0.00330297 0.687099 0.636326
0.00318008 0.748296 0.635507
0.0660163 0.502832 0.636297
0.065842 0.564348 0.636745
0.0659035 0.625696 0.636743
0.0657031 0.687119 0.636388
0.0658737 0.748507 0.635445
0.128068 0.502792 0.636373
0.12846 0.564287 0.636807
0.12834 0.625691 0.63678
0.128283 0.687114 0.636337
0.128236 0.748406 0.635441
0.191093 0.502812 0.636252
0.190819 0.564356 0.636742
0.190829 0.625809 0.636704
0.190782 0.687111 0.636338
0.190772 0.748475 0.635387
0.00322418 0.749937 0.676328
0.19084 0.749889 0.676176
0.0656642 0.749963 0.67623
0.128183 0.749942 0.676195
0.129676 0.689898 0.958091
0.191987 0.625967 0.958347
0.192171 0.563033 0.958318
0.1928 0.689046 0.958035
0.00325275 0.500745 0.759049
0.00313673 0.563491 0.75907
0.00317654 0.625826 0.758982
0.00327159 0.688229 0.758829
0.0655289 0.501235 0.758945
0.0655958 0.563527 0.758972
0.065563 0.625869 0.758978
0.0657403 0.688339 0.758844
0.128203 0.501398 0.758814
0.128105 0.56368 0.75893
0.128159 0.625803 0.758972
0.128203 0.688213 0.758813
0.190576 0.501387 0.758784
0.190515 0.563662 0.758894
0.190622 0.625896 0.758963
0.190675 0.688246 0.758826
0.00326995 0.500394 0.800206
0.00317061 0.563174 0.800025
0.00327633 0.625894 0.799953
0.0032089 0.688546 0.799877
0.0655611 0.500594 0.800141
0.0657792 0.563212 0.800016
0.0655856 0.625757 0.799919
0.0657555 0.68849 0.799958
0.12824 0.501015 0.799978
0.128265 0.563205 0.800076
0.128189 0.625959 0.79997
0.128209 0.688342 0.79996
0.190807 0.500904 0.79994
0.190843 0.563372 0.799978
0.190691 0.625739 0.799913
0.19083 0.688439 0.799893
0.190832 0.500196 0.84104
0.00313068 0.563019 0.840717
0.00308771 0.625801 0.840451
0.00324121 0.688515 0.840477
0.067549 0.688891 0.958047
0.0658051 0.562922 0.840629
0.0656067 0.625821 0.840513
0.0657636 0.688598 0.8406
0.13 0.626232 0.958199
0.128183 0.562971 0.840539
0.12835 0.625749 0.840455
0.128281 0.688517 0.84058
0.129275 0.562252 0.958334
0.190742 0.563063 0.840483
0.190662 0.625915 0.840399
0.190847 0.688564 0.840554
0.00330035 0.500568 0.88169
0.00330526 0.563391 0.880894
0.00327762 0.625766 0.880516
0.0032987 0.688299 0.880749
0.0658734 0.500653 0.881636
0.0657205 0.563099 0.88091
0.0657974 0.625698 0.880522
0.0657786 0.688343 0.880709
0.128357 0.500469 0.881581
0.12823 0.563191 0.880775
0.128328 0.625611 0.880442
0.128278 0.688215 0.880633
0.190925 0.500624 0.881488
0.19087 0.563123 0.880717
0.19074 0.625635 0.880461
0.190854 0.68839 0.880633
0.00377072 0.500673 0.920552
0.00346644 0.563682 0.920237
0.00362846 0.626073 0.919873
0.00347542 0.688353 0.919956
0.0660495 0.500535 0.920749
0.0663711 0.563934 0.920193
0.0659099 0.62601 0.919876
0.0662036 0.688178 0.919873
0.128811 0.500652 0.920562
0.128445 0.56353 0.920244
0.128695 0.626048 0.919807
0.128543 0.688258 0.919964
0.191161 0.500719 0.920751
0.191196 0.564062 0.920177
0.19076 0.626028 0.919845
0.191243 0.688085 0.919783
0.0042719 0.562255 0.958259
0.00491662 0.626171 0.958219
0.00460373 0.689934 0.958065
0.0670925 0.563092 0.958279
0.0669211 0.625792 0.958416
0.0657321 0.500328 0.841221
0.128345 0.500301 0.841108
0.00335595 0.500185 0.841169
0.0658907 0.936839 0.706669
0.127993 0.999899 0.707976
0.128252 0.811445 0.675236
0.00342354 0.936917 0.706971
0.0656601 0.999945 0.708002
0.128277 0.872285 0.672535
0.0658918 0.812397 0.716926
0.128201 0.812355 0.716849
0.128095 0.936989 0.706668
0.128293 0.75042 0.717241
0.127829 0.873626 0.714825
0.190217 0.937952 0.748997
0.0662128 0.93821 0.748985
0.128233 0.937343 0.748971
0.19063 0.750342 0.717299
0.128068 0.937736 0.666208
0.190322 0.812127 0.716802
0.189244 0.873519 0.714649
0.190564 0.872367 0.672621
0.00332669 0.750674 0.717341
0.00360496 0.873833 0.71534
0.190598 0.937727 0.666204
0.0656633 0.937618 0.666247
0.00330844 0.939122 0.749058
0.00352871 0.812596 0.717115
0.0657301 0.750422 0.717335
0.190922 0.811486 0.675228
0.0660597 0.873647 0.715076
0.190449 0.93707 0.706526
0.0023008 0.999263 0.591063
0.0035245 0.808086 0.594469
0.00317009 0.870754 0.592939
0.00293132 0.934969 0.590947
0.0649955 0.998601 0.591118
0.0658911 0.807445 0.593996
0.0660792 0.870991 0.592568
0.0651755 0.935628 0.591065
0.127177 0.999262 0.591188
0.128531 0.80794 0.594311
0.12815 0.87078 0.592853
0.12808 0.93503 0.59106
0.189903 0.998653 0.591085
0.190747 0.807426 0.593946
0.191058 0.871034 0.592652
0.19001 0.935752 0.591065
0.00350686 0.809818 0.634471
0.00358267 0.870675 0.631175
0.00293615 0.93573 0.628646
0.0658103 0.809665 0.634373
0.0657615 0.870403 0.631075
0.0654266 0.935543 0.62886
0.128172 0.809723 0.634368
0.128185 0.870441 0.631142
0.1278 0.935781 0.628588
0.190604 0.809639 0.63431
0.190498 0.870415 0.631049
0.190445 0.935689 0.628765
0.00329149 0.811447 0.675301
0.003538 0.872129 0.672411
0.00331787 0.937735 0.666308
0.0658023 0.811599 0.6753
0.0658635 0.872247 0.672637
0.191321 0.943215 0.953884
0.190871 0.880889 0.955894
0.192149 0.816154 0.95795
0.192204 0.753147 0.957708
0.0033779 0.750755 0.758598
0.00322912 0.813372 0.758917
0.00265417 0.879392 0.751275
0.0658414 0.750455 0.758657
0.0658047 0.812511 0.758633
0.0657727 0.874013 0.757701
0.12835 0.750406 0.758625
0.128349 0.812436 0.758831
0.128175 0.874464 0.757279
0.190931 0.750483 0.7587
0.191101 0.812595 0.758777
0.190728 0.874084 0.757944
0.00328409 0.751127 0.799985
0.00323957 0.813289 0.799967
0.00189535 0.878219 0.791755
0.00291571 0.939022 0.790509
0.065817 0.750877 0.800044
0.0656914 0.812986 0.800178
0.0635765 0.87339 0.798006
0.0651505 0.938717 0.790555
0.128271 0.750887 0.799977
0.128213 0.813092 0.800167
0.128091 0.878905 0.792904
0.128263 0.939746 0.79074
0.190845 0.750803 0.799938
0.19114 0.812365 0.80008
0.192637 0.872602 0.797935
0.191245 0.938723 0.790555
0.00338212 0.751126 0.840872
0.00355279 0.813348 0.841717
0.00357884 0.873459 0.840613
0.00339433 0.93907 0.832028
0.0658172 0.751381 0.840872
0.0662526 0.814524 0.841665
0.0659779 0.87832 0.833784
0.0658014 0.939103 0.831857
0.128462 0.751308 0.840927
0.128372 0.814587 0.8417
0.128411 0.878011 0.833589
0.128318 0.939572 0.831902
0.190808 0.75152 0.84097
0.190775 0.814547 0.841638
0.190903 0.877658 0.833751
0.190715 0.939215 0.831939
0.00328566 0.750732 0.881348
0.00339913 0.813989 0.882154
0.00332708 0.879613 0.875968
0.00349601 0.940402 0.873043
0.0660961 0.750896 0.881126
0.0663089 0.814082 0.882142
0.0665591 0.879483 0.875934
0.066193 0.940398 0.873227
0.12851 0.751012 0.881158
0.12857 0.814244 0.88215
0.128529 0.879097 0.875754
0.128515 0.940255 0.873184
0.191002 0.750848 0.881185
0.191122 0.814283 0.882104
0.190774 0.87914 0.875663
0.190875 0.940227 0.873156
0.00389325 0.751463 0.920164
0.00405845 0.816165 0.920006
0.00355303 0.880767 0.916849
0.00327973 0.94164 0.913835
0.0661885 0.751445 0.920273
0.0663639 0.816034 0.920056
0.0662191 0.880801 0.916976
0.0658235 0.941693 0.913884
0.128897 0.751365 0.92008
0.129109 0.816204 0.920023
0.128724 0.880926 0.917033
0.128361 0.941696 0.913812
0.191137 0.751474 0.920207
0.19145 0.815858 0.920049
0.191141 0.880873 0.917084
0.190802 0.941705 0.913902
0.00475822 0.752627 0.957828
0.00428386 0.816826 0.957732
0.0041081 0.88073 0.955502
0.00319224 0.943305 0.953928
0.0671534 0.753351 0.957674
0.0671967 0.816216 0.957816
0.0659171 0.880929 0.955783
0.066054 0.943221 0.953801
0.129953 0.752495 0.957879
0.129128 0.816773 0.957784
0.128987 0.880651 0.955519
0.128228 0.943301 0.95392
0.315696 0.188461 0.749489
0.440641 0.1258 0.749448
0.378106 0.18842 0.749472
0.378093 0.125745 0.749494
0.315505 0.125695 0.749437
0.440482 7.05714e-04 0.749377
0.440679 0.188329 0.749513
0.315548 0.0631051 0.749409
0.31553 8.21007e-04 0.749283
0.253167 7.0554e-04 0.749259
0.378121 0.0632515 0.749499
0.253057 0.188526 0.749478
0.440608 0.0631298 0.749479
0.378056 7.27879e-04 0.749314
0.253164 0.12574 0.749475
0.252031 0.062307 0.590971
0.251237 0.126356 0.591072
0.251912 0.189731 0.591179
0.314056 0.0631644 0.591003
0.314381 0.125856 0.590938
0.313894 0.188936 0.591167
0.377013 0.0622984 0.590963
0.376169 0.126355 0.591082
0.376991 0.189779 0.59109
0.43897 0.0632194 0.590903
0.43936 0.125873 0.590909
0.438911 0.188936 0.591131
0.252453 8.05685e-04 0.628664
0.252631 0.0638691 0.62907
0.252634 0.126266 0.629487
0.252841 0.188612 0.629452
0.315022 0.00101152 0.628443
0.314907 0.0643331 0.629028
0.315171 0.126203 0.62939
0.31497 0.188306 0.629468
0.377508 9.50402e-04 0.628665
0.377652 0.0640353 0.629031
0.377559 0.126278 0.629397
0.377859 0.188434 0.629352
0.440145 9.45156e-04 0.628485
0.439921 0.0643966 0.628992
0.440273 0.126162 0.629341
0.440121 0.188368 0.629433
0.253058 0.00107288 0.667509
0.252941 0.0636823 0.668483
0.25292 0.126023 0.668892
0.252992 0.188493 0.668833
0.315479 0.00121832 0.667479
0.315626 0.0636299 0.668477
0.315506 0.126009 0.668918
0.315531 0.188551 0.668743
0.377924 0.00105653 0.667504
0.377963 0.0635021 0.668532
0.377952 0.126058 0.668865
0.378006 0.188612 0.668819
0.440334 0.00134728 0.667721
0.440452 0.0636217 0.668467
0.440466 0.125889 0.668869
0.440455 0.188536 0.66872
0.253181 0.0630132 0.749379
0.253115 0.0631153 0.708715
0.253053 0.125858 0.709075
0.253076 0.188595 0.709019
0.315431 2.38552e-04 0.707997
0.315509 0.0631176 0.708732
0.315536 0.126003 0.709011
0.315527 0.188616 0.709013
0.377769 2.44632e-04 0.708136
0.378026 0.0632314 0.70878
0.37812 0.125995 0.708989
0.378039 0.188579 0.708919
0.440432 5.81764e-04 0.708195
0.440533 0.0631262 0.708838
0.440662 0.125876 0.709076
0.440555 0.188627 0.708992
0.253022 1.84467e-04 0.707987
0.44078 0.247374 0.953543
0.44067 0.0649389 0.952631
0.378302 0.0648418 0.952666
0.253134 0.0647704 0.952645
0.315576 0.0650284 0.952597
0.440864 0.186484 0.95298
0.378199 0.00438436 0.953125
0.315734 0.00394165 0.953046
0.440671 0.125587 0.95264
0.378132 0.12575 0.952609
0.253426 0.186495 0.952911
0.378439 0.186574 0.95282
0.253251 0.125858 0.952573
0.315708 0.186594 0.95295
0.378467 0.24737 0.953626
0.315775 0.125712 0.952621
0.315972 0.247513 0.953502
0.253347 0.00144047 0.790595
0.253439 0.0636147 0.790423
0.253277 0.125882 0.790333
0.253358 0.18829 0.79038
0.315881 0.00134505 0.790669
0.315906 0.0635835 0.790504
0.315775 0.125972 0.790345
0.315858 0.188452 0.790378
0.378234 0.00114841 0.790711
0.378337 0.063518 0.790559
0.37833 0.125902 0.79042
0.378342 0.188392 0.790395
0.440597 0.00128025 0.790876
0.440893 0.0635754 0.79055
0.440934 0.125979 0.790465
0.44082 0.188301 0.790486
0.253342 0.00154922 0.831621
0.253527 0.0638203 0.831381
0.253657 0.126135 0.831282
0.253393 0.188351 0.831422
0.31592 0.00147117 0.83175
0.316041 0.0639163 0.831414
0.315863 0.126277 0.831238
0.315988 0.188479 0.831368
0.378397 0.00150113 0.831774
0.378521 0.0639321 0.831394
0.378498 0.126207 0.831253
0.378495 0.188414 0.831459
0.44098 0.0014101 0.831804
0.441061 0.0638741 0.831446
0.441041 0.126127 0.831355
0.441028 0.188385 0.831494
0.253371 0.00205032 0.872412
0.253476 0.0640739 0.872035
0.253645 0.125999 0.871864
0.25358 0.188047 0.872162
0.440615 0.00404364 0.953035
0.315786 0.00212919 0.872412
0.315926 0.0639756 0.872059
0.316188 0.12607 0.871879
0.315924 0.18807 0.872212
0.253307 0.247113 0.953653
0.378387 0.00220371 0.872551
0.378498 0.0640837 0.872034
0.378437 0.126046 0.871931
0.378494 0.188043 0.872199
0.25328 0.00415913 0.953012
0.440999 0.00207346 0.872476
0.441 0.0640663 0.872057
0.441013 0.126058 0.871941
0.441145 0.188052 0.872355
0.440864 0.248785 0.913629
0.253329 0.00307603 0.913072
0.253362 0.0646257 0.912589
0.253456 0.125892 0.912502
0.253485 0.187458 0.912782
0.25374 0.248629 0.91367
0.31568 0.00303624 0.913118
0.315889 0.0645034 0.912633
0.316021 0.126062 0.912513
0.316096 0.187245 0.912843
0.31597 0.248654 0.913674
0.378358 0.00313623 0.913061
0.378275 0.0644674 0.91261
0.378449 0.125855 0.912456
0.378501 0.187261 0.912771
0.378562 0.248455 0.913656
0.44059 0.00298849 0.913188
0.440822 0.0644005 0.912696
0.440878 0.125953 0.912496
0.441019 0.187194 0.912852
0.316056 0.249752 0.8728
0.253583 0.249933 0.872814
0.44114 0.249898 0.872829
0.378531 0.249994 0.872849
0.378012 0.250912 0.749533
0.440169 0.31434 0.707935
0.252845 0.251008 0.749401
0.25286 0.379714 0.673599
0.378047 0.251117 0.708759
0.25301 0.313816 0.667376
0.315391 0.312768 0.708182
0.315249 0.438287 0.717874
0.315408 0.251033 0.708823
0.31378 0.372993 0.710429
0.316907 0.379348 0.673667
0.315145 0.313123 0.749416
0.315456 0.251059 0.668384
0.253274 0.440323 0.676422
0.25311 0.438901 0.717565
0.252852 0.251367 0.708847
0.315657 0.314037 0.667347
0.440539 0.251316 0.708712
0.440227 0.379435 0.67356
0.251369 0.373941 0.709858
0.252413 0.313714 0.708145
0.44033 0.251043 0.668232
0.378259 0.439592 0.717699
0.440385 0.4408 0.676131
0.378104 0.378482 0.71585
0.378424 0.379198 0.673761
0.37813 0.314048 0.667337
0.440779 0.439776 0.717497
0.252768 0.313624 0.749383
0.316051 0.440025 0.67652
0.378458 0.314278 0.708063
0.377832 0.440332 0.676241
0.37795 0.251214 0.668285
0.43983 0.378878 0.715615
0.440301 0.3141 0.667281
0.440914 0.313909 0.749321
0.251687 0.252256 0.591259
0.252615 0.316969 0.591557
0.252621 0.380667 0.593753
0.253339 0.442846 0.595514
0.314348 0.25322 0.591418
0.314543 0.316314 0.591503
0.315953 0.380823 0.593622
0.31571 0.443048 0.595416
0.376494 0.252368 0.591345
0.37753 0.316854 0.591491
0.377959 0.380512 0.593684
0.37861 0.442851 0.595479
0.439486 0.253477 0.591524
0.439543 0.316075 0.591425
0.44105 0.380839 0.593381
0.440776 0.442967 0.595466
0.252593 0.251402 0.629214
0.252728 0.315631 0.629088
0.253165 0.380744 0.632502
0.25344 0.441314 0.635646
0.315483 0.251441 0.629119
0.315166 0.315686 0.629215
0.315381 0.38059 0.632226
0.315537 0.441472 0.635489
0.37754 0.251496 0.629184
0.37768 0.315933 0.629167
0.378348 0.380484 0.632308
0.378392 0.44144 0.635511
0.440528 0.251425 0.629053
0.440221 0.315944 0.62931
0.440441 0.380548 0.632297
0.440637 0.441554 0.635424
0.252854 0.250994 0.668359
0.378111 0.312824 0.749403
0.315411 0.25107 0.749528
0.440558 0.250967 0.749544
0.44177 0.435747 0.95841
0.441011 0.371147 0.956589
0.441717 0.498906 0.958358
0.253153 0.37811 0.757466
0.253511 0.439051 0.758645
0.316731 0.498921 0.958325
0.378899 0.435158 0.95836
0.314143 0.374365 0.75069
0.315681 0.43855 0.758727
0.378776 0.370869 0.956319
0.379438 0.499506 0.958279
0.37634 0.373555 0.751656
0.377826 0.438289 0.758975
0.378552 0.308597 0.954553
0.441004 0.307997 0.95502
0.441519 0.379194 0.756962
0.441317 0.439649 0.758903
0.253429 0.2508 0.790431
0.253905 0.313793 0.790161
0.255628 0.378716 0.79747
0.253614 0.439017 0.799895
0.315802 0.250925 0.790442
0.316011 0.31352 0.790439
0.317799 0.377966 0.798298
0.316594 0.438582 0.799923
0.378243 0.250764 0.790575
0.378134 0.313009 0.790559
0.378438 0.373924 0.791657
0.378518 0.437944 0.800167
0.440687 0.250687 0.790638
0.440657 0.312894 0.790623
0.440011 0.373646 0.792459
0.440388 0.437641 0.800418
0.253629 0.250597 0.8317
0.253626 0.31257 0.831795
0.25273 0.373172 0.83371
0.252973 0.437286 0.841816
0.316079 0.251006 0.83161
0.31632 0.313732 0.831639
0.316267 0.378283 0.840356
0.315655 0.438589 0.841706
0.378444 0.250681 0.831693
0.378381 0.313231 0.83209
0.378604 0.37823 0.840615
0.378831 0.43838 0.84171
0.44092 0.25073 0.831699
0.44072 0.312514 0.831977
0.440817 0.373587 0.833694
0.441157 0.437464 0.841803
0.253488 0.311434 0.873719
0.252998 0.372429 0.876429
0.253133 0.437722 0.882762
0.315843 0.311334 0.873697
0.315182 0.371895 0.876796
0.315744 0.437819 0.882799
0.378736 0.311415 0.873599
0.37977 0.372047 0.876707
0.378769 0.437892 0.88271
0.441375 0.311467 0.873749
0.442231 0.372488 0.87641
0.441102 0.437568 0.882774
0.253618 0.310132 0.914671
0.253576 0.370996 0.917858
0.253844 0.436304 0.92098
0.316307 0.309883 0.914669
0.316448 0.370943 0.917751
0.316211 0.436122 0.920725
0.378553 0.310153 0.914568
0.378634 0.371168 0.917457
0.378621 0.436371 0.920998
0.440984 0.309846 0.914677
0.441398 0.37095 0.917892
0.441086 0.436059 0.920799
0.25351 0.308385 0.954623
0.253739 0.37084 0.956272
0.25388 0.435021 0.958293
0.25427 0.499488 0.958302
0.31617 0.308125 0.954904
0.316046 0.371169 0.956615
0.316742 0.435881 0.958355
0.315488 0.56378 0.717967
0.253079 0.626002 0.717998
0.252979 0.563722 0.717879
0.315515 0.501169 0.717893
0.315564 0.688226 0.717709
0.253045 0.501341 0.7178
0.315682 0.749799 0.676222
0.378152 0.625943 0.717987
0.378075 0.563754 0.71799
0.378106 0.688288 0.71774
0.440617 0.626104 0.717964
0.440527 0.688373 0.717792
0.440624 0.564108 0.677286
0.253333 0.749838 0.67623
0.253117 0.688178 0.717764
0.440838 0.501686 0.71785
0.440633 0.62602 0.677295
0.440751 0.688042 0.676964
0.315612 0.625896 0.718025
0.253176 0.687808 0.676978
0.378101 0.687862 0.676935
0.315715 0.687831 0.676961
0.315494 0.62586 0.677272
0.315571 0.563789 0.677225
0.315658 0.501778 0.676951
0.378166 0.625969 0.677245
0.440517 0.502221 0.676845
0.378305 0.749812 0.676231
0.3781 0.501633 0.717793
0.377938 0.564064 0.677225
0.378016 0.502064 0.676869
0.440559 0.563844 0.717918
0.253411 0.503788 0.596396
0.253434 0.564512 0.596611
0.253628 0.625359 0.596612
0.253428 0.685901 0.596185
0.253454 0.746482 0.595178
0.316001 0.503832 0.596234
0.316195 0.564498 0.596659
0.315985 0.625152 0.596489
0.316008 0.686036 0.596159
0.315878 0.746788 0.595447
0.378439 0.503754 0.596371
0.378549 0.564367 0.596584
0.378433 0.625379 0.596562
0.378334 0.685983 0.596138
0.378408 0.746418 0.595117
0.440986 0.503611 0.596248
0.441246 0.564518 0.596645
0.440908 0.625087 0.596531
0.440864 0.685725 0.595975
0.440827 0.746869 0.59536
0.253233 0.502739 0.6363
0.253279 0.564274 0.636769
0.253276 0.625671 0.636768
0.253316 0.687166 0.636302
0.253059 0.748217 0.635418
0.315809 0.502803 0.636201
0.315636 0.564246 0.636712
0.3159 0.625708 0.636653
0.315705 0.687028 0.63629
0.315634 0.748299 0.635371
0.377974 0.502841 0.636292
0.378399 0.564272 0.63666
0.378366 0.625716 0.636696
0.378208 0.687096 0.636261
0.378069 0.747994 0.635367
0.440856 0.503062 0.636149
0.440738 0.564413 0.636667
0.440779 0.625788 0.63667
0.440509 0.687006 0.636259
0.440677 0.748029 0.635175
0.253191 0.501879 0.67699
0.253077 0.563936 0.677313
0.253057 0.625995 0.677351
0.440625 0.749907 0.676224
0.442673 0.688916 0.957987
0.25323 0.501463 0.758727
0.253146 0.563613 0.758939
0.25317 0.625947 0.759002
0.253167 0.688376 0.758854
0.31574 0.501156 0.758776
0.315819 0.563455 0.758883
0.315808 0.625848 0.758913
0.315675 0.688301 0.758889
0.378325 0.500984 0.758825
0.378377 0.563654 0.758937
0.378292 0.626075 0.758936
0.378187 0.688492 0.75894
0.440871 0.50142 0.758943
0.440952 0.563529 0.758891
0.440885 0.625995 0.758964
0.440671 0.688358 0.758897
0.253383 0.500837 0.799906
0.253444 0.563197 0.799874
0.253211 0.625748 0.799792
0.253265 0.688513 0.799904
0.316005 0.500888 0.799939
0.315915 0.563205 0.799873
0.315763 0.625895 0.799858
0.315773 0.688589 0.799955
0.378449 0.500562 0.800022
0.378446 0.563252 0.799917
0.378329 0.625773 0.799913
0.378432 0.688533 0.799983
0.440745 0.500565 0.800098
0.440877 0.563173 0.799936
0.440932 0.625835 0.799918
0.440979 0.688519 0.800016
0.253349 0.500221 0.840939
0.253359 0.563118 0.840476
0.253284 0.625833 0.840298
0.253237 0.6886 0.840497
0.315809 0.500651 0.840853
0.315804 0.563135 0.840508
0.315782 0.625775 0.840319
0.315657 0.68859 0.840487
0.378392 0.500385 0.840884
0.37834 0.563122 0.840509
0.378254 0.625942 0.840436
0.378202 0.68851 0.840598
0.440924 0.500402 0.840937
0.440792 0.56315 0.84053
0.440741 0.625994 0.840529
0.440774 0.688536 0.840679
0.253372 0.500633 0.881528
0.253239 0.563194 0.88072
0.253296 0.62569 0.880419
0.253355 0.688173 0.880661
0.31583 0.500815 0.881513
0.315847 0.563154 0.880745
0.31567 0.625695 0.880446
0.315735 0.688342 0.880707
0.378375 0.500606 0.881528
0.378213 0.563225 0.880719
0.378168 0.625819 0.880492
0.378253 0.688298 0.880762
0.440872 0.500723 0.881548
0.440787 0.563089 0.880873
0.44076 0.625765 0.880588
0.440694 0.688359 0.880781
0.253846 0.500622 0.920565
0.253454 0.563695 0.920147
0.2536 0.625977 0.919769
0.253421 0.688298 0.919915
0.316158 0.500865 0.920733
0.316169 0.564105 0.92011
0.315856 0.625978 0.919891
0.316122 0.688198 0.91991
0.37869 0.500808 0.920633
0.378497 0.56351 0.920204
0.378554 0.625989 0.919792
0.378463 0.688305 0.919984
0.441222 0.500665 0.92079
0.441239 0.564055 0.920166
0.440722 0.626044 0.919906
0.441199 0.688343 0.919817
0.254334 0.562385 0.958364
0.255139 0.626156 0.958158
0.254764 0.689808 0.95802
0.317218 0.563099 0.958331
0.316899 0.626045 0.958348
0.317673 0.68902 0.958018
0.379416 0.562291 0.958324
0.380034 0.626208 0.958176
0.379654 0.689915 0.957986
0.44221 0.563165 0.958283
0.442045 0.626117 0.958274
0.315731 0.873243 0.714657
0.377444 0.937382 0.706823
0.252981 0.812189 0.716793
0.315676 0.750419 0.717359
0.378485 0.812395 0.71688
0.315728 0.812011 0.716867
0.315544 0.937125 0.706588
0.378194 0.750609 0.71743
0.377767 0.938079 0.666199
0.315904 0.939172 0.749178
0.252713 0.939058 0.749106
0.440263 0.871835 0.671298
0.440617 0.750962 0.71743
0.440269 0.938006 0.706928
0.377994 0.872846 0.714495
0.440575 0.813197 0.717142
0.439993 0.87825 0.707284
0.253263 0.750488 0.717313
0.253046 0.937277 0.706495
0.440316 0.938119 0.666318
0.252056 0.873393 0.714546
0.378345 0.937934 0.748876
0.377231 0.871807 0.671387
0.440668 0.811507 0.675138
0.377789 0.811184 0.675023
0.440343 0.939036 0.74922
0.252209 0.999332 0.591185
0.253507 0.80791 0.59431
0.253196 0.870741 0.592921
0.252935 0.935053 0.590959
0.314947 0.998644 0.591117
0.3158 0.80755 0.594004
0.316029 0.870983 0.592582
0.314924 0.935734 0.591054
0.37699 0.999506 0.591168
0.37842 0.808217 0.594403
0.378024 0.870802 0.592961
0.377847 0.935095 0.591039
0.439723 0.998982 0.590942
0.44082 0.807716 0.594057
0.440985 0.871205 0.592634
0.440032 0.935962 0.591029
0.252986 0.809675 0.63427
0.253104 0.870616 0.63092
0.252646 0.935821 0.628604
0.315607 0.809307 0.634116
0.315278 0.870796 0.631164
0.315263 0.935708 0.628834
0.37821 0.80905 0.633959
0.378013 0.870895 0.631028
0.377719 0.936053 0.628496
0.440533 0.80903 0.633878
0.440178 0.871115 0.631039
0.440295 0.936087 0.628667
0.253156 0.811421 0.675203
0.253007 0.872207 0.672278
0.252905 0.937766 0.666192
0.315658 0.811444 0.675159
0.315121 0.872025 0.671926
0.315398 0.937841 0.666157
0.379868 0.752709 0.957767
0.379175 0.880797 0.955485
0.379343 0.816838 0.957756
0.378268 0.943502 0.95404
0.442161 0.753343 0.957623
0.441 0.943313 0.953904
0.440817 0.881077 0.955909
0.442177 0.816232 0.957911
0.253403 0.750802 0.758702
0.25362 0.813583 0.759035
0.252019 0.878804 0.751009
0.315711 0.75084 0.758852
0.315634 0.813582 0.759262
0.315161 0.878566 0.751037
0.378307 0.750446 0.758837
0.378547 0.812222 0.758963
0.379285 0.872626 0.756958
0.440828 0.750568 0.758875
0.441061 0.813296 0.759307
0.441328 0.878476 0.750867
0.253366 0.751172 0.800052
0.254148 0.813561 0.800558
0.25632 0.878524 0.794472
0.253601 0.939512 0.791179
0.315858 0.751082 0.800251
0.31625 0.813468 0.800527
0.317032 0.87811 0.792833
0.315746 0.939575 0.791165
0.378391 0.751131 0.800241
0.378429 0.814055 0.800869
0.378489 0.878087 0.792995
0.378109 0.939397 0.791041
0.440879 0.750973 0.800271
0.440737 0.813594 0.800804
0.44117 0.877498 0.79301
0.440847 0.939608 0.79121
0.253383 0.751344 0.840867
0.253274 0.814339 0.841629
0.253537 0.877613 0.83324
0.253397 0.939088 0.831962
0.315836 0.751375 0.840946
0.315984 0.8135 0.841688
0.316289 0.872691 0.83988
0.316179 0.938999 0.832208
0.378425 0.751411 0.841026
0.378736 0.814458 0.841742
0.378723 0.878084 0.834137
0.378348 0.939317 0.832301
0.440865 0.751447 0.8411
0.441157 0.814583 0.841767
0.441647 0.877641 0.8339
0.440962 0.939146 0.832176
0.253396 0.75095 0.881165
0.253314 0.814234 0.882145
0.252508 0.879638 0.875862
0.253107 0.940358 0.872997
0.315997 0.750853 0.881142
0.316023 0.814168 0.882181
0.315492 0.879217 0.875363
0.315374 0.940019 0.872858
0.378516 0.750972 0.881251
0.378744 0.814407 0.882076
0.378937 0.879417 0.875495
0.378438 0.940456 0.873164
0.440996 0.750981 0.881224
0.441018 0.814556 0.882038
0.441186 0.879453 0.875687
0.441023 0.940372 0.873129
0.253831 0.751573 0.920074
0.254065 0.81614 0.920144
0.253614 0.880754 0.916909
0.253553 0.941791 0.913896
0.316069 0.751417 0.920173
0.316539 0.815881 0.920078
0.316315 0.880842 0.916899
0.316076 0.941592 0.913752
0.37896 0.751649 0.920013
0.379004 0.816297 0.919995
0.378366 0.880969 0.917017
0.37811 0.941711 0.913811
0.4412 0.751667 0.920191
0.441459 0.816464 0.919933
0.441121 0.881095 0.916878
0.44088 0.941788 0.913837
0.254827 0.752506 0.957927
0.254232 0.816684 0.957818
0.253988 0.880735 0.955484
0.25332 0.94345 0.954069
0.317066 0.753366 0.957764
0.317297 0.81632 0.957789
0.315875 0.881005 0.955759
0.315946 0.943177 0.953841
0.50307 0.188492 0.749611
0.690484 0.125674 0.74959
0.628032 0.188246 0.749653
0.565544 0.125638 0.749641
0.62801 0.125825 0.749615
0.503286 0.125824 0.749555
0.69057 0.18852 0.709114
0.690428 0.125894 0.709093
0.690394 4.7152e-04 0.74938
0.690674 0.188269 0.749616
0.690599 0.0628494 0.749482
0.628006 0.0630781 0.749581
0.565564 0.188429 0.749707
0.565577 7.84627e-04 0.74945
0.503019 6.68873e-04 0.749446
0.56551 0.0630997 0.749528
0.502122 0.0623584 0.590911
0.501356 0.126438 0.591085
0.502013 0.189961 0.591153
0.564127 0.0633947 0.590872
0.564319 0.12601 0.590893
0.564094 0.188896 0.591167
0.62713 0.0624827 0.590921
0.626192 0.126324 0.591081
0.627122 0.189646 0.591157
0.689108 0.0632769 0.590917
0.689458 0.126057 0.590891
0.689038 0.188718 0.591105
0.502467 0.00107126 0.628591
0.502671 0.0638049 0.629041
0.502601 0.126272 0.629476
0.502908 0.188464 0.629363
0.565069 0.00105938 0.628428
0.565026 0.0643045 0.629088
0.565377 0.126095 0.629428
0.565116 0.188336 0.62945
0.627516 0.00110269 0.628615
0.627805 0.0637869 0.629104
0.627664 0.126297 0.629501
0.628016 0.188511 0.629401
0.69025 0.0011413 0.628449
0.690125 0.064389 0.629026
0.69044 0.126282 0.629374
0.690304 0.188378 0.629462
0.502779 0.00111568 0.667748
0.502909 0.0635931 0.668577
0.502916 0.126031 0.668906
0.503051 0.188404 0.66869
0.565285 0.00134515 0.667718
0.565391 0.0635974 0.668535
0.565451 0.125935 0.668907
0.565492 0.188261 0.668795
0.627888 0.00120944 0.667753
0.62806 0.0635721 0.668509
0.627978 0.12596 0.668978
0.628031 0.188303 0.668801
0.690575 0.00113021 0.667783
0.690564 0.0634158 0.668566
0.690419 0.125859 0.66899
0.69047 0.188456 0.668803
0.503027 2.8284e-04 0.708363
0.503052 0.0631925 0.708864
0.503089 0.125916 0.709048
0.503093 0.188695 0.709041
0.56539 4.16576e-04 0.708459
0.56562 0.0630557 0.708925
0.565545 0.1258 0.709117
0.565574 0.18842 0.70903
0.627785 5.32484e-04 0.708432
0.628005 0.0630773 0.708873
0.628105 0.125805 0.709174
0.627989 0.188499 0.709043
0.69056 4.39241e-04 0.708344
0.690485 0.0629814 0.708858
0.628057 5.41073e-04 0.749546
0.502912 0.0632017 0.749503
0.690554 0.0649001 0.952624
0.690638 0.00387581 0.952959
0.628325 0.247108 0.953842
0.628351 0.186403 0.953048
0.690998 0.248616 0.913791
0.565803 0.125604 0.952693
0.628562 0.248645 0.913801
0.628261 0.125771 0.952698
0.691003 0.187235 0.912968
0.503242 0.247054 0.953801
0.503126 0.0648112 0.952654
0.690701 0.186561 0.95307
0.565717 0.186738 0.953061
0.565586 0.0649619 0.952682
0.503243 0.00414529 0.953099
0.690944 0.247282 0.953714
0.690684 0.125932 0.912533
0.565614 0.00388638 0.953009
0.503251 0.186469 0.952899
0.690965 0.125573 0.952728
0.628177 0.00421571 0.953148
0.628534 0.249863 0.873001
0.503278 0.125681 0.952626
0.503064 0.00126493 0.790693
0.503235 0.0634838 0.7906
0.503413 0.125857 0.790513
0.503288 0.188244 0.790623
0.565745 0.00128713 0.790723
0.565747 0.0632754 0.790587
0.565899 0.125938 0.790497
0.565843 0.188391 0.790627
0.628368 0.00113438 0.790817
0.628394 0.0633944 0.790608
0.628361 0.125729 0.790459
0.628359 0.188252 0.79062
0.691122 0.00112987 0.79081
0.690876 0.0633097 0.790518
0.690792 0.125787 0.790497
0.690906 0.188088 0.790639
0.503492 0.00122419 0.831821
0.50366 0.0637579 0.831514
0.503539 0.126049 0.831332
0.503444 0.188429 0.831461
0.566029 0.00110777 0.831755
0.566051 0.0636774 0.831535
0.566064 0.126076 0.831359
0.566019 0.188263 0.831483
0.628569 0.0011131 0.831757
0.628584 0.0635872 0.831473
0.628545 0.126115 0.831333
0.628535 0.188342 0.831567
0.691182 0.00119021 0.831703
0.690937 0.0637883 0.831425
0.69097 0.126009 0.831343
0.690982 0.188177 0.83162
0.503415 0.00203914 0.872398
0.503576 0.064041 0.872083
0.503668 0.12601 0.872037
0.503746 0.188054 0.872314
0.628175 0.0646944 0.952729
0.565947 0.00186097 0.872414
0.566025 0.0638189 0.872047
0.565953 0.125975 0.872049
0.565988 0.188167 0.872283
0.690805 0.0644554 0.912691
0.628304 0.00196482 0.872428
0.628436 0.063889 0.872005
0.628432 0.125889 0.871992
0.628448 0.187875 0.872296
0.565808 0.247438 0.953643
0.690878 0.0018437 0.872425
0.690846 0.0638563 0.872069
0.690918 0.125859 0.872006
0.690765 0.18795 0.87235
0.690706 0.00298268 0.913136
0.503397 0.00308652 0.913129
0.503264 0.0645075 0.91265
0.503458 0.12596 0.912583
0.503339 0.187365 0.9129
0.50359 0.248745 0.913728
0.565774 0.0030225 0.913171
0.565765 0.0643345 0.91269
0.5659 0.12587 0.912646
0.566081 0.187372 0.912953
0.566066 0.248761 0.913758
0.628354 0.00292835 0.913086
0.628355 0.0643633 0.912725
0.628317 0.12578 0.912579
0.628428 0.187341 0.912953
0.503548 0.249935 0.872845
0.691172 0.249905 0.873034
0.690836 0.314043 0.667266
0.628289 0.313265 0.708173
0.689793 0.312976 0.749445
0.5653 0.250966 0.74959
0.62788 0.251095 0.708864
0.502847 0.251019 0.749537
0.565463 0.375023 0.709239
0.565569 0.438023 0.717848
0.502816 0.313898 0.667379
0.566531 0.38031 0.671753
0.56554 0.250756 0.668362
0.690144 0.439214 0.71754
0.565434 0.251256 0.708829
0.502805 0.373916 0.709031
0.691777 0.379293 0.673351
0.690114 0.377874 0.716225
0.502902 0.251263 0.708768
0.565328 0.31337 0.708079
0.50362 0.438398 0.717808
0.628367 0.440327 0.676266
0.691032 0.314005 0.708057
0.502497 0.31342 0.708032
0.690613 0.251198 0.708753
0.50286 0.440628 0.676204
0.628329 0.313755 0.667342
0.565493 0.313659 0.667282
0.690889 0.440426 0.676242
0.628147 0.250887 0.668362
0.627492 0.438285 0.717745
0.69051 0.250962 0.668329
0.630031 0.379417 0.673161
0.627858 0.373405 0.709313
0.502373 0.379886 0.67301
0.565737 0.441289 0.675962
0.50175 0.252376 0.591301
0.502529 0.316615 0.591431
0.502803 0.380516 0.593784
0.503556 0.442722 0.59557
0.564603 0.253253 0.591481
0.56459 0.316191 0.591537
0.565915 0.380692 0.59356
0.565741 0.442793 0.595651
0.626951 0.252175 0.591281
0.627595 0.316722 0.59142
0.627687 0.380562 0.5937
0.628271 0.442996 0.595516
0.6896 0.253251 0.591423
0.689587 0.316235 0.591442
0.690891 0.38085 0.593355
0.690697 0.443144 0.595461
0.502561 0.251381 0.629179
0.502776 0.315797 0.62921
0.503056 0.38031 0.632675
0.503208 0.441507 0.63546
0.565404 0.251474 0.629155
0.565342 0.31551 0.629216
0.565604 0.38012 0.632588
0.565725 0.441676 0.635392
0.627791 0.251255 0.629218
0.627728 0.315433 0.629058
0.628598 0.380297 0.632281
0.628335 0.441558 0.635367
0.690599 0.251267 0.629183
0.690404 0.315505 0.629139
0.691074 0.380452 0.6321
0.69079 0.441513 0.635442
0.503016 0.250854 0.668265
0.627941 0.312745 0.749769
0.690448 0.250601 0.749593
0.627701 0.250595 0.749619
0.502759 0.313155 0.749592
0.565232 0.312725 0.749632
0.691744 0.435769 0.958408
0.502678 0.374072 0.750527
0.503409 0.438668 0.758972
0.690679 0.370926 0.95666
0.564691 0.373766 0.751441
0.565252 0.438011 0.759339
0.626288 0.37377 0.751833
0.627876 0.43861 0.759145
0.691481 0.498729 0.958287
0.68855 0.379205 0.756597
0.690521 0.439561 0.758934
0.503088 0.25076 0.790741
0.50337 0.313641 0.790775
0.503839 0.379055 0.798477
0.503714 0.438846 0.800359
0.56573 0.250745 0.790773
0.565286 0.312946 0.790866
0.565111 0.374767 0.791689
0.56639 0.43811 0.800154
0.62833 0.250587 0.790754
0.628046 0.312772 0.790995
0.626992 0.374583 0.792352
0.62821 0.43758 0.800698
0.690815 0.250536 0.790733
0.690864 0.312552 0.79082
0.690594 0.374438 0.792516
0.691049 0.437675 0.800634
0.503439 0.250735 0.831767
0.503509 0.312823 0.831989
0.503519 0.373502 0.833661
0.503315 0.437358 0.841794
0.566043 0.250857 0.831822
0.566131 0.31328 0.832119
0.566317 0.379054 0.840351
0.566108 0.438331 0.841825
0.628505 0.250622 0.831938
0.628316 0.31288 0.83218
0.628402 0.373637 0.833655
0.628767 0.43742 0.84189
0.690846 0.250477 0.831934
0.690873 0.312466 0.832397
0.690699 0.373862 0.834147
0.691007 0.436974 0.842025
0.503666 0.311452 0.87368
0.503517 0.372175 0.876296
0.503449 0.437691 0.88285
0.565932 0.311587 0.873617
0.566792 0.37209 0.876212
0.566065 0.437736 0.88284
0.628569 0.311358 0.873814
0.629794 0.372249 0.876326
0.628675 0.437557 0.882787
0.69113 0.311594 0.873891
0.6913 0.3724 0.876284
0.691052 0.437166 0.882729
0.503828 0.310108 0.914706
0.503837 0.37095 0.917778
0.503906 0.436044 0.920888
0.566077 0.310024 0.914668
0.566256 0.370748 0.91783
0.566106 0.43586 0.920771
0.628496 0.310006 0.914727
0.628578 0.370788 0.91789
0.628805 0.436127 0.921031
0.691095 0.309833 0.914728
0.691635 0.370629 0.917935
0.691332 0.435636 0.920649
0.503305 0.308359 0.954763
0.503507 0.370747 0.956361
0.504018 0.435141 0.958453
0.504323 0.499443 0.958281
0.566026 0.307889 0.955091
0.565891 0.371054 0.956644
0.566847 0.435694 0.958332
0.566792 0.498788 0.958266
0.628425 0.308379 0.954688
0.628787 0.370636 0.956336
0.628876 0.434933 0.958355
0.629265 0.499341 0.958219
0.691056 0.30778 0.955104
0.566004 0.25008 0.872862
0.503116 0.688658 0.717852
0.503149 0.563859 0.717939
0.503318 0.501379 0.717879
0.628125 0.626161 0.718027
0.628253 0.563699 0.718039
0.690394 0.749908 0.676284
0.690543 0.688009 0.676993
0.628041 0.501119 0.717885
0.690605 0.626168 0.718037
0.690432 0.501607 0.71786
0.690677 0.563775 0.718015
0.690679 0.688568 0.717872
0.628105 0.688582 0.717892
0.565656 0.501073 0.717952
0.565568 0.688588 0.717927
0.565757 0.563707 0.717951
0.503112 0.626294 0.717982
0.565727 0.626189 0.718029
0.628205 0.564002 0.677324
0.503089 0.688107 0.67692
0.503254 0.62618 0.677347
0.565538 0.502395 0.676909
0.628137 0.501987 0.676996
0.690574 0.625938 0.677373
0.628054 0.687863 0.67702
0.565684 0.626008 0.677424
0.565698 0.749895 0.676214
0.690709 0.563912 0.677394
0.690688 0.501957 0.676964
0.503202 0.74964 0.676207
0.565685 0.687995 0.677044
0.62805 0.749631 0.676267
0.628183 0.625947 0.677384
0.565651 0.564055 0.677377
0.503547 0.503828 0.596384
0.503609 0.564358 0.596596
0.503523 0.6253 0.596584
0.503305 0.685852 0.596004
0.503457 0.746453 0.595084
0.565966 0.503667 0.596337
0.566129 0.564628 0.596643
0.56599 0.625257 0.596549
0.565973 0.686038 0.596053
0.565957 0.746889 0.595402
0.628496 0.503833 0.596427
0.628505 0.564527 0.596615
0.628607 0.625438 0.596599
0.628392 0.685954 0.596136
0.62867 0.746331 0.595024
0.6911 0.503783 0.596314
0.691115 0.564489 0.596671
0.690821 0.625149 0.59658
0.690944 0.685927 0.5961
0.691221 0.746866 0.595465
0.503131 0.503169 0.636204
0.503411 0.56454 0.6367
0.503124 0.625761 0.636738
0.503169 0.686979 0.6362
0.503023 0.747939 0.635156
0.565859 0.503281 0.636167
0.565698 0.564588 0.636694
0.565767 0.625885 0.636677
0.565591 0.686793 0.636222
0.565753 0.74794 0.635204
0.628118 0.503053 0.636304
0.628371 0.564387 0.636775
0.628218 0.625729 0.636755
0.628281 0.686995 0.636202
0.628244 0.74779 0.635213
0.690821 0.502909 0.636262
0.690768 0.56436 0.636788
0.690766 0.625775 0.636716
0.690774 0.686929 0.63627
0.690908 0.748053 0.635303
0.503195 0.502229 0.676954
0.503143 0.564091 0.677344
0.692396 0.688982 0.958063
0.503361 0.501253 0.758948
0.503453 0.563625 0.758875
0.503281 0.625988 0.758914
0.503266 0.688385 0.758952
0.565776 0.501038 0.758994
0.565828 0.563661 0.758817
0.565824 0.62609 0.7589
0.56571 0.688377 0.758885
0.628193 0.50082 0.758912
0.628457 0.563627 0.758897
0.628294 0.626096 0.758981
0.628233 0.688366 0.758819
0.690753 0.501243 0.758953
0.690802 0.56347 0.758976
0.690729 0.626035 0.758964
0.69083 0.688416 0.758804
0.503463 0.500809 0.80008
0.50337 0.563107 0.799912
0.503427 0.625875 0.799952
0.503393 0.688393 0.800041
0.566057 0.500832 0.800118
0.565912 0.563389 0.799935
0.565862 0.625986 0.799985
0.565827 0.688624 0.800098
0.628378 0.500656 0.800196
0.628387 0.563282 0.799993
0.628454 0.625937 0.79996
0.628346 0.688438 0.800054
0.690912 0.50051 0.800293
0.69079 0.563137 0.800071
0.690809 0.62598 0.80003
0.690766 0.688574 0.799996
0.50338 0.50028 0.840978
0.503295 0.563099 0.84065
0.503278 0.625758 0.840547
0.503236 0.688601 0.840691
0.565743 0.500411 0.841003
0.565645 0.562968 0.840636
0.565698 0.625904 0.840573
0.565729 0.688704 0.840683
0.69198 0.625921 0.958349
0.628069 0.562982 0.840654
0.628209 0.625779 0.840542
0.628169 0.68861 0.84069
0.69208 0.563094 0.958243
0.690748 0.562987 0.840639
0.690673 0.625747 0.840535
0.690618 0.688673 0.840714
0.503194 0.500535 0.881646
0.503271 0.563283 0.880827
0.503285 0.625727 0.880559
0.503151 0.688351 0.880788
0.56587 0.500724 0.881527
0.565748 0.563024 0.880861
0.565823 0.625745 0.880593
0.565724 0.688371 0.880777
0.628444 0.500523 0.881604
0.628088 0.563168 0.880805
0.628214 0.625783 0.880549
0.628297 0.688423 0.880714
0.690782 0.500568 0.881582
0.690738 0.563173 0.880803
0.690586 0.625704 0.880494
0.690724 0.688422 0.880735
0.503879 0.500672 0.920622
0.50333 0.563637 0.920126
0.503655 0.62603 0.919755
0.503379 0.688464 0.919989
0.566079 0.50071 0.920785
0.566155 0.564064 0.920179
0.565777 0.626136 0.919893
0.566024 0.688332 0.919798
0.628764 0.500677 0.920528
0.628441 0.563726 0.920195
0.628503 0.626192 0.919798
0.628396 0.688523 0.919912
0.691089 0.500645 0.920773
0.691009 0.564115 0.920138
0.690667 0.626118 0.919872
0.691134 0.688396 0.919889
0.504431 0.562255 0.95833
0.505123 0.626151 0.958088
0.50465 0.689966 0.958002
0.567373 0.563133 0.958221
0.567027 0.625959 0.958309
0.567593 0.688992 0.958058
0.629348 0.562276 0.958281
0.630099 0.626234 0.958081
0.629582 0.689934 0.958061
0.628548 0.500182 0.841117
0.690847 0.500147 0.841207
0.56515 0.938245 0.707323
0.627849 0.938547 0.707309
0.502827 0.937302 0.706957
0.56585 0.877332 0.707505
0.628056 0.810582 0.674705
0.62808 0.877095 0.707628
0.503251 0.871962 0.714108
0.628052 0.938563 0.666321
0.565622 0.938727 0.749574
0.503096 0.938691 0.74933
0.690532 0.938836 0.749231
0.627979 0.938645 0.74938
0.628041 0.751164 0.717604
0.690459 0.751165 0.717527
0.628623 0.871447 0.669406
0.627994 0.814283 0.71747
0.690134 0.813782 0.717395
0.690944 0.877696 0.70761
0.690728 0.938191 0.666442
0.566014 0.81332 0.717397
0.690825 0.811287 0.675044
0.50314 0.75095 0.717548
0.503408 0.812795 0.717119
0.69196 0.871629 0.670657
0.565617 0.750879 0.717548
0.690918 0.938043 0.707263
0.501946 0.999691 0.59096
0.503539 0.808552 0.594558
0.503216 0.87105 0.593043
0.502834 0.93522 0.590918
0.564915 0.998961 0.590948
0.565722 0.808112 0.594172
0.566151 0.871313 0.592741
0.564888 0.935935 0.590996
0.627223 0.999724 0.590969
0.628605 0.808783 0.594554
0.628202 0.870971 0.59291
0.627873 0.935273 0.590954
0.690038 0.998905 0.590948
0.690973 0.80807 0.594324
0.691162 0.871197 0.592711
0.690153 0.936006 0.590958
0.503091 0.809017 0.633724
0.502967 0.87143 0.631088
0.502635 0.936491 0.628403
0.565846 0.808989 0.633695
0.56569 0.871542 0.631031
0.565329 0.936318 0.628657
0.628297 0.808812 0.633564
0.628569 0.871465 0.631148
0.627781 0.93661 0.628422
0.690963 0.809018 0.63384
0.691027 0.871363 0.631248
0.690435 0.936306 0.628689
0.503021 0.810708 0.674732
0.503029 0.871352 0.670025
0.502766 0.938307 0.666298
0.565462 0.81113 0.674905
0.565056 0.871534 0.670696
0.565268 0.938404 0.666267
0.628013 0.943476 0.954146
0.628991 0.816876 0.957761
0.629067 0.880787 0.955596
0.690813 0.881163 0.955955
0.692099 0.816265 0.957971
0.692067 0.753507 0.95771
0.690984 0.943397 0.953969
0.503259 0.750809 0.759027
0.503142 0.813727 0.759363
0.502868 0.877543 0.750971
0.56565 0.750957 0.75899
0.565622 0.813601 0.759374
0.565721 0.877917 0.75107
0.628077 0.750821 0.758924
0.628064 0.813418 0.75933
0.62805 0.877597 0.751058
0.690648 0.750807 0.758826
0.690256 0.81342 0.75914
0.68936 0.878555 0.751187
0.503352 0.750964 0.800226
0.503195 0.813558 0.800509
0.503783 0.87747 0.792502
0.50322 0.939433 0.790925
0.565764 0.751259 0.800166
0.566086 0.814335 0.800268
0.565674 0.877448 0.792981
0.565526 0.9395 0.791045
0.62832 0.750962 0.800178
0.628619 0.813752 0.800415
0.62782 0.876767 0.79225
0.628265 0.939084 0.790987
0.690798 0.75105 0.800161
0.69089 0.8136 0.800493
0.690374 0.877244 0.792601
0.690943 0.93935 0.791069
0.503481 0.751486 0.841065
0.503438 0.814632 0.841776
0.503847 0.877305 0.833489
0.503393 0.938932 0.832071
0.565689 0.751568 0.840913
0.565838 0.814593 0.841713
0.565983 0.877365 0.833469
0.566073 0.939082 0.832088
0.628168 0.751396 0.840942
0.628383 0.814433 0.841697
0.628272 0.877385 0.833566
0.628438 0.938837 0.831974
0.690822 0.751502 0.840981
0.690641 0.814643 0.841776
0.690551 0.877552 0.833803
0.690938 0.939067 0.832176
0.503292 0.751137 0.881191
0.503527 0.814535 0.882114
0.503416 0.879328 0.875565
0.503593 0.940247 0.873119
0.565966 0.751058 0.881222
0.566036 0.814444 0.882102
0.56614 0.879282 0.875522
0.565867 0.940072 0.873136
0.62824 0.751227 0.881207
0.628307 0.814514 0.882021
0.62841 0.879229 0.87547
0.628456 0.940159 0.873209
0.690937 0.751087 0.881137
0.690962 0.814492 0.882033
0.690903 0.879156 0.875357
0.690785 0.940109 0.873108
0.503785 0.751654 0.920046
0.503917 0.816365 0.920076
0.503581 0.880997 0.916979
0.503378 0.941742 0.913823
0.566127 0.751549 0.92013
0.566361 0.816212 0.920043
0.566303 0.881066 0.916964
0.565883 0.941693 0.913788
0.628878 0.751638 0.920012
0.629077 0.816242 0.920145
0.628615 0.880946 0.917006
0.628372 0.941644 0.913814
0.690964 0.751641 0.920187
0.691249 0.816142 0.92002
0.691048 0.880947 0.917059
0.690915 0.941511 0.913847
0.504992 0.752611 0.957858
0.504197 0.816755 0.957762
0.504076 0.88073 0.955573
0.503196 0.943371 0.954014
0.567153 0.753503 0.957683
0.566963 0.816243 0.957807
0.565991 0.881036 0.955939
0.565861 0.943292 0.953848
0.629861 0.752729 0.957828
0.75297 3.79678e-04 0.749334
0.815609 0.188313 0.749579
0.815569 5.26738e-04 0.749205
0.878001 0.188212 0.749594
0.940606 0.125563 0.749417
0.940515 0.188168 0.749616
0.940642 3.24493e-04 0.749204
0.878153 4.23829e-04 0.749193
0.752991 0.0630188 0.749412
0.753173 0.188288 0.749584
0.878008 0.0630047 0.74934
0.878219 0.125593 0.749439
0.815652 0.1255 0.749482
0.940516 0.0629807 0.749332
0.940471 0.188456 0.709054
0.753131 0.125536 0.749445
0.752131 0.0621693 0.590892
0.751389 0.126125 0.590993
0.752003 0.189669 0.591058
0.814233 0.063127 0.590957
0.814517 0.125868 0.590875
0.814048 0.188779 0.591041
0.877241 0.0621664 0.591002
0.876473 0.126137 0.590998
0.877068 0.189703 0.591111
0.939431 0.0630929 0.591001
0.939477 0.125766 0.590953
0.939058 0.188955 0.591119
0.752689 8.03196e-04 0.628668
0.752745 0.0639692 0.629124
0.752715 0.126183 0.629417
0.752992 0.188381 0.629272
0.815264 0.00102048 0.628489
0.815116 0.0643647 0.629059
0.815444 0.126269 0.629354
0.815229 0.188225 0.629328
0.877739 7.8891e-04 0.628646
0.877801 0.0637713 0.629054
0.877755 0.126223 0.629427
0.87787 0.188352 0.629336
0.940314 8.43095e-04 0.628536
0.94021 0.0641922 0.629007
0.940236 0.126273 0.629389
0.940209 0.188317 0.629416
0.75307 8.51799e-04 0.667704
0.753058 0.0634855 0.668544
0.753003 0.126018 0.668952
0.752978 0.188334 0.668772
0.815516 9.0428e-04 0.667727
0.81557 0.0633997 0.668474
0.815476 0.125914 0.668896
0.815467 0.188485 0.668819
0.877932 8.98146e-04 0.667638
0.878064 0.0634123 0.668464
0.877804 0.125844 0.668917
0.878081 0.188382 0.668779
0.94055 0.00107212 0.667644
0.940439 0.0634044 0.66839
0.940503 0.125785 0.668875
0.940477 0.188385 0.668772
0.752929 0.0630177 0.708788
0.753017 0.125763 0.709047
0.753113 0.188493 0.70911
0.815572 0.0628345 0.708785
0.815486 0.125729 0.709005
0.815451 0.188508 0.70906
0.878091 1.73738e-04 0.708182
0.878081 0.0628174 0.708728
0.877981 0.125826 0.708944
0.877858 0.188514 0.709057
0.94072 1.13707e-04 0.708136
0.940571 0.062994 0.708675
0.94048 0.125861 0.709015
0.815601 0.0628046 0.749304
0.815594 1.56607e-04 0.708202
0.752992 1.32821e-04 0.708256
0.940875 0.247222 0.953701
0.940631 0.064904 0.952689
0.940832 0.18635 0.95303
0.940904 0.125479 0.952625
0.753279 0.125572 0.95265
0.815763 0.186432 0.95305
0.878285 0.246991 0.953814
0.753176 0.0646671 0.952672
0.94057 0.00408851 0.953008
0.753323 0.186369 0.953067
0.815617 0.00390005 0.9531
0.878159 0.0648246 0.952697
0.878105 0.00422489 0.953091
0.753436 0.247037 0.95384
0.878418 0.18624 0.952991
0.815918 0.247222 0.953702
0.815575 0.064879 0.95267
0.753425 9.67572e-04 0.790602
0.75329 0.0633788 0.790445
0.753322 0.125772 0.790389
0.753255 0.188072 0.790565
0.815881 0.00104073 0.790488
0.815858 0.0633432 0.790413
0.815718 0.125735 0.790401
0.815756 0.188024 0.790539
0.878519 8.45099e-04 0.790444
0.878212 0.063231 0.790482
0.878255 0.125776 0.790432
0.878292 0.1882 0.790545
0.940844 7.72652e-04 0.790441
0.940887 0.0633901 0.790392
0.940752 0.125813 0.790405
0.940795 0.188123 0.790606
0.753567 0.00147623 0.831667
0.753464 0.0636729 0.831401
0.753451 0.125866 0.831391
0.753614 0.188047 0.831611
0.816084 0.00136279 0.831605
0.815863 0.063649 0.831368
0.815905 0.12603 0.831379
0.81606 0.188195 0.831591
0.878455 0.00103769 0.83157
0.878463 0.0636845 0.831411
0.878413 0.125989 0.831336
0.878395 0.188093 0.831561
0.94084 0.00126516 0.831601
0.940845 0.0636706 0.831373
0.94087 0.125977 0.831366
0.94098 0.188311 0.831612
0.753275 0.00206958 0.87248
0.753355 0.0639623 0.872096
0.753418 0.125892 0.872043
0.753464 0.187889 0.872401
0.878368 0.125687 0.952644
0.816047 0.00202211 0.872433
0.815857 0.0639846 0.872043
0.816036 0.125861 0.872064
0.815997 0.18807 0.872414
0.940926 0.248744 0.913737
0.878373 0.00189948 0.872456
0.878342 0.0639266 0.872001
0.878435 0.125934 0.871961
0.878602 0.18797 0.872381
0.75305 0.00417797 0.952989
0.941008 0.00209635 0.872522
0.940922 0.0639909 0.871993
0.94092 0.125916 0.871958
0.941024 0.187992 0.872292
0.815864 0.125619 0.952647
0.753416 0.00296226 0.913079
0.753213 0.0644829 0.912631
0.753409 0.125931 0.912513
0.753386 0.187299 0.91297
0.753647 0.248633 0.913884
0.815702 0.00302189 0.913093
0.815806 0.0644848 0.912641
0.815875 0.125909 0.912604
0.816012 0.187253 0.912999
0.81594 0.248788 0.913819
0.8784 0.00312774 0.913092
0.878198 0.0643464 0.912609
0.878445 0.125713 0.91256
0.878548 0.187332 0.91295
0.878695 0.248554 0.913813
0.940561 0.00302866 0.913146
0.940978 0.0645461 0.912602
0.940948 0.125967 0.912566
0.941062 0.187304 0.912941
0.753443 0.249865 0.87307
0.816043 0.249918 0.872948
0.941151 0.249983 0.872913
0.87851 0.249976 0.872962
0.815248 0.314057 0.667302
0.940529 0.313274 0.70809
0.815873 0.251035 0.749552
0.814979 0.379514 0.67341
0.753189 0.250798 0.74963
0.877746 0.313331 0.707989
0.940507 0.250992 0.708829
0.815198 0.250875 0.668317
0.877919 0.25076 0.668316
0.815237 0.440713 0.676126
0.81581 0.439498 0.717614
0.815291 0.314458 0.70787
0.815816 0.312963 0.749339
0.940156 0.438284 0.71789
0.75212 0.378279 0.715584
0.815643 0.37872 0.715494
0.81546 0.251422 0.708706
0.941031 0.440772 0.676187
0.877746 0.251007 0.70884
0.753056 0.439775 0.717545
0.93955 0.373693 0.709553
0.940374 0.250879 0.668328
0.942365 0.379674 0.672286
0.877789 0.374083 0.708743
0.752988 0.314588 0.707888
0.87805 0.440279 0.676312
0.878375 0.438903 0.717567
0.877785 0.313677 0.66737
0.940592 0.313896 0.667316
0.752865 0.312529 0.749487
0.752934 0.251242 0.708732
0.877709 0.379739 0.672797
0.751803 0.25231 0.591326
0.752684 0.316839 0.591544
0.752808 0.38044 0.59378
0.75356 0.443163 0.595348
0.81461 0.253372 0.59154
0.814563 0.31603 0.591357
0.816199 0.380863 0.593354
0.815995 0.443132 0.595373
0.87681 0.252305 0.591285
0.87764 0.316771 0.591512
0.878025 0.38064 0.593776
0.878751 0.442603 0.595617
0.939566 0.253224 0.591507
0.939541 0.316062 0.591403
0.941027 0.38068 0.59363
0.940736 0.442642 0.595805
0.752714 0.251212 0.629168
0.752803 0.316035 0.629173
0.753507 0.380871 0.632146
0.753266 0.441558 0.6355
0.815443 0.251376 0.629092
0.815361 0.315824 0.629321
0.815612 0.380663 0.632086
0.815712 0.441727 0.635429
0.877595 0.251304 0.629197
0.877567 0.315843 0.629221
0.877981 0.380414 0.632748
0.878325 0.441489 0.635614
0.940302 0.251313 0.629182
0.940146 0.315665 0.629302
0.94058 0.380278 0.632604
0.940707 0.44165 0.635393
0.753079 0.251076 0.668262
0.753003 0.314053 0.667297
0.753609 0.379088 0.673539
0.753027 0.440247 0.676259
0.940515 0.2509 0.749569
0.940235 0.31279 0.749626
0.878222 0.250917 0.749629
0.878413 0.313635 0.749518
0.941796 0.435857 0.958316
0.941626 0.498735 0.958291
0.752495 0.373362 0.751257
0.753724 0.438947 0.759052
0.753402 0.499936 0.841219
0.941006 0.371046 0.956704
0.816725 0.374022 0.751055
0.81593 0.438491 0.759065
0.879473 0.378965 0.757064
0.878488 0.43902 0.759023
0.941137 0.307794 0.955147
0.94034 0.373923 0.750451
0.94081 0.438635 0.758925
0.753201 0.250426 0.79072
0.753286 0.312464 0.79087
0.752818 0.374421 0.792236
0.753317 0.437691 0.800588
0.815796 0.250387 0.790704
0.815616 0.312368 0.790798
0.815124 0.374253 0.792269
0.815553 0.437643 0.800504
0.878184 0.25057 0.790686
0.878478 0.312947 0.79061
0.878533 0.374002 0.792404
0.878354 0.437723 0.80049
0.940733 0.250553 0.790815
0.94097 0.313264 0.790821
0.940849 0.378625 0.798895
0.940977 0.438737 0.800311
0.753325 0.250282 0.831887
0.75346 0.312393 0.832465
0.753318 0.373596 0.834229
0.753405 0.436745 0.842121
0.815807 0.250405 0.831942
0.815882 0.312322 0.832307
0.815535 0.374037 0.833949
0.815665 0.436841 0.842183
0.878434 0.250433 0.831871
0.878583 0.312528 0.83224
0.877201 0.373424 0.833965
0.87771 0.437477 0.842072
0.940853 0.250817 0.831951
0.940684 0.313564 0.831948
0.940086 0.378663 0.840565
0.940835 0.43817 0.841983
0.753643 0.311538 0.873898
0.753721 0.372517 0.876202
0.753605 0.437486 0.882764
0.815985 0.311492 0.873852
0.816057 0.372466 0.876116
0.815939 0.437491 0.88285
0.878463 0.311355 0.873848
0.878033 0.372263 0.876335
0.878202 0.437737 0.882864
0.941095 0.311724 0.873589
0.941194 0.372203 0.876251
0.940947 0.437684 0.882768
0.753566 0.310083 0.914819
0.753679 0.370579 0.917966
0.7538 0.435783 0.920818
0.816207 0.309969 0.914771
0.816289 0.370721 0.917923
0.816216 0.435728 0.920666
0.878735 0.310047 0.914741
0.878616 0.3708 0.917862
0.878724 0.435927 0.92087
0.941086 0.309915 0.914675
0.941305 0.370694 0.917974
0.941106 0.435747 0.920595
0.753531 0.308188 0.954767
0.753769 0.370679 0.956349
0.753982 0.43504 0.958392
0.754164 0.499204 0.958174
0.816214 0.307763 0.955159
0.815858 0.371066 0.956711
0.816727 0.435742 0.958347
0.816574 0.49873 0.958252
0.878457 0.308316 0.954785
0.878824 0.370792 0.95635
0.878908 0.435045 0.95832
0.879291 0.4993 0.958261
0.815759 0.563818 0.717984
0.753214 0.688359 0.717836
0.878038 0.687946 0.676977
0.878089 0.501402 0.717845
0.815438 0.688327 0.717779
0.815603 0.501684 0.717882
0.7532 0.563705 0.717994
0.815587 0.626074 0.717961
0.940605 0.563604 0.717996
0.752953 0.501587 0.71785
0.940673 0.688333 0.717741
0.878077 0.688096 0.717743
0.94061 0.687928 0.677025
0.878119 0.625985 0.717986
0.940593 0.501141 0.717881
0.753019 0.626007 0.717996
0.878242 0.563738 0.71796
0.75313 0.626035 0.677331
0.878185 0.626008 0.677417
0.878223 0.564026 0.67724
0.752941 0.68792 0.676978
0.815593 0.563974 0.677287
0.878141 0.501925 0.676932
0.815426 0.749798 0.676376
0.753151 0.564089 0.677306
0.815515 0.502149 0.676943
0.940626 0.502141 0.676909
0.94066 0.626147 0.718024
0.752851 0.74975 0.676344
0.81547 0.687904 0.676953
0.940805 0.564065 0.677243
0.940577 0.625931 0.677338
0.81553 0.625951 0.677321
0.75363 0.50385 0.596422
0.753457 0.564371 0.596644
0.753642 0.625396 0.59661
0.753479 0.685993 0.596177
0.753848 0.746438 0.595104
0.81591 0.503749 0.596318
0.81606 0.564615 0.596724
0.815925 0.625098 0.596665
0.816025 0.686046 0.596135
0.816293 0.746948 0.595557
0.878429 0.503783 0.596421
0.878531 0.564562 0.596639
0.878615 0.625551 0.596674
0.878525 0.686003 0.596232
0.87876 0.746841 0.59537
0.941016 0.503696 0.596339
0.941315 0.564752 0.596671
0.941107 0.625305 0.596615
0.941078 0.686224 0.596209
0.9412 0.746952 0.595588
0.753127 0.502928 0.636373
0.753375 0.564374 0.63676
0.753045 0.625637 0.636761
0.753212 0.687057 0.636295
0.753326 0.747914 0.635368
0.816074 0.503073 0.63631
0.815778 0.564444 0.636698
0.815733 0.625823 0.636681
0.815683 0.68704 0.636318
0.816016 0.748362 0.63544
0.878273 0.503031 0.636296
0.878405 0.564423 0.636691
0.878227 0.625835 0.63672
0.878345 0.687112 0.636375
0.878271 0.748222 0.635479
0.941025 0.503183 0.636149
0.94072 0.56432 0.636621
0.940934 0.62584 0.636659
0.94059 0.687145 0.636397
0.940722 0.748473 0.635508
0.753002 0.502109 0.677
0.940761 0.74984 0.676328
0.878024 0.749946 0.676356
0.87924 0.562184 0.958267
0.879852 0.626244 0.958159
0.942691 0.688981 0.958106
0.879616 0.689968 0.958015
0.817175 0.563037 0.958295
0.942108 0.56297 0.958299
0.941928 0.625976 0.958359
0.817578 0.688816 0.95807
0.816748 0.625926 0.958365
0.753344 0.501304 0.758981
0.753198 0.56368 0.759006
0.753285 0.625905 0.758923
0.75337 0.688473 0.758856
0.815838 0.501143 0.759062
0.81576 0.563588 0.759044
0.81566 0.625887 0.758971
0.815822 0.688268 0.758789
0.878294 0.501129 0.759009
0.878216 0.563416 0.759053
0.878208 0.625954 0.758965
0.878287 0.68838 0.758823
0.94092 0.500978 0.759077
0.940891 0.56349 0.759006
0.940732 0.625898 0.758938
0.940766 0.688473 0.758758
0.753312 0.500413 0.800337
0.753283 0.563135 0.800061
0.753326 0.62606 0.799998
0.753205 0.688504 0.799916
0.815926 0.500377 0.800281
0.815764 0.56316 0.800039
0.815853 0.625917 0.800013
0.815772 0.688454 0.799942
0.878494 0.500606 0.800207
0.878283 0.563201 0.800045
0.878216 0.625832 0.799951
0.878187 0.688542 0.799864
0.940856 0.500583 0.800179
0.940633 0.563094 0.800081
0.940711 0.625824 0.799936
0.940677 0.688552 0.799881
0.878218 0.500238 0.841162
0.753166 0.562934 0.840653
0.753156 0.625764 0.840486
0.753173 0.688564 0.840647
0.940743 0.500541 0.841109
0.815685 0.56293 0.840711
0.81564 0.625918 0.840472
0.815647 0.688561 0.840604
0.878164 0.56305 0.840728
0.87813 0.625943 0.84046
0.878132 0.688648 0.840585
0.94081 0.562991 0.840715
0.940667 0.625731 0.840408
0.940645 0.688318 0.840524
0.753233 0.500572 0.881692
0.753193 0.563268 0.880842
0.753267 0.625786 0.880528
0.753077 0.688298 0.880693
0.815721 0.500725 0.881672
0.815708 0.563227 0.880873
0.815552 0.625593 0.880576
0.815652 0.688313 0.880747
0.878233 0.500732 0.881639
0.878133 0.563309 0.880856
0.878215 0.625732 0.880564
0.878176 0.688286 0.880714
0.940921 0.500884 0.88155
0.940661 0.563281 0.88092
0.940695 0.625828 0.880581
0.940846 0.688486 0.880763
0.753664 0.500593 0.92059
0.753292 0.563547 0.920128
0.753385 0.626135 0.919846
0.753269 0.68834 0.919911
0.816172 0.500625 0.920788
0.816078 0.564001 0.920284
0.815546 0.625967 0.91994
0.816015 0.68812 0.919869
0.878848 0.500547 0.920559
0.878418 0.563686 0.920202
0.878551 0.626012 0.919894
0.878361 0.688294 0.919969
0.941131 0.500599 0.920749
0.941211 0.564105 0.920186
0.940838 0.625957 0.919897
0.941153 0.688001 0.919986
0.754239 0.562135 0.958236
0.754913 0.626182 0.958163
0.754353 0.689785 0.958042
0.815748 0.500026 0.841201
0.941039 0.811321 0.675337
0.878261 0.812817 0.716744
0.815612 0.75071 0.717467
0.815576 0.873351 0.715105
0.878717 0.872143 0.672715
0.753532 0.937015 0.707128
0.878192 0.937997 0.707076
0.940754 0.750661 0.717333
0.752875 0.937809 0.74886
0.939871 0.937666 0.748785
0.816095 0.938377 0.748882
0.878107 0.750494 0.717336
0.878669 0.937782 0.748881
0.878908 0.878643 0.708017
0.94124 0.873777 0.715448
0.878085 0.937945 0.666446
0.941567 0.871972 0.672504
0.940804 0.937843 0.666306
0.815152 0.937097 0.707088
0.940694 0.812708 0.717005
0.752679 0.812645 0.717121
0.753352 0.87297 0.71506
0.752967 0.750719 0.71749
0.815537 0.812683 0.717166
0.941236 0.937543 0.707017
0.752449 0.999428 0.591165
0.753734 0.808543 0.594534
0.753248 0.870969 0.593048
0.752951 0.935048 0.590973
0.815006 0.998792 0.591051
0.815978 0.807755 0.59419
0.816095 0.871217 0.59269
0.815088 0.935872 0.591054
0.877361 0.999355 0.59107
0.878679 0.808264 0.594454
0.878252 0.870754 0.593026
0.878048 0.934996 0.591009
0.940012 0.998644 0.591016
0.941022 0.807557 0.594097
0.94124 0.871019 0.592618
0.94009 0.93581 0.591067
0.753531 0.809203 0.634001
0.753806 0.871119 0.631075
0.752956 0.936104 0.628577
0.816216 0.809415 0.63421
0.816259 0.870966 0.631295
0.815613 0.935591 0.628897
0.878495 0.809893 0.634401
0.878724 0.87079 0.631224
0.877971 0.936038 0.628536
0.940643 0.809606 0.634388
0.940851 0.870684 0.631136
0.940466 0.935706 0.628699
0.753302 0.810968 0.675081
0.754272 0.871725 0.671514
0.75328 0.938131 0.666365
0.815612 0.811231 0.675309
0.815651 0.871707 0.672081
0.815622 0.937812 0.666395
0.878075 0.811582 0.675592
0.753279 0.75073 0.758751
0.753042 0.812531 0.758803
0.751935 0.872575 0.756338
0.81584 0.750766 0.758616
0.816174 0.813406 0.758683
0.817551 0.878453 0.750834
0.878322 0.750705 0.758549
0.878349 0.812581 0.758434
0.878151 0.873912 0.757446
0.940869 0.750593 0.758552
0.940703 0.81247 0.758414
0.938629 0.873186 0.75603
0.753381 0.750993 0.800073
0.753184 0.813933 0.800366
0.753487 0.877429 0.792366
0.753685 0.939191 0.79066
0.81582 0.750967 0.799954
0.815464 0.813588 0.800372
0.815255 0.87818 0.792107
0.816036 0.939163 0.790658
0.878372 0.750738 0.799894
0.87807 0.812648 0.799996
0.878131 0.873834 0.798778
0.878385 0.938133 0.790296
0.940875 0.750934 0.799948
0.941244 0.813003 0.800192
0.940906 0.873898 0.798533
0.940792 0.938031 0.790406
0.753198 0.75155 0.840938
0.753125 0.814638 0.8417
0.752913 0.877781 0.833908
0.753466 0.939429 0.832247
0.815646 0.751441 0.840822
0.815349 0.814271 0.841605
0.815242 0.87799 0.833663
0.816159 0.939233 0.832098
0.878303 0.751086 0.840952
0.878345 0.813176 0.841612
0.876747 0.872953 0.839522
0.878259 0.938362 0.831672
0.940849 0.751162 0.840891
0.941012 0.813819 0.841657
0.941183 0.879043 0.833836
0.940907 0.939002 0.831809
0.753221 0.751173 0.881241
0.753339 0.814527 0.882126
0.753005 0.879025 0.875358
0.753337 0.940194 0.873105
0.815615 0.750902 0.881291
0.815697 0.814153 0.882181
0.814755 0.879295 0.875816
0.815725 0.940309 0.873164
0.878332 0.750802 0.881258
0.878251 0.813981 0.882206
0.877998 0.879302 0.875675
0.87847 0.940076 0.872968
0.940837 0.750746 0.881293
0.940809 0.814045 0.882171
0.940136 0.879879 0.87608
0.940612 0.940528 0.873207
0.753702 0.751396 0.920133
0.75387 0.816263 0.920117
0.75338 0.880967 0.917072
0.753342 0.941694 0.913775
0.815982 0.751358 0.920289
0.816202 0.816011 0.920069
0.816088 0.880909 0.917212
0.81608 0.941571 0.913768
0.878812 0.75144 0.920193
0.878834 0.816187 0.920076
0.878196 0.880929 0.916973
0.878089 0.941695 0.913845
0.940933 0.751405 0.92026
0.941348 0.816069 0.920111
0.941286 0.880848 0.917039
0.940955 0.941858 0.913951
0.754824 0.7527 0.95787
0.754151 0.816959 0.957772
0.753983 0.880773 0.955647
0.753032 0.943473 0.954171
0.817178 0.753246 0.957807
0.81703 0.816208 0.957872
0.81573 0.881112 0.955799
0.815929 0.943418 0.953973
0.879824 0.75255 0.957961
0.879213 0.81684 0.957737
0.879271 0.880807 0.955574
0.878214 0.943331 0.954028
0.942149 0.753273 0.957774
0.942176 0.816304 0.957807
0.940982 0.880959 0.955795
0.941044 0.943276 0.953831
