AlBiO3-GaBiO3-strain_+1-perturbed -> rat
   1.00000000000000     
    19.4573244615874081   -0.0117296496197752    0.0132454487103914
    -0.0116409736149221   19.4573705022900896    0.0601924804542081
     0.0057027325702608    0.0236495687542280    7.8259094096022954
   Al   Bi   Ga   O 
    25    50    25   150
Direct
  0.1018536118339399  0.0954316920350167  0.2517614087065783
  0.1005954155508986  0.3002271775987044  0.2485151041860287
  0.0990534363902456  0.5013206503951677  0.2497956224710697
  0.0992593851991027  0.6966884329750025  0.2554352499993862
  0.1047069996848347  0.8989247594021793  0.2491983392783933
  0.3021121630815712  0.1017092639036075  0.2447605168480998
  0.2970755257704294  0.3036285380583459  0.2445220798988026
  0.3015125832290990  0.4986548049408183  0.2543297933978647
  0.3017227118006894  0.6976211212965123  0.2489333872847881
  0.3006824599041892  0.8952633439015759  0.2533474997167237
  0.5015884694336097  0.1016910139989283  0.2509974108379033
  0.4996934246769184  0.3024631942774283  0.2473312390178475
  0.4975409221957430  0.5023405483542583  0.2529753779348404
  0.5007000154153702  0.7018821969177125  0.2482363556079525
  0.5017595142917618  0.9001858456128946  0.2507618699037535
  0.7020458951433092  0.1050998156741123  0.2462926861133349
  0.6960913219013344  0.2968894445960301  0.2563254627902761
  0.6994538918086649  0.5025822279142376  0.2433954704380811
  0.6981807068099910  0.6997551446744098  0.2464679956084651
  0.7012194112711220  0.9031826751310665  0.2479774099019135
  0.8990878341610339  0.1022527302358747  0.2447695898417715
  0.9023082899099296  0.2991152808938011  0.2435859981705103
  0.8991934573555821  0.5015890100985574  0.2531534444388393
  0.9022468170804319  0.7027174479539687  0.2492233083581783
  0.8977749184546094  0.8996299918757642  0.2501979762729535
  0.0041227500497576 -0.0121793534011620  0.0436250511061965
  0.0011745881544860  0.1949633881309301  0.0275302573863474
 -0.0083896332899163  0.3842932478618560 -0.0125752461589661
  0.0035168514395180  0.5854190193982040  0.0214810342665346
  0.0176640621466218  0.7923202438493930  0.0199807644854709
  0.2207499146524600 -0.0117982196048110  0.0082425572755185
  0.1863182696350120  0.1963050952126360  0.0143352738289233
  0.1870298051738820  0.3925307806559254 -0.0091902029663362
  0.2126093609315215  0.5844785579529117 -0.0145202564908229
  0.2194197033582023  0.8006443389496039 -0.0125944718265962
  0.4139889954798924  0.0107318531688599  0.0272686907999716
  0.3973840173092589  0.2183656308415076  0.0120871001825371
  0.3989811352624038  0.4136649812906553  0.0325503858995549
  0.4025811904481964  0.6127900939600933  0.0222848743804408
  0.4078777400332676  0.8113912404869346  0.0285543312060399
  0.6141388483667204  0.0103100953173081  0.0316452456374947
  0.5876257645844535  0.2130466598455353  0.0171394402953055
  0.5927842048154108  0.4106842464350878  0.0244922021643580
  0.6051788929317734  0.6128109130049052  0.0244709584635985
  0.6081477986267979  0.8117832266353224  0.0279864630031646
  0.8106364242145817  0.0104789415225056  0.0326520963604153
  0.7973057355363782  0.2105593048230137  0.0337875313626312
  0.7903311336983299  0.3980125177572674  0.0546491800023504
  0.8122220825852496  0.6078579920240211  0.0296867148261997
  0.8004870616601075  0.8048403719586094  0.0418777188187319
  0.0109462949165689 -0.0169624715274237  0.5158458421400539
 -0.0027642964186757  0.1799768926729540  0.4917238870351711
 -0.0183738461856228  0.3995838354107524  0.4812749701146132
  0.0068415075155003  0.6007213764988916  0.5282467937733085
  0.0184805441755402  0.7951606818051792  0.5109588771535427
  0.2221598601951559  0.0040037656832566  0.4939188110315268
  0.1955377332167187  0.1865375747110294  0.5026029323289941
  0.1883836436764883  0.3927327898834370  0.4728049326187437
  0.2013334508254533  0.5919143909959990  0.4592983288040930
  0.2101739890849648  0.7834872386655927  0.4838400645551462
  0.4148035577340690  0.0131670014902753  0.5122709343929183
  0.3834115844067673  0.2168741073037486  0.4977865283547293
  0.3946743552244071  0.4150583754587305  0.5274624141251998
  0.4121817262983114  0.6113374130448954  0.5053168858152695
  0.4113326205942471  0.8120867594727210  0.5153474483191426
  0.6127080738408307  0.0180940336617729  0.5117049107138835
  0.5864523836500058  0.2108510204844877  0.5293856803625502
  0.6019636524292022  0.4194441573952836  0.5095994974490213
  0.6075858593940864  0.6138309436528558  0.5147336871249275
  0.6121400116418961  0.8132645367646544  0.5110615668844729
  0.8145391347802670  0.0005763344343351  0.5295112121941188
  0.7933667774629507  0.2104264272402800  0.5335189157119836
  0.7909952043193983  0.4119673512437990  0.5130594504688791
  0.8087659818228341  0.6120649628794915  0.5152485936499884
  0.8081531517688116  0.8080359914671992  0.5234662323944911
  0.1001922712909853  0.0980637705844585  0.7519222511372304
  0.0994095137197573  0.3001075250712881  0.7417625618834552
  0.1011568065338155  0.4997057172562152  0.7508906056926937
  0.1043205670190261  0.6987933500885846  0.7569271907771254
  0.1015045510096599  0.8982940662563345  0.7567013126158648
  0.3006146668364463  0.0993613367842339  0.7542332682274460
  0.2984001885399405  0.3045764278337904  0.7511661879734620
  0.2990592299362614  0.5003397291650721  0.7431326821008242
  0.3008208400627269  0.6960891976149957  0.7500571020206019
  0.3034382501978535  0.8978409429988012  0.7423939089840884
  0.5021496870860611  0.1000893118333282  0.7498604531941138
  0.4959087821357721  0.3032545341548032  0.7476951152767120
  0.4985067575111528  0.5028856284803659  0.7489108947134139
  0.5003275839605764  0.7022391996762347  0.7498721332628284
  0.5017189400738633  0.9007690914801879  0.7514075063240097
  0.7035249031826015  0.1009666871742316  0.7521765703842328
  0.7005922013178065  0.3024940813475634  0.7469690798654400
  0.6980799303539622  0.5005883459320526  0.7610578847426918
  0.6995986853416005  0.7013755260200449  0.7503486371381594
  0.7005991463478528  0.9021002043688189  0.7519651236964783
  0.9013106615927947  0.1022347710033238  0.7538857567197174
  0.9009300661335354  0.2981574546803921  0.7458033509343777
  0.9002746318122370  0.5013018607453940  0.7494283674044225
  0.8987620707310858  0.7005601092443029  0.7568867171935508
  0.9006485647151847  0.9007294666327696  0.7566361087494589
  0.0949786614234567 -0.0010343902990683  0.2442801791532394
  0.1081490004385878  0.1067772757080305  0.0050417389088455
  0.0008078603021752  0.1078252488215570  0.2401762226800543
  0.1050573688787950  0.2011097036279842  0.2407689581007595
  0.1195672551185115  0.2942079490635983  0.0047699728271595
  0.0036659708539526  0.2979030286194214  0.2004155488194960
  0.1042817277016681  0.4028227708671480  0.2181749434619227
  0.0972113799262329  0.5198296987058526  0.0101007418297979
 -0.0008881187520287  0.5112080500866205  0.2488560449448749
  0.1003217918426751  0.6014895996182251  0.2903697110187207
  0.0884760148990353  0.6957544743797154  0.0106737319373226
 -0.0029952009417466  0.7006821836542340  0.2764360987345317
  0.0911688052254387  0.7999971563831880  0.2332292726099717
  0.0778481182739548  0.8990355920025296  0.0078561509257150
 -0.0055049749365442  0.9078668632257465  0.2640310300115835
  0.2932458348525687 -0.0033101283476802  0.2420120515915405
  0.2857992961811412  0.0993324219812006  0.0038983258479668
  0.2000038614236929  0.0995797887174799  0.2857005045634566
  0.3016513646673976  0.1990951614377209  0.2797865201561084
  0.2970416629579698  0.2830076815608519  0.0023725550417413
  0.2013068190338765  0.3054082074071032  0.2722508126693875
  0.3020458944278336  0.4003317164979499  0.2066594306639916
  0.3107195721426360  0.5172531830166766  0.0060570729003403
  0.2022569806983519  0.5081837759236276  0.2335129662275548
  0.3032211370127867  0.5992852284508805  0.2890891052326937
  0.2941122760833716  0.6803918115126428  0.0086651615426261
  0.2000580421152783  0.6984473259411134  0.2752891890613478
  0.2953252177154458  0.7965979239951498  0.2206247085517036
  0.3055588865388428  0.9043919910444144  0.0059351193226667
  0.1984864961177007  0.8970887095238766  0.2094512646791544
  0.4912773826575067 -0.0031345520369935  0.2632143014236120
  0.5075742013887781  0.0828295462552902  0.0015028834001069
  0.3999540826561259  0.0967679210963690  0.2167510490297495
  0.5070797818808934  0.1974929967101807  0.2247917844405022
  0.4968155870795143  0.2911690679736876  0.0007512270603318
  0.4002573474541515  0.2931093439294012  0.2297432438017358
  0.4995133742317222  0.3986879846281209  0.2180093474640643
  0.4873799565852667  0.5042892175525550  0.0019352294672182
  0.3995253230311374  0.4926650015810095  0.2671540344332643
  0.4932208586818713  0.5996179661778795  0.2723741946750540
  0.5073702958173124  0.6837438897358555 -0.0002111933046597
  0.4004239060031307  0.7012148200415372  0.2130297479861856
  0.5020638614921824  0.7981957239930878  0.2065962040946794
  0.4859970264043796  0.9066268883124606  0.0020791386888666
  0.3995446886134617  0.8885319917141995  0.2666480951586592
  0.7008997126130877 -0.0006435466486510  0.2298998590157693
  0.6906017848420672  0.0940760558395592  0.0000199893848989
  0.6005147192414416  0.0919549894727150  0.2536972199594945
  0.7006198382858196  0.2013521077018174  0.2101781643372413
  0.7149181300922742  0.3095684405219671 -0.0020478346802623
  0.6000052679515236  0.2997030479903749  0.2132835629106699
  0.7042874316303389  0.3951515311317169  0.2686406525713338
  0.7007958932432878  0.4786971590368941  0.0053182022751243
  0.5979948838826743  0.4930304955577006  0.2198858906206269
  0.6989446217432659  0.5979338305891949  0.2077760145485505
  0.6770462435236507  0.7039483339858651 -0.0024880145569192
  0.5981683433136377  0.6909630107841653  0.2633884804200470
  0.6952590858145109  0.7982482366850323  0.2404710232019599
  0.6960378919824260  0.8907975834720212  0.0009327768882920
  0.5986971442261759  0.8981012275814807  0.2269574254374812
  0.8909096411845737  0.0029205476340609  0.2630151719617654
  0.9031576197716017  0.0860367801575778  0.0011857790929050
  0.7999457103446243  0.1051516559554736  0.2111646324107865
  0.9036835943181787  0.2014035345303966  0.2069073018273415
  0.8890340105518167  0.3101811794586086 -0.0016871685930501
  0.8026300943809499  0.2984971726663035  0.2568716442101345
  0.9106718141983413  0.4002845265922973  0.2422573349510756
  0.9006387401040941  0.5142311590075916  0.0045313415434288
  0.7987297793810504  0.4925106339644913  0.2511967903463753
  0.8852243717076093  0.6017013390409963  0.2695840922709083
  0.9029449539766456  0.6838478490516903  0.0048541520714524
  0.7939477730822215  0.7022510567955872  0.1978654957330135
  0.8939737881173364  0.8002189861074344  0.2130715695725681
  0.9046867420012039  0.9169199661046746  0.0029184536451734
  0.7983322999115382  0.8951427710813097  0.2241082531848614
  0.0842579682384778 -0.0009976959573596  0.7448812110240639
  0.0892763548345989  0.1077990603504871  0.4912599126616828
  0.0006883721576511  0.1258999176573549  0.7488133012185219
  0.1252678594737896  0.2026217756616290  0.7487712910055756
  0.0945135903072567  0.3135641802983256  0.4898846219841345
  0.0014302968790253  0.2900764862299979  0.8030596024630335
  0.0910162334982619  0.4007511411069072  0.8047258518354571
  0.1096489271783538  0.4880774580596561  0.4946281805180376
  0.0021242512730326  0.5212906973687306  0.7539822982276483
  0.1085903967194210  0.6022418526121318  0.6996118489074231
  0.1031376116819763  0.7186281521526714  0.4952000049935064
 -0.0026904448873369  0.6978915512819555  0.7035115513055065
  0.0824859884934612  0.7983186709984199  0.7702353623044605
  0.1001114917617507  0.8931876868582326  0.4914237881720909
 -0.0027705096384826  0.8959693905523008  0.7039266131344052
  0.2842111247406023 -0.0033253902671513  0.7479565963931103
  0.3094573894886629  0.0837681229942250  0.4877989354360880
  0.1994192410543460  0.0952975443533006  0.6889199789570301
  0.2928818031876585  0.1987915037629985  0.6923283012236159
  0.3151936918259655  0.3106988504191274  0.4881382926164717
  0.2016970741220626  0.3271763189100110  0.7281795386140424
  0.3255146736916410  0.4027599450322022  0.7732551353237062
  0.2900176929128138  0.4805237261096190  0.4923436693204457
  0.2002802050031368  0.4892920602398582  0.8021523303237060
  0.2747936500724528  0.5983336415947009  0.7244893816431651
  0.3041550493215702  0.7141151789438964  0.4943382118542749
  0.2016260057179063  0.7223341587215307  0.7428356485363241
  0.3102862786823973  0.7979744985486789  0.7966916479453303
  0.2859243693817801  0.8926703347195388  0.4905427436963093
  0.1991247549302664  0.8904806303380897  0.7971046488416668
  0.5115388160330502 -0.0014850638634178  0.6967879141339979
  0.4895918491358590  0.1037234930332814  0.4869351434291896
  0.4009409030194125  0.0818537947903725  0.7636132882826772
  0.5071008312318483  0.1987161329691421  0.7556521249892261
  0.5013567731655060  0.2941632845071560  0.4864665203377788
  0.3973271939533112  0.2795483076343456  0.7548074136851637
  0.4814373071944796  0.4004847226303609  0.7533485201008765
  0.5093973061717191  0.4882387495239233  0.4871759471149446
  0.3993674790228790  0.5140522887163387  0.6914927419761751
  0.5104494959233945  0.6013370038154654  0.6936359164492163
  0.4826920237234021  0.7108565941303617  0.4864151248906091
  0.3992318895766637  0.6741363883032310  0.7636223684423538
  0.4761281426268715  0.7987192945208147  0.7700228648190401
  0.5070342539555702  0.8781816854989291  0.4872311303944767
  0.4013678883592430  0.9088953755133543  0.6970106260728818
  0.6779354879297255 -0.0006449908920264  0.7480406207422313
  0.7080050041116367  0.0980819457369370  0.4852113557548117
  0.6030501107847512  0.1081205823285890  0.6988637076053993
  0.7231234226267306  0.2003916869773995  0.7610970104769565
  0.6923291027024165  0.2794389131763430  0.4899207038816587
  0.6003908996470473  0.2905916868916384  0.7530243527039745
  0.7000629392518187  0.4003036617150855  0.6925005707906758
  0.6841363216350552  0.5035439554984220  0.4828502353557950
  0.5965497556507537  0.4787384634960219  0.7608587881632274
  0.6754057974922610  0.5982212710182636  0.7619651015754635
  0.7075817291942681  0.6862901366083657  0.4839326117615230
  0.5989050889001545  0.7099253309914232  0.6905559769504338
  0.7123674487317149  0.7998366227673135  0.7135634276404685
  0.6930142484260510  0.9010768339125633  0.4865359450762055
  0.5990740908222175  0.8750928857446885  0.7519848459625483
  0.9111830392394416  0.0027956814104741  0.6902007750504759
  0.9015075278997983  0.1153169627402767  0.4831014990401626
  0.8015211163747403  0.0764908817305193  0.7527406758348999
  0.8776631822752727  0.2004925637229094  0.7526692775134236
  0.9190983261399267  0.3010403805664117  0.4841500515889511
  0.8027072143557424  0.3114407026588072  0.6844529325628589
  0.9223355325938237  0.4009488879711934  0.7424474545163219
  0.9040103419153985  0.4879039276189766  0.4907981436914804
  0.7983166578693897  0.4959734874245588  0.7195827645432364
  0.8988183473295487  0.6007644929350373  0.6922512268655155
  0.8754722860425863  0.7085426881546275  0.4853725060640945
  0.7962452081521065  0.6778847766717342  0.7681502387936229
  0.8778616810688057  0.7999915734651052  0.7582385143404073
  0.8857495297661856  0.8938902417764589  0.4869241478688320
  0.7996912683414503  0.9175572285863953  0.7368923817183293
 
  0.00000000E+00  0.00000000E+00  0.00000000E+00
  0.00000000E+00  0.00000000E+00  0.00000000E+00
  0.00000000E+00  0.00000000E+00  0.00000000E+00
  0.00000000E+00  0.00000000E+00  0.00000000E+00
  0.00000000E+00  0.00000000E+00  0.00000000E+00
  0.00000000E+00  0.00000000E+00  0.00000000E+00
  0.00000000E+00  0.00000000E+00  0.00000000E+00
  0.00000000E+00  0.00000000E+00  0.00000000E+00
  0.00000000E+00  0.00000000E+00  0.00000000E+00
  0.00000000E+00  0.00000000E+00  0.00000000E+00
  0.00000000E+00  0.00000000E+00  0.00000000E+00
  0.00000000E+00  0.00000000E+00  0.00000000E+00
  0.00000000E+00  0.00000000E+00  0.00000000E+00
  0.00000000E+00  0.00000000E+00  0.00000000E+00
  0.00000000E+00  0.00000000E+00  0.00000000E+00
  0.00000000E+00  0.00000000E+00  0.00000000E+00
  0.00000000E+00  0.00000000E+00  0.00000000E+00
  0.00000000E+00  0.00000000E+00  0.00000000E+00
  0.00000000E+00  0.00000000E+00  0.00000000E+00
  0.00000000E+00  0.00000000E+00  0.00000000E+00
  0.00000000E+00  0.00000000E+00  0.00000000E+00
  0.00000000E+00  0.00000000E+00  0.00000000E+00
  0.00000000E+00  0.00000000E+00  0.00000000E+00
  0.00000000E+00  0.00000000E+00  0.00000000E+00
  0.00000000E+00  0.00000000E+00  0.00000000E+00
  0.00000000E+00  0.00000000E+00  0.00000000E+00
  0.00000000E+00  0.00000000E+00  0.00000000E+00
  0.00000000E+00  0.00000000E+00  0.00000000E+00
  0.00000000E+00  0.00000000E+00  0.00000000E+00
  0.00000000E+00  0.00000000E+00  0.00000000E+00
  0.00000000E+00  0.00000000E+00  0.00000000E+00
  0.00000000E+00  0.00000000E+00  0.00000000E+00
  0.00000000E+00  0.00000000E+00  0.00000000E+00
  0.00000000E+00  0.00000000E+00  0.00000000E+00
  0.00000000E+00  0.00000000E+00  0.00000000E+00
  0.00000000E+00  0.00000000E+00  0.00000000E+00
  0.00000000E+00  0.00000000E+00  0.00000000E+00
  0.00000000E+00  0.00000000E+00  0.00000000E+00
  0.00000000E+00  0.00000000E+00  0.00000000E+00
  0.00000000E+00  0.00000000E+00  0.00000000E+00
  0.00000000E+00  0.00000000E+00  0.00000000E+00
  0.00000000E+00  0.00000000E+00  0.00000000E+00
  0.00000000E+00  0.00000000E+00  0.00000000E+00
  0.00000000E+00  0.00000000E+00  0.00000000E+00
  0.00000000E+00  0.00000000E+00  0.00000000E+00
  0.00000000E+00  0.00000000E+00  0.00000000E+00
  0.00000000E+00  0.00000000E+00  0.00000000E+00
  0.00000000E+00  0.00000000E+00  0.00000000E+00
  0.00000000E+00  0.00000000E+00  0.00000000E+00
  0.00000000E+00  0.00000000E+00  0.00000000E+00
  0.00000000E+00  0.00000000E+00  0.00000000E+00
  0.00000000E+00  0.00000000E+00  0.00000000E+00
  0.00000000E+00  0.00000000E+00  0.00000000E+00
  0.00000000E+00  0.00000000E+00  0.00000000E+00
  0.00000000E+00  0.00000000E+00  0.00000000E+00
  0.00000000E+00  0.00000000E+00  0.00000000E+00
  0.00000000E+00  0.00000000E+00  0.00000000E+00
  0.00000000E+00  0.00000000E+00  0.00000000E+00
  0.00000000E+00  0.00000000E+00  0.00000000E+00
  0.00000000E+00  0.00000000E+00  0.00000000E+00
  0.00000000E+00  0.00000000E+00  0.00000000E+00
  0.00000000E+00  0.00000000E+00  0.00000000E+00
  0.00000000E+00  0.00000000E+00  0.00000000E+00
  0.00000000E+00  0.00000000E+00  0.00000000E+00
  0.00000000E+00  0.00000000E+00  0.00000000E+00
  0.00000000E+00  0.00000000E+00  0.00000000E+00
  0.00000000E+00  0.00000000E+00  0.00000000E+00
  0.00000000E+00  0.00000000E+00  0.00000000E+00
  0.00000000E+00  0.00000000E+00  0.00000000E+00
  0.00000000E+00  0.00000000E+00  0.00000000E+00
  0.00000000E+00  0.00000000E+00  0.00000000E+00
  0.00000000E+00  0.00000000E+00  0.00000000E+00
  0.00000000E+00  0.00000000E+00  0.00000000E+00
  0.00000000E+00  0.00000000E+00  0.00000000E+00
  0.00000000E+00  0.00000000E+00  0.00000000E+00
  0.00000000E+00  0.00000000E+00  0.00000000E+00
  0.00000000E+00  0.00000000E+00  0.00000000E+00
  0.00000000E+00  0.00000000E+00  0.00000000E+00
  0.00000000E+00  0.00000000E+00  0.00000000E+00
  0.00000000E+00  0.00000000E+00  0.00000000E+00
  0.00000000E+00  0.00000000E+00  0.00000000E+00
  0.00000000E+00  0.00000000E+00  0.00000000E+00
  0.00000000E+00  0.00000000E+00  0.00000000E+00
  0.00000000E+00  0.00000000E+00  0.00000000E+00
  0.00000000E+00  0.00000000E+00  0.00000000E+00
  0.00000000E+00  0.00000000E+00  0.00000000E+00
  0.00000000E+00  0.00000000E+00  0.00000000E+00
  0.00000000E+00  0.00000000E+00  0.00000000E+00
  0.00000000E+00  0.00000000E+00  0.00000000E+00
  0.00000000E+00  0.00000000E+00  0.00000000E+00
  0.00000000E+00  0.00000000E+00  0.00000000E+00
  0.00000000E+00  0.00000000E+00  0.00000000E+00
  0.00000000E+00  0.00000000E+00  0.00000000E+00
  0.00000000E+00  0.00000000E+00  0.00000000E+00
  0.00000000E+00  0.00000000E+00  0.00000000E+00
  0.00000000E+00  0.00000000E+00  0.00000000E+00
  0.00000000E+00  0.00000000E+00  0.00000000E+00
  0.00000000E+00  0.00000000E+00  0.00000000E+00
  0.00000000E+00  0.00000000E+00  0.00000000E+00
  0.00000000E+00  0.00000000E+00  0.00000000E+00
  0.00000000E+00  0.00000000E+00  0.00000000E+00
  0.00000000E+00  0.00000000E+00  0.00000000E+00
  0.00000000E+00  0.00000000E+00  0.00000000E+00
  0.00000000E+00  0.00000000E+00  0.00000000E+00
  0.00000000E+00  0.00000000E+00  0.00000000E+00
  0.00000000E+00  0.00000000E+00  0.00000000E+00
  0.00000000E+00  0.00000000E+00  0.00000000E+00
  0.00000000E+00  0.00000000E+00  0.00000000E+00
  0.00000000E+00  0.00000000E+00  0.00000000E+00
  0.00000000E+00  0.00000000E+00  0.00000000E+00
  0.00000000E+00  0.00000000E+00  0.00000000E+00
  0.00000000E+00  0.00000000E+00  0.00000000E+00
  0.00000000E+00  0.00000000E+00  0.00000000E+00
  0.00000000E+00  0.00000000E+00  0.00000000E+00
  0.00000000E+00  0.00000000E+00  0.00000000E+00
  0.00000000E+00  0.00000000E+00  0.00000000E+00
  0.00000000E+00  0.00000000E+00  0.00000000E+00
  0.00000000E+00  0.00000000E+00  0.00000000E+00
  0.00000000E+00  0.00000000E+00  0.00000000E+00
  0.00000000E+00  0.00000000E+00  0.00000000E+00
  0.00000000E+00  0.00000000E+00  0.00000000E+00
  0.00000000E+00  0.00000000E+00  0.00000000E+00
  0.00000000E+00  0.00000000E+00  0.00000000E+00
  0.00000000E+00  0.00000000E+00  0.00000000E+00
  0.00000000E+00  0.00000000E+00  0.00000000E+00
  0.00000000E+00  0.00000000E+00  0.00000000E+00
  0.00000000E+00  0.00000000E+00  0.00000000E+00
  0.00000000E+00  0.00000000E+00  0.00000000E+00
  0.00000000E+00  0.00000000E+00  0.00000000E+00
  0.00000000E+00  0.00000000E+00  0.00000000E+00
  0.00000000E+00  0.00000000E+00  0.00000000E+00
  0.00000000E+00  0.00000000E+00  0.00000000E+00
  0.00000000E+00  0.00000000E+00  0.00000000E+00
  0.00000000E+00  0.00000000E+00  0.00000000E+00
  0.00000000E+00  0.00000000E+00  0.00000000E+00
  0.00000000E+00  0.00000000E+00  0.00000000E+00
  0.00000000E+00  0.00000000E+00  0.00000000E+00
  0.00000000E+00  0.00000000E+00  0.00000000E+00
  0.00000000E+00  0.00000000E+00  0.00000000E+00
  0.00000000E+00  0.00000000E+00  0.00000000E+00
  0.00000000E+00  0.00000000E+00  0.00000000E+00
  0.00000000E+00  0.00000000E+00  0.00000000E+00
  0.00000000E+00  0.00000000E+00  0.00000000E+00
  0.00000000E+00  0.00000000E+00  0.00000000E+00
  0.00000000E+00  0.00000000E+00  0.00000000E+00
  0.00000000E+00  0.00000000E+00  0.00000000E+00
  0.00000000E+00  0.00000000E+00  0.00000000E+00
  0.00000000E+00  0.00000000E+00  0.00000000E+00
  0.00000000E+00  0.00000000E+00  0.00000000E+00
  0.00000000E+00  0.00000000E+00  0.00000000E+00
  0.00000000E+00  0.00000000E+00  0.00000000E+00
  0.00000000E+00  0.00000000E+00  0.00000000E+00
  0.00000000E+00  0.00000000E+00  0.00000000E+00
  0.00000000E+00  0.00000000E+00  0.00000000E+00
  0.00000000E+00  0.00000000E+00  0.00000000E+00
  0.00000000E+00  0.00000000E+00  0.00000000E+00
  0.00000000E+00  0.00000000E+00  0.00000000E+00
  0.00000000E+00  0.00000000E+00  0.00000000E+00
  0.00000000E+00  0.00000000E+00  0.00000000E+00
  0.00000000E+00  0.00000000E+00  0.00000000E+00
  0.00000000E+00  0.00000000E+00  0.00000000E+00
  0.00000000E+00  0.00000000E+00  0.00000000E+00
  0.00000000E+00  0.00000000E+00  0.00000000E+00
  0.00000000E+00  0.00000000E+00  0.00000000E+00
  0.00000000E+00  0.00000000E+00  0.00000000E+00
  0.00000000E+00  0.00000000E+00  0.00000000E+00
  0.00000000E+00  0.00000000E+00  0.00000000E+00
  0.00000000E+00  0.00000000E+00  0.00000000E+00
  0.00000000E+00  0.00000000E+00  0.00000000E+00
  0.00000000E+00  0.00000000E+00  0.00000000E+00
  0.00000000E+00  0.00000000E+00  0.00000000E+00
  0.00000000E+00  0.00000000E+00  0.00000000E+00
  0.00000000E+00  0.00000000E+00  0.00000000E+00
  0.00000000E+00  0.00000000E+00  0.00000000E+00
  0.00000000E+00  0.00000000E+00  0.00000000E+00
  0.00000000E+00  0.00000000E+00  0.00000000E+00
  0.00000000E+00  0.00000000E+00  0.00000000E+00
  0.00000000E+00  0.00000000E+00  0.00000000E+00
  0.00000000E+00  0.00000000E+00  0.00000000E+00
  0.00000000E+00  0.00000000E+00  0.00000000E+00
  0.00000000E+00  0.00000000E+00  0.00000000E+00
  0.00000000E+00  0.00000000E+00  0.00000000E+00
  0.00000000E+00  0.00000000E+00  0.00000000E+00
  0.00000000E+00  0.00000000E+00  0.00000000E+00
  0.00000000E+00  0.00000000E+00  0.00000000E+00
  0.00000000E+00  0.00000000E+00  0.00000000E+00
  0.00000000E+00  0.00000000E+00  0.00000000E+00
  0.00000000E+00  0.00000000E+00  0.00000000E+00
  0.00000000E+00  0.00000000E+00  0.00000000E+00
  0.00000000E+00  0.00000000E+00  0.00000000E+00
  0.00000000E+00  0.00000000E+00  0.00000000E+00
  0.00000000E+00  0.00000000E+00  0.00000000E+00
  0.00000000E+00  0.00000000E+00  0.00000000E+00
  0.00000000E+00  0.00000000E+00  0.00000000E+00
  0.00000000E+00  0.00000000E+00  0.00000000E+00
  0.00000000E+00  0.00000000E+00  0.00000000E+00
  0.00000000E+00  0.00000000E+00  0.00000000E+00
  0.00000000E+00  0.00000000E+00  0.00000000E+00
  0.00000000E+00  0.00000000E+00  0.00000000E+00
  0.00000000E+00  0.00000000E+00  0.00000000E+00
  0.00000000E+00  0.00000000E+00  0.00000000E+00
  0.00000000E+00  0.00000000E+00  0.00000000E+00
  0.00000000E+00  0.00000000E+00  0.00000000E+00
  0.00000000E+00  0.00000000E+00  0.00000000E+00
  0.00000000E+00  0.00000000E+00  0.00000000E+00
  0.00000000E+00  0.00000000E+00  0.00000000E+00
  0.00000000E+00  0.00000000E+00  0.00000000E+00
  0.00000000E+00  0.00000000E+00  0.00000000E+00
  0.00000000E+00  0.00000000E+00  0.00000000E+00
  0.00000000E+00  0.00000000E+00  0.00000000E+00
  0.00000000E+00  0.00000000E+00  0.00000000E+00
  0.00000000E+00  0.00000000E+00  0.00000000E+00
  0.00000000E+00  0.00000000E+00  0.00000000E+00
  0.00000000E+00  0.00000000E+00  0.00000000E+00
  0.00000000E+00  0.00000000E+00  0.00000000E+00
  0.00000000E+00  0.00000000E+00  0.00000000E+00
  0.00000000E+00  0.00000000E+00  0.00000000E+00
  0.00000000E+00  0.00000000E+00  0.00000000E+00
  0.00000000E+00  0.00000000E+00  0.00000000E+00
  0.00000000E+00  0.00000000E+00  0.00000000E+00
  0.00000000E+00  0.00000000E+00  0.00000000E+00
  0.00000000E+00  0.00000000E+00  0.00000000E+00
  0.00000000E+00  0.00000000E+00  0.00000000E+00
  0.00000000E+00  0.00000000E+00  0.00000000E+00
  0.00000000E+00  0.00000000E+00  0.00000000E+00
  0.00000000E+00  0.00000000E+00  0.00000000E+00
  0.00000000E+00  0.00000000E+00  0.00000000E+00
  0.00000000E+00  0.00000000E+00  0.00000000E+00
  0.00000000E+00  0.00000000E+00  0.00000000E+00
  0.00000000E+00  0.00000000E+00  0.00000000E+00
  0.00000000E+00  0.00000000E+00  0.00000000E+00
  0.00000000E+00  0.00000000E+00  0.00000000E+00
  0.00000000E+00  0.00000000E+00  0.00000000E+00
  0.00000000E+00  0.00000000E+00  0.00000000E+00
  0.00000000E+00  0.00000000E+00  0.00000000E+00
  0.00000000E+00  0.00000000E+00  0.00000000E+00
  0.00000000E+00  0.00000000E+00  0.00000000E+00
  0.00000000E+00  0.00000000E+00  0.00000000E+00
  0.00000000E+00  0.00000000E+00  0.00000000E+00
  0.00000000E+00  0.00000000E+00  0.00000000E+00
  0.00000000E+00  0.00000000E+00  0.00000000E+00
  0.00000000E+00  0.00000000E+00  0.00000000E+00
  0.00000000E+00  0.00000000E+00  0.00000000E+00
  0.00000000E+00  0.00000000E+00  0.00000000E+00
  0.00000000E+00  0.00000000E+00  0.00000000E+00
  0.00000000E+00  0.00000000E+00  0.00000000E+00
  0.00000000E+00  0.00000000E+00  0.00000000E+00
  0.00000000E+00  0.00000000E+00  0.00000000E+00
  0.00000000E+00  0.00000000E+00  0.00000000E+00
  0.00000000E+00  0.00000000E+00  0.00000000E+00
