#= General/output Settings =#
SYSTEM     =  BAO-BGO
ISTART =0  #1
ICHARG = 2  #11
ENCUT    = 600.0      ! in eV
GGA     = PE

ISMEAR  = 0          ! 0 - gauss ; 1 - MP ;  -5 - tetrahedron
SIGMA   = 0.05       !0.1        ! in eV
PREC = Accurate

NPAR = 4
KPAR = 4
NCORE   = 16 

#= Write flags =#
LCHARG = .F.
LWAVE = .F.
#LVTOT = .FALSE.

#= Electronic Relxation Settings =#
NELM = 200
NELMIN = 4
EDIFF = 1E-6
EDIFFG  =-0.05     ! forces criteria - 1 meV/Ang
LREAL= Auto

# Ionic/cell relaxation:
NSW     = 1500
IBRION  = 2      ! 0 - MD
               ! 1 - RMM-DIIS method
               ! 2 - CG method
               ! 3 - damped MD method
ISIF    = 3       ! relax ions + calculate stress tensor
ISYM   = 2    0-nonsym 1-usesym 2-fastsym
POTIM = 0.5
OPT_CELL = .TRUE.


