LAMMPS (29 Sep 2021 - Update 2)
  using 2 OpenMP thread(s) per MPI task
Reading data file ...
  orthogonal box = (0.0000000 0.0000000 0.0000000) to (78.200775 78.271835 31.255982)
  4 by 8 by 2 MPI processor grid
  reading atoms ...
  16000 atoms
  read_data CPU = 0.258 seconds
Allegro is using device cpu
Allegro is using device cpu
Allegro is using device cpu
Allegro is using device cpu
Allegro is using device cpu
Allegro is using device cpu
Allegro is using device Allegro is using device cpu
Allegro is using device cpu
Allegro is using device cpu
cpu
Allegro is using device cpu
Allegro is using device cpu
Allegro is using device cpu
Allegro is using device cpu
Allegro: Loading model from ../../bec.pth
Allegro: Loading model from ../../bec.pth
Allegro: Loading model from ../../bec.pth
Allegro is using device cpu
Allegro is using device cpu
Allegro is using device cpu
Allegro is using device cpu
Allegro is using device cpu
Allegro: Loading model from ../../bec.pth
Allegro is using device cpu
Allegro: Loading model from ../../bec.pth
Allegro is using device cpu
Allegro is using device cpu
Allegro is using device cpu
Allegro is using device cpu
Allegro is using device cpu
Allegro is using device cpu
Allegro: Loading model from ../../bec.pth
Allegro is using device cpu
Allegro is using device cpu
Allegro: Loading model from ../../bec.pth
Allegro: Loading model from ../../bec.pth
Allegro is using device Allegro is using device cpu
Allegro is using device Allegro is using device cpu
Allegro is using device cpu
cpu
cpu
Allegro is using device cpu
Allegro is using device cpuAllegro is using device cpu
Allegro is using device cpu

Allegro: Loading model from ../../bec.pth
Allegro: Loading model from ../../bec.pth
Allegro is using device cpu
Allegro is using device cpu
Allegro is using device cpu
Allegro is using device cpu
Allegro is using device cpu
Allegro: Loading model from ../../bec.pth
Allegro is using device cpu
Allegro is using device cpu
Allegro is using device cpu
Allegro: Loading model from ../../bec.pth
Allegro: Loading model from ../../bec.pth
Allegro: Loading model from ../../bec.pth
Allegro: Loading model from ../../bec.pth
Allegro: Loading model from ../../bec.pth
Allegro: Loading model from ../../bec.pth
Allegro: Loading model from ../../bec.pth
Allegro: Loading model from ../../bec.pth
Allegro: Loading model from ../../bec.pth
Allegro is using device cpu
Allegro is using device cpu
Allegro: Loading model from ../../bec.pth
Allegro: Loading model from ../../bec.pth
Allegro is using device cpu
Allegro: Loading model from ../../bec.pth
Allegro is using device Allegro is using device cpu
Allegro is using device Allegro is using device cpu
Allegro is using device cpu
Allegro is using device cpu
Allegro is using device cpu
Allegro is using device Allegro is using device cpu
Allegro is using device Allegro is using device Allegro is using device cpu
cpu
Allegro: Loading model from ../../bec.pth
cpu
cpu
Allegro: Loading model from ../../bec.pth
Allegro is using device Allegro: Loading model from ../../bec.pth
Allegro: Loading model from ../../bec.pth
cpu
cpu
cpu
Allegro is using device cpu
Allegro: Loading model from ../../bec.pth
Allegro: Loading model from ../../bec.pth
Allegro: Loading model from ../../bec.pth
Allegro: Loading model from ../../bec.pth
Allegro: Loading model from ../../bec.pth
Allegro: Loading model from ../../bec.pth
Allegro is using device cpu
Allegro is using device cpu
Allegro: Loading model from ../../bec.pth
Allegro: Loading model from ../../bec.pth
Allegro: Loading model from ../../bec.pth
Allegro: Loading model from ../../bec.pth
Allegro: Loading model from ../../bec.pth
Allegro: Loading model from ../../bec.pth
Allegro: Loading model from ../../bec.pth
Allegro: Loading model from ../../bec.pth
Allegro: Loading model from ../../bec.pth
Allegro: Loading model from ../../bec.pth
Allegro: Loading model from ../../bec.pth
Allegro: Loading model from ../../bec.pth
Allegro: Loading model from ../../bec.pth
Allegro: Loading model from ../../bec.pth
Allegro: Loading model from ../../bec.pth
Allegro: Loading model from ../../bec.pth
Allegro: Loading model from ../../bec.pth
Allegro: Loading model from ../../bec.pth
Allegro: Loading model from ../../bec.pth
Allegro: Loading model from ../../bec.pth
Allegro: Loading model from ../../bec.pth
Allegro: Loading model from ../../bec.pth
Allegro: Loading model from ../../bec.pth
Allegro: Loading model from ../../bec.pth
Allegro: Loading model from ../../bec.pth
Allegro: Loading model from ../../bec.pth
Allegro: Loading model from ../../bec.pth
Allegro: Loading model from ../../bec.pth
Allegro: Loading model from ../../bec.pth
Allegro: Loading model from ../../bec.pth
Allegro: Loading model from ../../bec.pth
Allegro: Freezing TorchScript model...
Allegro: Freezing TorchScript model...
Allegro: Freezing TorchScript model...
Allegro: Freezing TorchScript model...
Allegro: Freezing TorchScript model...
Allegro: Freezing TorchScript model...
Allegro: Freezing TorchScript model...
Allegro: Freezing TorchScript model...
Allegro: Freezing TorchScript model...
Allegro: Freezing TorchScript model...
Allegro: Freezing TorchScript model...
Allegro: Freezing TorchScript model...
Allegro: Freezing TorchScript model...
Allegro: Freezing TorchScript model...
Allegro: Freezing TorchScript model...
Allegro: Freezing TorchScript model...
Allegro: Freezing TorchScript model...
Allegro: Freezing TorchScript model...
Allegro: Freezing TorchScript model...
Allegro: Freezing TorchScript model...
Allegro: Freezing TorchScript model...
Allegro: Freezing TorchScript model...
Allegro: Freezing TorchScript model...
Allegro: Freezing TorchScript model...
Allegro: Freezing TorchScript model...
Allegro: Freezing TorchScript model...
Allegro: Freezing TorchScript model...
Allegro: Freezing TorchScript model...
Allegro: Freezing TorchScript model...
Allegro: Freezing TorchScript model...
Allegro: Freezing TorchScript model...
Allegro: Freezing TorchScript model...
Allegro: Freezing TorchScript model...
Allegro: Freezing TorchScript model...
Allegro: Freezing TorchScript model...
Allegro: Freezing TorchScript model...
Allegro: Freezing TorchScript model...
Allegro: Freezing TorchScript model...
Allegro: Freezing TorchScript model...
Allegro: Freezing TorchScript model...
Allegro: Freezing TorchScript model...
Allegro: Freezing TorchScript model...
Allegro: Freezing TorchScript model...
Allegro: Freezing TorchScript model...
Allegro: Freezing TorchScript model...
Allegro: Freezing TorchScript model...
Allegro: Freezing TorchScript model...
Allegro: Freezing TorchScript model...
Allegro: Freezing TorchScript model...
Allegro: Freezing TorchScript model...
Allegro: Freezing TorchScript model...
Allegro: Freezing TorchScript model...
Allegro: Freezing TorchScript model...
Allegro: Freezing TorchScript model...
Allegro: Freezing TorchScript model...
Allegro: Freezing TorchScript model...
Allegro: Freezing TorchScript model...
Allegro: Freezing TorchScript model...
Allegro: Freezing TorchScript model...
Allegro: Freezing TorchScript model...
Allegro: Freezing TorchScript model...
Allegro: Freezing TorchScript model...
Allegro: Freezing TorchScript model...
Allegro: Freezing TorchScript model...
Type mapping:
Allegro type | Allegro name | LAMMPS type | LAMMPS name
0 | Al | 1 | Al
1 | Bi | 2 | Bi
2 | Ga | 3 | Ga
3 | O | 4 | O
Type mapping:
Allegro type | Allegro name | LAMMPS type | LAMMPS name
0 | Al | 1 | Al
1 | Bi | 2 | Bi
2 | Ga | 3 | Ga
3 | O | 4 | O
Type mapping:
Allegro type | Allegro name | LAMMPS type | LAMMPS name
0 | Al | 1 | Al
1 | Bi | 2 | Bi
2 | Ga | 3 | Ga
3Type mapping:
Allegro type | Allegro name | LAMMPS type | LAMMPS name
0 | Al | 1 | Al
1 | Bi | 2 | Bi
2 | Ga | 3 | Ga
3 | O | 4 | O
 | Type mapping:
Allegro type | Allegro name | LAMMPS type | LAMMPS name
0 | Al | 1 | Al
1 | Bi | 2 | Bi
2 | Ga | 3 | Ga
3 | O | 4 | O
O | 4 | O
Type mapping:
Allegro type | Allegro name | LAMMPS type | LAMMPS name
0 | Al | 1 | Al
1 | Bi | 2 | Bi
2 | Ga | 3 | Ga
3 | O | 4 | O
Type mapping:
Allegro type | Allegro name | LAMMPS type | LAMMPS name
0 | Al | 1 | Al
1 | Bi | 2 | Type mapping:
Allegro type | Allegro name | LAMMPS type | LAMMPS name
0 | Al | 1 | Al
1 | Bi | 2 | Bi
2 | Ga | 3 | Ga
3 | O | 4 | O
Bi
2 | Ga | 3 | Ga
3 | O | 4 | O
Type mapping:
Allegro type | Allegro name | LAMMPS type | LAMMPS name
0 | Type mapping:
Allegro type | Allegro name | LAMMPS type | LAMMPS name
0 | Al | 1 | Al
1 | Bi | 2 | Bi
2 | Ga | 3 | Ga
3 | O | 4 | O
Al | 1 | Al
1 | Bi | 2 | Type mapping:
Allegro type | Allegro name | LAMMPS type | LAMMPS name
0 | Al | 1 | Al
1 | Bi | 2 | Bi
2 | Ga | 3 | Ga
3 | O | 4 | O
Bi
2 | Ga | 3 | Ga
3 | O | 4 | O
Type mapping:
Allegro type | Allegro name | LAMMPS type | LAMMPS name
0 | Al | 1 | Al
1 | Bi | 2 | Bi
2 | Ga | 3 | Ga
3 | O | 4 | O
Type mapping:
Allegro type | Allegro name | LAMMPS type | LAMMPS name
0 | Al | 1 | Type mapping:
Allegro type | Allegro name | LAMMPS type | LAMMPS name
0 | Al | 1 | Al
1 | Bi | 2 | Bi
2 | Ga | 3 | Ga
3 | O | 4 | O
Al
1 | Bi | 2 | Type mapping:
Allegro type | Allegro name | LAMMPS type | LAMMPS name
0 | Al | 1 | Al
1 | Bi | 2 | Bi
2 | Ga | 3 | Ga
3 | O | 4 | O
Bi
2Type mapping:
Allegro type | Allegro name | LAMMPS type | LAMMPS name
0 | Al | 1 | Al
1 | Bi | 2 | Bi
2 | Ga | 3 | Ga
3 | O | 4 | O
 | Ga | 3Type mapping:
Allegro type | Allegro name | LAMMPS type | LAMMPS name
0 | Al | 1 | Al
1 | Bi | 2 | Bi
2 | Ga | 3 | Ga
3 | O | 4 | O
 | Ga
3 | O | 4Type mapping:
Allegro type | Allegro name | LAMMPS type | LAMMPS name
0 | Al | 1 | Al
1 | Bi | 2 | Bi
2 | Ga | 3 | Ga
3 | O | 4 | O
 | O
Type mapping:
Allegro type | Allegro name | LAMMPS type | LAMMPS name
0 | Al | 1 | Al
1 | Bi | 2 | Bi
2 | Ga | 3 | Ga
3 | O | 4 | O
Type mapping:
Allegro type | Allegro name | LAMMPS type | LAMMPS name
0 | Al | Type mapping:
Allegro type | Allegro name | LAMMPS type | LAMMPS name
0 | Al | 1 | Al
1 | Bi | 2 | Bi
2 | Ga | 3 | Ga
3 | O | 4 | O
1 | Al
1 | Type mapping:
Allegro type | Allegro name | LAMMPS type | LAMMPS name
0 | Al | 1 | Al
1 | Bi | 2 | Bi
2 | Ga | 3 | Ga
3 | O | 4 | O
Bi | 2 | Type mapping:
Allegro type | Allegro name | LAMMPS type | LAMMPS name
0 | Al | 1 | Al
1 | Bi | 2 | Bi
2 | Ga | 3 | Ga
3 | O | 4 | O
Bi
2 | Ga | 3 | Ga
3 | OType mapping:
Allegro type | Allegro name | LAMMPS type | LAMMPS name
0 | Al | 1 | Al
1 | Bi | 2 | Bi
2 | Ga | 3 | Ga
Type mapping:
Allegro type | Allegro name | LAMMPS type | LAMMPS name
0 | Al | 1 | Al
3 | O | 4 | O
1 | Bi | 2 | Bi
2 | Ga | 3 | Ga
3 | O | 4 | O
 | 4 | O
Type mapping:
Allegro type | Allegro name | LAMMPS type | LAMMPS name
0 | Al | 1 | AlType mapping:
Allegro type | Allegro name | LAMMPS type | LAMMPS name
0 | Al | 1 | Al
1 | Bi | 2 | Bi
2 | Ga | 3 | Ga
3 | O | 4 | O

1 | Bi | 2 | Bi
2 | Ga | 3 | Ga
3 | O | 4 | O
Type mapping:
Allegro type | Allegro name | LAMMPS type | LAMMPS name
0 | Al | 1 | Al
1 | Bi | 2 | Bi
2 | Ga | 3 | Ga
3 | O | 4 | O
Type mapping:
Allegro type | Allegro name | LAMMPS type | LAMMPS name
0 | Al | 1 | Al
1 | Bi | 2 | Bi
2 | Ga | 3 | GaType mapping:
Allegro type | Allegro name | LAMMPS type | LAMMPS name
0 | Al | 1 | Al
1 | Bi | 2 | Bi
2 | Ga | 3 | Ga
3 | O | 4 | O

Type mapping:
Allegro type | Allegro name | LAMMPS type | LAMMPS name
0 | Al | 1 | Al
1 | Bi | 2 | Bi
2 | Ga | 3 | Ga
3 | O | 4 | O
3Type mapping:
Allegro type | Allegro name | LAMMPS type | LAMMPS name
0 | Al | 1 | Al
1 | Bi | 2 | Bi
2 | Ga | 3 | Ga
3 | O | 4 | O
Type mapping:
Allegro type | Allegro name | LAMMPS type | LAMMPS name
0 | Al | 1 | Al
1 | Bi | 2 | Bi
2 | Ga | 3 | Ga
3 | O | 4 | O
Type mapping:
Allegro type | Allegro name | LAMMPS type | LAMMPS name
0 | Al | 1 | Al
1 | Bi | 2 | Bi
2 | Ga | 3 | Ga
3 | O | 4 | O
Type mapping:
Allegro type | Allegro name | LAMMPS type | LAMMPS name
0 | Al | 1 | Al
1 | Bi | 2 | Bi
2 | Ga | 3 | Ga
3 | O | 4 | O
Type mapping:
Allegro type | Allegro name | LAMMPS type | LAMMPS name
0 | Al | 1 | Al
1 | Bi | 2 | Bi
2 | Ga | 3 | Ga
3 | O | 4 | O
Type mapping:
Allegro type | Allegro name | LAMMPS type | LAMMPS name
0 | Al | 1 | Al
1 | Bi | 2 | Bi
2 | Ga | 3 | Ga
3 | O | 4 | O
 | O | 4 | O
Type mapping:
Allegro type | Allegro name | LAMMPS type | LAMMPS name
0 | Al | 1 | Al
1 | Bi | 2 | Bi
2 | Ga | 3 | Ga
3 | O | 4 | O
Type mapping:
Allegro type | Allegro name | LAMMPS type | LAMMPS name
0 | Al | 1 | Al
1 | Bi | 2 | Bi
2 | Ga | 3 | Ga
3 | O | 4 | O
Type mapping:
Allegro type | Allegro name | LAMMPS type | LAMMPS name
0 | Al | 1 | Al
1 | Bi | 2 | Bi
2 | Ga | 3 | Ga
3 | O | 4 | O
Type mapping:
Allegro type | Allegro name | LAMMPS type | LAMMPS name
0 | Al | 1 | Al
1 | Bi | 2 | Bi
2 | Ga | 3 | Ga
3 | O | 4 | O
Type mapping:
Allegro type | Allegro name | LAMMPS type | LAMMPS name
0 | Al | 1 | Al
1 | Bi | 2 | Bi
2 | Ga | 3 | Ga
3 | O | 4 | O
Type mapping:
Allegro type | Allegro name | LAMMPS type | LAMMPS name
0 | Al | 1 | Al
1 | Bi | 2 | Bi
2 | Ga | 3 | Ga
3 | O | 4 | O
Type mapping:
Allegro type | Allegro name | LAMMPS type | LAMMPS name
0 | Al | 1 | Al
1 | Bi | 2 | Bi
2 | Ga | 3 | Ga
3 | O | 4 | O
Type mapping:
Allegro type | Allegro name | LAMMPS type | LAMMPS name
0 | Al | 1 | Al
1 | Bi | 2 | Bi
2 | Ga | 3 | Ga
3 | O | 4 | O
Type mapping:
Allegro type | Allegro name | LAMMPS type | LAMMPS name
0 | Al | 1 | Al
1 | Bi | 2 | Bi
2 | Ga | 3 | Ga
3 | O | 4 | O
Type mapping:
Allegro type | Allegro name | LAMMPS type | LAMMPS name
0 | Al | 1 | Al
1 | Bi | 2 | Bi
2 | Ga | 3 | Ga
3 | O | 4 | O
Type mapping:
Allegro type | Allegro name | LAMMPS type | LAMMPS name
0 | Al | 1 | Al
1 | Bi | 2 | Bi
2 | Ga | 3 | Ga
3 | O | 4 | O
Type mapping:
Allegro type | Allegro name | LAMMPS type | LAMMPS name
0 | Al | 1 | Al
1 | Bi | 2 | Bi
2 | Ga | 3 | Ga
3 | O | 4 | O
Type mapping:
Allegro type | Allegro name | LAMMPS type | LAMMPS name
0 | Al | 1 | Al
1 | Bi | 2 | Bi
2 | Ga | 3 | Ga
3 | O | 4 | O
Type mapping:
Allegro type | Allegro name | LAMMPS type | LAMMPS name
0 | Al | 1 | Al
1 | Bi | 2 | Bi
2 | Ga | 3 | Ga
3 | O | 4 | O
Type mapping:
Allegro type | Allegro name | LAMMPS type | LAMMPS name
0 | Al | 1 | Al
1 | Bi | 2 | Bi
2 | Ga | 3 | Ga
3 | O | 4 | O
Type mapping:
Allegro type | Allegro name | LAMMPS type | LAMMPS name
0 | Al | 1 | Al
1 | Bi | 2 | Bi
2 | Ga | 3 | Ga
3 | O | 4 | O
Type mapping:
Allegro type | Allegro name | LAMMPS type | LAMMPS name
0 | Al | 1 | Al
1 | Bi | 2 | Bi
2 | Ga | 3 | Ga
3 | O | 4 | O
Type mapping:
Allegro type | Allegro name | LAMMPS type | LAMMPS name
0 | Al | 1 | Al
1 | Bi | 2 | Bi
2 | Ga | 3 | Ga
3 | O | 4 | O
Type mapping:
Allegro type | Allegro name | LAMMPS type | LAMMPS name
0 | Al | 1 | Al
1 | Bi | 2 | Bi
2 | Ga | 3 | Ga
3 | O | 4 | O
Type mapping:
Allegro type | Allegro name | LAMMPS type | LAMMPS name
0 | Al | 1 | Al
1 | Bi | 2 | Bi
2 | Ga | 3 | Ga
3 | O | 4 | O
Type mapping:
Allegro type | Allegro name | LAMMPS type | LAMMPS name
0 | Al | 1 | Al
1 | Bi | 2 | Bi
2 | Ga | 3 | Ga
3 | O | 4 | O
Type mapping:
Allegro type | Allegro name | LAMMPS type | LAMMPS name
0 | Al | 1 | Al
1 | Bi | 2 | Bi
2 | Ga | 3 | Ga
3 | O | 4 | O
Type mapping:
Allegro type | Allegro name | LAMMPS type | LAMMPS name
0 | Al | 1 | Al
1 | Bi | 2 | Bi
2 | Ga | 3 | Ga
3 | O | 4 | O
Type mapping:
Allegro type | Allegro name | LAMMPS type | LAMMPS name
0 | Al | 1 | Al
1 | BiType mapping:
Allegro type | Allegro name | LAMMPS type | LAMMPS name
0 | Al | 1 | Al
1 | Bi | 2 | Bi
2 | Ga | 3 | Ga
3 | O | 4 | O
 | 2 | Bi
2 | Ga | 3 | Ga
3 | O | 4 | OType mapping:
Allegro type | Allegro name | LAMMPS type | LAMMPS name
0 | Al | 1 | Al
1 | Bi | 2 | Bi
2 | Ga | 3 | Ga
3 | O | 4 | O

Type mapping:
Allegro type | Allegro name | LAMMPS type | LAMMPS name
0 | Al | 1 | Al
1 | Bi | 2 | Bi
2 | Ga | 3 | Ga
3 | O | 4 | O
16000 atoms in group efield_group
Neighbor list info ...
  update every 1 steps, delay 0 steps, check yes
  max neighbors/atom: 2000, page size: 100000
  master list distance cutoff = 6.05
  ghost atom cutoff = 6.05
  binsize = 3.025, bins = 26 26 11
  1 neighbor lists, perpetual/occasional/extra = 1 0 0
  (1) pair allegro, perpetual
      attributes: full, newton on, ghost
      pair build: full/bin/ghost
      stencil: full/ghost/bin/3d
      bin: standard
Setting up Verlet run ...
  Unit style    : metal
  Current step  : 0
  Time step     : 0.002
Per MPI rank memory allocation (min/avg/max) = 7.535 | 7.593 | 7.928 Mbytes
Step Temp KinEng PotEng TotEng 
       0            1    2.0680331   -99359.481   -99357.413 
      10   0.51973278    1.0748246    -99358.48   -99357.405 
      20   0.68290821    1.4122768   -99358.798   -99357.386 
      30   0.71001621     1.468337   -99358.826   -99357.358 
      40   0.64841292    1.3409393   -99358.674   -99357.333 
      50   0.71909937    1.4871213    -99358.79   -99357.303 
      60   0.68085052    1.4080214   -99358.675   -99357.267 
      70   0.73154308    1.5128553   -99358.744   -99357.231 
      80   0.76522613    1.5825129   -99358.775   -99357.192 
      90   0.84082311      1.73885   -99358.891   -99357.153 
     100   0.81532721    1.6861236     -99358.8   -99357.114 
     110   0.83238796    1.7214058   -99358.796   -99357.074 
     120   0.82291099    1.7018071   -99358.736   -99357.034 
     130   0.80657234    1.6680183   -99358.664   -99356.996 
     140   0.81591615    1.6873416   -99358.643   -99356.955 
     150   0.80894909    1.6729335   -99358.588   -99356.915 
     160   0.83452839    1.7258323     -99358.6   -99356.874 
     170   0.82272551    1.7014236   -99358.534   -99356.833 
     180   0.83827868     1.733588   -99358.525   -99356.791 
     190   0.84284595    1.7430333   -99358.493    -99356.75 
     200   0.87017423    1.7995491   -99358.508   -99356.708 
     210    0.8923036    1.8453133   -99358.512   -99356.667 
     220   0.91543369    1.8931471   -99358.519   -99356.626 
     230    0.9291664    1.9215468   -99358.509   -99356.587 
     240   0.95408488    1.9730791   -99358.523    -99356.55 
     250   0.96705294    1.9998974   -99358.516   -99356.516 
     260   0.97968342    2.0260177    -99358.51   -99356.484 
     270   0.96015272    1.9856276    -99358.44   -99356.454 
     280   0.96589507    1.9975029   -99358.422   -99356.425 
     290   0.96841126    2.0027065   -99358.398   -99356.395 
     300   0.96412329    1.9938388    -99358.36   -99356.366 
     310   0.97219342    2.0105281   -99358.347   -99356.337 
     320    0.9810332    2.0288091   -99358.336   -99356.308 
     330   0.98368879    2.0343009   -99358.315    -99356.28 
     340    0.9959786    2.0597167   -99358.314   -99356.255 
     350   0.98361804    2.0341546   -99358.264    -99356.23 
     360   0.99390722     2.055433   -99358.262   -99356.207 
     370   0.99066626    2.0487306   -99358.233   -99356.184 
     380    1.0181406    2.1055483   -99358.269   -99356.163 
     390    1.0247079    2.1191299   -99358.265   -99356.145 
     400    1.0530952    2.1778358   -99358.311   -99356.133 
     410    1.0486342    2.1686101   -99358.298   -99356.129 
     420      1.05117    2.1738544   -99358.308   -99356.134 
     430    1.0413279    2.1535006   -99358.301   -99356.148 
     440    1.0323514    2.1349368   -99358.302   -99356.167 
     450   0.99421692    2.0560735   -99358.245   -99356.189 
     460   0.98793773    2.0430879   -99358.252   -99356.209 
     470   0.98318756    2.0332644   -99358.258   -99356.225 
     480   0.98706514    2.0412833   -99358.279   -99356.238 
     490   0.95965211    1.9845923   -99358.232   -99356.247 
     500   0.95556783    1.9761459   -99358.227   -99356.251 
     510   0.96106188    1.9875077   -99358.235   -99356.248 
     520   0.95736381      1.97986   -99358.218   -99356.238 
     530   0.97108759    2.0082412    -99358.23   -99356.222 
     540   0.96971269    2.0053979   -99358.208   -99356.203 
     550   0.98539593    2.0378314   -99358.218    -99356.18 
     560   0.99953677    2.0670751   -99358.225   -99356.158 
     570    1.0194391    2.1082337   -99358.245   -99356.137 
     580    1.0335229    2.1373595   -99358.258   -99356.121 
     590    1.0277846    2.1254925   -99358.236    -99356.11 
     600    1.0205876     2.110609   -99358.215   -99356.104 
     610    1.0401832    2.1511333   -99358.254   -99356.103 
     620    1.0285726    2.1271222   -99358.235   -99356.107 
     630    1.0100965     2.088913   -99358.206   -99356.117 
     640    1.0055252    2.0794594   -99358.208   -99356.128 
     650   0.99446363    2.0565837   -99358.196   -99356.139 
     660   0.98611339    2.0393151   -99358.189   -99356.149 
     670   0.98617237    2.0394371   -99358.197   -99356.157 
     680   0.96884478     2.003603   -99358.166   -99356.162 
     690   0.97785021    2.0222266   -99358.185   -99356.163 
     700   0.98725609    2.0416782   -99358.202    -99356.16 
     710    1.0107893    2.0903456   -99358.245   -99356.155 
     720    1.0036285     2.075537   -99358.226   -99356.151 
     730    1.0160666    2.1012593   -99358.249   -99356.148 
     740    1.0380609    2.1467443   -99358.295   -99356.148 
     750    1.0315109    2.1331987   -99358.287   -99356.154 
     760    1.0351543    2.1407333   -99358.306   -99356.165 
     770    1.0250495    2.1198362   -99358.302   -99356.182 
     780    1.0257379    2.1212599   -99358.324   -99356.202 
     790    1.0102697    2.0892712   -99358.313   -99356.224 
     800    1.0046795    2.0777103   -99358.323   -99356.245 
     810   0.97604187    2.0184869   -99358.283   -99356.264 
     820   0.97381458    2.0138807   -99358.292   -99356.278 
     830   0.98014308    2.0269683   -99358.315   -99356.288 
     840   0.97907507    2.0247596   -99358.319   -99356.294 
     850   0.97485723     2.016037   -99358.313   -99356.297 
     860   0.98236536     2.031564   -99358.328   -99356.296 
     870   0.98378435    2.0344986   -99358.327   -99356.292 
     880   0.98397875    2.0349006    -99358.32   -99356.285 
     890   0.98576893    2.0386027   -99358.315   -99356.277 
     900   0.99642684    2.0606436   -99358.326   -99356.265 
     910    1.0069474    2.0824005   -99358.336   -99356.254 
     920     1.018007    2.1052721   -99358.348   -99356.243 
     930    1.0331271     2.136541   -99358.373   -99356.236 
     940    1.0305928       2.1313   -99358.366   -99356.235 
     950    1.0258047     2.121398   -99358.359   -99356.238 
     960    1.0213662     2.112219   -99358.358   -99356.246 
     970    1.0120044    2.0928586    -99358.35   -99356.257 
     980    0.9968858    2.0615928   -99358.331    -99356.27 
     990   0.97549103    2.0173477   -99358.298   -99356.281 
    1000   0.97178314    2.0096797   -99358.298   -99356.288 
Loop time of 1348.1 on 128 procs for 1000 steps with 16000 atoms

Performance: 0.128 ns/day, 187.236 hours/ns, 0.742 timesteps/s
90.6% CPU use with 64 MPI tasks x 2 OpenMP threads

MPI task timing breakdown:
Section |  min time  |  avg time  |  max time  |%varavg| %total
---------------------------------------------------------------
Pair    | 1343.4     | 1344.8     | 1346.3     |   2.1 | 99.75
Neigh   | 0.34222    | 0.36165    | 0.38113    |   1.5 |  0.03
Comm    | 0.60781    | 2.0997     | 3.5501     |  52.4 |  0.16
Output  | 0.0031978  | 0.0041431  | 0.052387   |   9.4 |  0.00
Modify  | 0.50971    | 0.8464     | 1.2834     |  25.9 |  0.06
Other   |            | 0.01919    |            |       |  0.00

Nlocal:        250.000 ave         277 max         224 min
Histogram: 3 3 5 17 3 5 18 5 3 2
Nghost:        1333.72 ave        1408 max        1263 min
Histogram: 6 8 8 8 1 4 11 7 8 3
Neighs:         0.00000 ave           0 max           0 min
Histogram: 64 0 0 0 0 0 0 0 0 0
FullNghs:      19626.6 ave       22374 max       17145 min
Histogram: 4 6 6 9 9 12 2 10 4 2

Total # of neighbors = 1256100
Ave neighs/atom = 78.506250
Neighbor list builds = 101
Dangerous builds = 0
WARNING: Detected non-ASCII characters in input. Will try to continue by replacing with ASCII equivalents where known. (src/input.cpp:431)
======== ˜¶®µ1: 0 †’ +E_max ========
Setting up Verlet run ...
  Unit style    : metal
  Current step  : 1000
  Time step     : 0.002
Per MPI rank memory allocation (min/avg/max) = 8.546 | 8.610 | 8.938 Mbytes
Step Temp KinEng PotEng TotEng 
    1000   0.97178314    2.0096797   -99358.298   -99356.288 
    1010   0.97670188    2.0198518   -99358.306   -99356.286 
    1020   0.98193579    2.0306757    -99358.31    -99356.28 
    1030   0.97185286    2.0098239   -99358.281   -99356.271 
    1040   0.98368697    2.0342972   -99358.295   -99356.261 
    1050   0.98767568     2.042546   -99358.295   -99356.252 
    1060   0.99229941     2.052108   -99358.298   -99356.246 
    1070   0.99659994    2.0610016   -99358.302   -99356.241 
    1080   0.99126269     2.049964   -99358.286   -99356.236 
    1090   0.99196386    2.0514141   -99358.282   -99356.231 
    1100   0.99685377    2.0615266   -99358.286   -99356.225 
    1110    1.0014141    2.0709575    -99358.29   -99356.219 
    1120   0.99941671    2.0668268   -99358.281   -99356.214 
    1130    0.9900807    2.0475196   -99358.257   -99356.209 
    1140   0.99806514    2.0640317   -99358.268   -99356.204 
    1150   0.98860248    2.0444626   -99358.242   -99356.198 
    1160   0.98692893    2.0410017   -99358.232   -99356.191 
    1170   0.98805285     2.043326   -99358.226   -99356.183 
    1180   0.96686246    1.9995035   -99358.173   -99356.174 
    1190   0.98413558    2.0352249   -99358.199   -99356.163 
    1200   0.97814325    2.0228326   -99358.176   -99356.153 
    1210   0.99093716    2.0492908   -99358.194   -99356.144 
    1220   0.99157151    2.0506027   -99358.186   -99356.136 
    1230    1.0043559    2.0770412   -99358.205   -99356.128 
    1240    1.0065338    2.0815452   -99358.204   -99356.123 
    1250    1.0176137    2.1044587   -99358.223   -99356.119 
    1260    1.0242323    2.1181463   -99358.237   -99356.118 
    1270    1.0175184    2.1042617   -99358.225   -99356.121 
    1280    1.0159558    2.1010302   -99358.228   -99356.127 
    1290    1.0202204    2.1098494   -99358.246   -99356.136 
    1300    1.0223909    2.1143382   -99358.262   -99356.147 
    1310    1.0116291    2.0920824    -99358.25   -99356.158 
    1320   0.99416778    2.0559718   -99358.222   -99356.166 
    1330   0.99374434    2.0550961   -99358.227   -99356.172 
    1340   0.98784512    2.0428964   -99358.219   -99356.176 
    1350   0.98668696    2.0405012   -99358.218   -99356.177 
    1360   0.98802959    2.0432778    -99358.22   -99356.177 
    1370   0.99658007    2.0609605   -99358.236   -99356.175 
    1380   0.99955986    2.0671228   -99358.239   -99356.172 
    1390    1.0073635     2.083261   -99358.252   -99356.168 
    1400     1.013066    2.0950541   -99358.261   -99356.166 
    1410    1.0087732    2.0861763   -99358.252   -99356.166 
    1420    1.0332285    2.1367506   -99358.304   -99356.167 
    1430    1.0220665    2.1136673   -99358.288   -99356.174 
    1440    1.0284309    2.1268291   -99358.312   -99356.186 
    1450    1.0309666    2.1320731    -99358.33   -99356.198 
    1460    1.0235326    2.1166992   -99358.326    -99356.21 
    1470    1.0375408    2.1456686   -99358.365    -99356.22 
    1480    1.0209841    2.1114288   -99358.342   -99356.231 
    1490    1.0022501    2.0726864   -99358.313   -99356.241 
    1500    1.0087914     2.086214   -99358.336    -99356.25 
    1510   0.99223947     2.051984   -99358.309   -99356.257 
    1520   0.99045501    2.0482937   -99358.309   -99356.261 
    1530   0.98220164    2.0312255   -99358.294   -99356.263 
    1540   0.98248828    2.0318182   -99358.296   -99356.264 
    1550    0.9859662    2.0390107   -99358.302   -99356.263 
    1560   0.99219514    2.0518923    -99358.31   -99356.258 
    1570   0.99885847    2.0656723   -99358.317   -99356.251 
    1580    0.9920758    2.0516456   -99358.295   -99356.243 
    1590    1.0103492    2.0894354   -99358.326   -99356.237 
    1600     1.006981    2.0824699   -99358.315   -99356.233 
    1610    1.0077443    2.0840486   -99358.314    -99356.23 
    1620   0.99765902    2.0631918    -99358.29   -99356.227 
    1630   0.99928668    2.0665579    -99358.29   -99356.223 
    1640    1.0032079     2.074667   -99358.295    -99356.22 
    1650   0.98396361    2.0348693   -99358.253   -99356.218 
    1660   0.99451946    2.0566991    -99358.27   -99356.213 
    1670   0.99585619    2.0594635   -99358.267   -99356.207 
    1680   0.99006142    2.0474797   -99358.248   -99356.201 
    1690   0.98690309    2.0409482   -99358.235   -99356.194 
    1700    0.9941401    2.0559146   -99358.242   -99356.186 
    1710   0.99276503    2.0530709   -99358.232   -99356.179 
    1720   0.99546884    2.0586625   -99358.231   -99356.172 
    1730   0.99749484    2.0628523   -99358.229   -99356.166 
    1740   0.99802243    2.0639434   -99358.224    -99356.16 
    1750    1.0072641    2.0830554   -99358.237   -99356.154 
    1760     1.007024    2.0825589   -99358.231   -99356.149 
    1770    1.0046887    2.0777295   -99358.224   -99356.146 
    1780    1.0022438    2.0726733   -99358.218   -99356.145 
    1790    1.0064201      2.08131   -99358.225   -99356.144 
    1800    0.9984289     2.064784   -99358.209   -99356.144 
    1810   0.99077819     2.048962   -99358.193   -99356.144 
    1820   0.99314477    2.0538562   -99358.197   -99356.143 
    1830   0.99327592    2.0541274   -99358.193   -99356.139 
    1840   0.99055746    2.0485056   -99358.182   -99356.134 
    1850   0.98789329     2.042996   -99358.171   -99356.128 
    1860   0.98138876    2.0295444    -99358.15    -99356.12 
    1870   0.99092341    2.0492624    -99358.16    -99356.11 
    1880   0.99278487    2.0531119   -99358.153     -99356.1 
    1890    1.0030486    2.0743376   -99358.167   -99356.093 
    1900    1.0030143    2.0742667   -99358.163   -99356.088 
    1910    1.0193541    2.1080581   -99358.194   -99356.086 
    1920    1.0252077    2.1201634   -99358.207   -99356.087 
    1930      1.02664    2.1231255   -99358.215   -99356.092 
    1940    1.0314949    2.1331656   -99358.235   -99356.102 
    1950    1.0262445    2.1223075   -99358.238   -99356.116 
    1960    1.0222183    2.1139813   -99358.241   -99356.128 
    1970    1.0253271    2.1204104   -99358.256   -99356.135 
    1980    1.0205386    2.1105076   -99358.254   -99356.143 
    1990    1.0116223    2.0920685   -99358.244   -99356.152 
    2000    1.0084619    2.0855325   -99358.246    -99356.16 
    2010    1.0172422    2.1036905   -99358.272   -99356.168 
    2020    1.0067041    2.0818974    -99358.26   -99356.178 
    2030   0.99810535    2.0641149   -99358.252   -99356.188 
    2040   0.99188519    2.0512514   -99358.249   -99356.198 
    2050    0.9965289    2.0608547   -99358.265   -99356.204 
    2060    0.9978654    2.0636186    -99358.27   -99356.206 
    2070   0.99444312    2.0565412   -99358.264   -99356.207 
    2080    0.9940353    2.0556979   -99358.265   -99356.209 
    2090   0.99697128    2.0617696   -99358.273   -99356.211 
    2100    1.0054844     2.079375   -99358.292   -99356.212 
    2110    1.0096424    2.0879738     -99358.3   -99356.212 
    2120    1.0024656    2.0731319   -99358.287   -99356.214 
    2130   0.99951153    2.0670229   -99358.286   -99356.219 
    2140    1.0054427    2.0792887   -99358.307   -99356.227 
    2150   0.99815726    2.0642222   -99358.298   -99356.233 
    2160   0.99957331    2.0671507   -99358.304   -99356.237 
    2170   0.98930608    2.0459177   -99358.286    -99356.24 
    2180     0.988565    2.0443851   -99358.286   -99356.241 
    2190   0.99166324    2.0507924   -99358.292   -99356.241 
    2200   0.99533364    2.0583829   -99358.297   -99356.238 
    2210   0.99178378    2.0510417   -99358.286   -99356.235 
    2220   0.98857852    2.0444131   -99358.275    -99356.23 
    2230   0.98831109      2.04386   -99358.269   -99356.226 
    2240    0.9981418    2.0641902   -99358.284   -99356.219 
    2250   0.99031135    2.0479966    -99358.26   -99356.212 
    2260   0.98432342    2.0356134   -99358.238   -99356.203 
    2270   0.98809269    2.0434083   -99358.236   -99356.193 
    2280   0.99871219    2.0653698   -99358.252   -99356.186 
    2290    1.0088006     2.086233   -99358.268   -99356.182 
    2300     1.001591    2.0713234   -99358.251    -99356.18 
    2310    1.0043667    2.0770636   -99358.256   -99356.178 
    2320   0.99872909    2.0654048   -99358.243   -99356.177 
    2330   0.99500845    2.0577104   -99358.232   -99356.174 
    2340   0.99722316    2.0622905   -99358.232    -99356.17 
    2350   0.98856612    2.0443874    -99358.21   -99356.165 
    2360   0.99108084    2.0495879    -99358.21    -99356.16 
    2370   0.98593181    2.0389396   -99358.193   -99356.154 
    2380   0.98669036    2.0405083   -99358.186   -99356.145 
    2390    0.9953905    2.0585005   -99358.194   -99356.136 
    2400   0.98609797    2.0392832   -99358.166   -99356.126 
    2410   0.99137305    2.0501922   -99358.168   -99356.118 
    2420   0.98876573    2.0448002   -99358.157   -99356.113 
    2430   0.99670977    2.0612287   -99358.169   -99356.108 
    2440   0.99993992    2.0679088    -99358.17   -99356.102 
    2450    1.0171381    2.1034753   -99358.201   -99356.097 
    2460    1.0082185    2.0850292   -99358.177   -99356.092 
    2470    1.0186974    2.1066998   -99358.197   -99356.091 
    2480    1.0119246    2.0926935   -99358.187   -99356.095 
    2490    1.0116218    2.0920673   -99358.193   -99356.101 
    2500    1.0018066    2.0717692   -99358.178   -99356.106 
    2510    1.0014702    2.0710735    -99358.18   -99356.109 
    2520    1.0008641      2.06982   -99358.183   -99356.113 
    2530   0.98697347    2.0410938   -99358.161    -99356.12 
    2540   0.99614213    2.0600549   -99358.184   -99356.124 
    2550   0.99969607    2.0674045   -99358.189   -99356.122 
    2560   0.99611646    2.0600018   -99358.177   -99356.117 
    2570   0.99282462    2.0531941   -99358.169   -99356.116 
    2580   0.99875168    2.0654515   -99358.181   -99356.116 
    2590   0.99212026    2.0517375   -99358.167   -99356.115 
    2600    1.0093216    2.0873104   -99358.197    -99356.11 
    2610    1.0140431    2.0970746   -99358.202   -99356.105 
    2620    1.0067905    2.0820761   -99358.188   -99356.106 
    2630    1.0075624    2.0836723   -99358.193   -99356.109 
    2640    1.0198404    2.1090636   -99358.222   -99356.113 
    2650    1.0112361    2.0912697   -99358.212   -99356.121 
    2660    1.0140109     2.097008    -99358.23   -99356.133 
    2670    1.0169357    2.1030566   -99358.248   -99356.144 
    2680    1.0085411    2.0856963    -99358.24   -99356.154 
    2690    1.0057376    2.0798986   -99358.239   -99356.159 
    2700    1.0008275    2.0697443   -99358.231   -99356.161 
    2710   0.99880825    2.0655685   -99358.231   -99356.165 
    2720     1.002762    2.0737449   -99358.241   -99356.167 
    2730   0.99595284    2.0596634   -99358.226   -99356.166 
    2740    1.0020895    2.0723543   -99358.238   -99356.165 
    2750   0.99754016     2.062946   -99358.228   -99356.165 
    2760    1.0023315    2.0728546    -99358.24   -99356.167 
    2770    1.0015685    2.0712767   -99358.242   -99356.171 
    2780    1.0025832    2.0733752   -99358.246   -99356.173 
    2790   0.99491864    2.0575246   -99358.233   -99356.175 
    2800    1.0002099    2.0684671   -99358.247   -99356.178 
    2810   0.99235212     2.052217   -99358.232    -99356.18 
    2820   0.99726524    2.0623775   -99358.244   -99356.182 
    2830   0.99318366    2.0539366   -99358.236   -99356.182 
    2840   0.98829693    2.0438307   -99358.225   -99356.181 
    2850   0.98119604    2.0291458   -99358.208   -99356.179 
    2860   0.98779646    2.0427957   -99358.217   -99356.174 
    2870   0.97522891    2.0168056   -99358.179   -99356.162 
    2880   0.98566241    2.0383825   -99358.187   -99356.149 
    2890    0.9870229     2.041196    -99358.18   -99356.139 
    2900   0.98246689     2.031774   -99358.164   -99356.132 
    2910   0.98513366     2.037289   -99358.165   -99356.127 
    2920   0.99503785    2.0577712   -99358.177    -99356.12 
    2930   0.99620165    2.0601779   -99358.171    -99356.11 
    2940   0.99571504    2.0591716   -99358.164   -99356.105 
    2950   0.99915817    2.0662921   -99358.168   -99356.102 
    2960   0.99180268    2.0510807   -99358.147   -99356.096 
    2970    1.0015539    2.0712466    -99358.16   -99356.089 
    2980    1.0002496    2.0685492   -99358.148   -99356.079 
    2990   0.99976408    2.0675452   -99358.138    -99356.07 
    3000   0.99283059    2.0532065   -99358.118   -99356.065 
    3010   0.99756205    2.0629913   -99358.123    -99356.06 
    3020    1.0017735    2.0717007   -99358.123   -99356.052 
    3030   0.98972011    2.0467739   -99358.092   -99356.045 
    3040    1.0063858    2.0812392   -99358.123   -99356.042 
    3050   0.98756705    2.0423213   -99358.084   -99356.042 
    3060   0.99738462    2.0626244   -99358.102   -99356.039 
    3070    0.9986268    2.0651932   -99358.098   -99356.033 
    3080   0.99031761    2.0480096   -99358.072   -99356.024 
    3090    1.0083986    2.0854017   -99358.103   -99356.018 
    3100    1.0081668    2.0849222   -99358.099   -99356.014 
    3110    1.0188592    2.1070346    -99358.12   -99356.013 
    3120    1.0226985    2.1149743   -99358.127   -99356.012 
    3130    1.0185102    2.1063127   -99358.119   -99356.013 
    3140    1.0084971    2.0856052   -99358.102   -99356.016 
    3150     1.009856    2.0884155   -99358.106   -99356.018 
    3160    1.0000005     2.068034   -99358.085   -99356.017 
    3170   0.99888286    2.0657228   -99358.084   -99356.019 
    3180    1.0027562     2.073733   -99358.101   -99356.027 
    3190    1.0007545    2.0695933   -99358.109    -99356.04 
    3200    1.0073964    2.0833291    -99358.13   -99356.047 
    3210    1.0107582    2.0902814   -99358.136   -99356.046 
    3220    1.0046935    2.0777394   -99358.125   -99356.047 
    3230    1.0028239     2.073873   -99358.129   -99356.055 
    3240    1.0099421    2.0885936   -99358.155   -99356.066 
    3250    1.0056595    2.0797371   -99358.152   -99356.073 
    3260    1.0023239     2.072839   -99358.145   -99356.072 
    3270    1.0170828    2.1033608   -99358.175   -99356.072 
    3280    1.0074266    2.0833915   -99358.161   -99356.077 
    3290    1.0165359    2.1022298   -99358.186   -99356.083 
    3300    1.0056221    2.0796597   -99358.166   -99356.086 
    3310    1.0093005    2.0872668   -99358.177   -99356.089 
    3320    1.0129535    2.0948212   -99358.191   -99356.096 
    3330    1.0032551    2.0747647   -99358.181   -99356.106 
    3340   0.99791561    2.0637225   -99358.177   -99356.113 
    3350   0.99808524    2.0640733   -99358.176   -99356.112 
    3360    1.0063599    2.0811855    -99358.19   -99356.109 
    3370   0.98778555    2.0427732   -99358.155   -99356.112 
    3380   0.99160543    2.0506728   -99358.169   -99356.118 
    3390   0.98948383    2.0462853   -99358.166    -99356.12 
    3400   0.98105787    2.0288601   -99358.144   -99356.115 
    3410   0.98644235    2.0399954   -99358.148   -99356.108 
    3420   0.99594624    2.0596498   -99358.164   -99356.105 
    3430   0.99213718    2.0517725   -99358.154   -99356.102 
    3440   0.99467065    2.0570118   -99358.151   -99356.094 
    3450    1.0074428    2.0834251   -99358.165   -99356.081 
    3460   0.99906415    2.0660977   -99358.136    -99356.07 
    3470    1.0062066    2.0808686   -99358.147   -99356.066 
    3480    1.0040002    2.0763056   -99358.147    -99356.07 
    3490    1.0022952    2.0727795   -99358.145   -99356.072 
    3500   0.99744065    2.0627402   -99358.128   -99356.065 
    3510    0.9988265    2.0656062   -99358.125   -99356.059 
    3520   0.99273911    2.0530173   -99358.115   -99356.062 
    3530    0.9886257    2.0445106   -99358.108   -99356.063 
    3540   0.98677222    2.0406776   -99358.097   -99356.056 
    3550   0.99432259     2.056292   -99358.097   -99356.041 
    3560   0.99732253     2.062496   -99358.089   -99356.026 
    3570   0.99365935    2.0549204   -99358.072   -99356.017 
    3580    1.0044167     2.077167   -99358.088   -99356.011 
    3590    1.0014787    2.0710911   -99358.075   -99356.003 
    3600   0.99504974    2.0577958   -99358.053   -99355.995 
    3610    1.0025006    2.0732044   -99358.066   -99355.993 
    3620   0.99476761    2.0572123   -99358.055   -99355.998 
    3630    1.0098198    2.0883407   -99358.091   -99356.002 
    3640    0.9999417    2.0679125   -99358.068       -99356 
    3650   0.99938947    2.0667705   -99358.062   -99355.995 
    3660    1.0061124    2.0806738   -99358.077   -99355.996 
    3670    1.0015377     2.071213   -99358.071       -99356 
    3680    1.0038664    2.0760289   -99358.076       -99356 
    3690   0.99154987    2.0505579   -99358.046   -99355.995 
    3700   0.99608633    2.0599395   -99358.049   -99355.989 
    3710   0.99965053    2.0673104   -99358.052   -99355.984 
    3720   0.99301942     2.053597   -99358.035   -99355.982 
    3730   0.99781279    2.0635098   -99358.043   -99355.979 
    3740   0.99564665    2.0590302   -99358.033   -99355.974 
    3750    1.0017275    2.0716056   -99358.041   -99355.969 
    3760    1.0060299     2.080503   -99358.048   -99355.967 
    3770    1.0148788    2.0988029   -99358.063   -99355.964 
    3780    1.0148268    2.0986954    -99358.06   -99355.961 
    3790    1.0278276    2.1255814   -99358.084   -99355.958 
    3800    1.0153353     2.099747   -99358.054   -99355.954 
    3810     1.020617    2.1106698   -99358.065   -99355.954 
    3820     1.021005    2.1114721    -99358.07   -99355.959 
    3830    1.0037946    2.0758804    -99358.04   -99355.964 
    3840    1.0088386    2.0863116   -99358.055   -99355.969 
    3850    1.0047538     2.077864    -99358.05   -99355.972 
    3860    1.0129875    2.0948917   -99358.073   -99355.978 
    3870     1.000928    2.0699521    -99358.06    -99355.99 
    3880     1.001763     2.071679   -99358.071   -99355.999 
    3890    1.0038199    2.0759327   -99358.075   -99355.999 
    3900   0.99714075      2.06212   -99358.056   -99355.994 
    3910   0.99390135    2.0554209   -99358.047   -99355.992 
    3920    1.0004146    2.0688904   -99358.062   -99355.993 
    3930   0.99850488    2.0649411   -99358.059   -99355.994 
    3940    1.0069543    2.0824148   -99358.068   -99355.986 
    3950   0.99835873    2.0646389    -99358.04   -99355.975 
    3960    1.0126008    2.0940919   -99358.069   -99355.975 
    3970    1.0097418    2.0881793   -99358.074   -99355.986 
    3980    1.0037569    2.0758024   -99358.074   -99355.998 
    3990   0.99888943    2.0657364   -99358.071   -99356.006 
    4000    1.0060308     2.080505   -99358.086   -99356.006 
    4010   0.99650458    2.0608044   -99358.066   -99356.006 
    4020   0.99739674    2.0626494   -99358.073   -99356.011 
    4030   0.99699439    2.0618174   -99358.075   -99356.014 
    4040    0.9901421    2.0476466   -99358.058   -99356.011 
    4050   0.98878181    2.0448335   -99358.053   -99356.008 
    4060   0.98617505    2.0394426   -99358.046   -99356.007 
    4070   0.97978007    2.0262176    -99358.03   -99356.004 
    4080   0.98754971    2.0422854   -99358.037   -99355.994 
    4090   0.98610035    2.0392881   -99358.018   -99355.978 
    4100   0.99409935    2.0558303   -99358.021   -99355.965 
    4110   0.99847663    2.0648827   -99358.026   -99355.961 
    4120    1.0024265    2.0730512   -99358.034   -99355.961 
    4130   0.99767521    2.0632253   -99358.018   -99355.954 
    4140    1.0017696    2.0716926   -99358.012   -99355.941 
    4150    1.0063372    2.0811385   -99358.012   -99355.931 
    4160    0.9971063    2.0620488   -99357.995   -99355.933 
    4170    1.0042978    2.0769211   -99358.019   -99355.942 
    4180   0.99972893    2.0674725   -99358.015   -99355.948 
    4190   0.99774333    2.0633662   -99358.009   -99355.946 
    4200   0.99421653    2.0560726   -99357.994   -99355.938 
    4210    0.9885318    2.0443164   -99357.974    -99355.93 
    4220    0.9913906    2.0502285   -99357.972   -99355.922 
    4230   0.98621091    2.0395168   -99357.949   -99355.909 
    4240   0.99585217    2.0594552    -99357.95   -99355.891 
    4250    0.9902227    2.0478133   -99357.923   -99355.875 
    4260   0.98912404    2.0455412   -99357.914   -99355.869 
    4270   0.99101395    2.0494496   -99357.918   -99355.869 
    4280    1.0031246    2.0744948    -99357.94   -99355.866 
    4290   0.99944534     2.066886   -99357.927    -99355.86 
    4300   0.99803797    2.0639755    -99357.92   -99355.856 
    4310   0.99513837     2.057979   -99357.914   -99355.856 
    4320    1.0141353    2.0972654   -99357.954   -99355.857 
    4330    1.0105919    2.0899375   -99357.942   -99355.852 
    4340    1.0106153    2.0899859   -99357.931   -99355.841 
    4350    1.0090423    2.0867328   -99357.919   -99355.833 
    4360    1.0043848     2.077101   -99357.909   -99355.832 
    4370    1.0071188    2.0827551   -99357.918   -99355.835 
    4380    1.0091719    2.0870009   -99357.928   -99355.841 
    4390    1.0038248    2.0759428   -99357.923   -99355.847 
    4400    1.0014486    2.0710289   -99357.923   -99355.852 
    4410   0.99557112     2.058874   -99357.922   -99355.863 
    4420   0.99684579      2.06151   -99357.936   -99355.874 
    4430   0.99870831    2.0653618   -99357.946    -99355.88 
    4440    1.0018773    2.0719153   -99357.953   -99355.881 
    4450    1.0022238     2.072632   -99357.952   -99355.879 
    4460    1.0047013    2.0777554   -99357.957   -99355.879 
    4470    1.0093378     2.087344   -99357.969   -99355.881 
    4480    1.0103633    2.0894646   -99357.973   -99355.884 
    4490     1.008753    2.0861345   -99357.973   -99355.886 
    4500     1.011316    2.0914349   -99357.985   -99355.894 
    4510    1.0027658    2.0737528   -99357.977   -99355.904 
    4520    1.0030077    2.0742532   -99357.985   -99355.911 
    4530    0.9980306    2.0639603   -99357.976   -99355.912 
    4540    1.0028794    2.0739877   -99357.983   -99355.909 
    4550    1.0045323    2.0774059   -99357.986   -99355.909 
    4560   0.99555621    2.0588432    -99357.97   -99355.911 
    4570    1.0006031    2.0692802   -99357.981   -99355.912 
    4580    0.9964247    2.0606392   -99357.971    -99355.91 
    4590   0.98407861    2.0351071    -99357.94   -99355.905 
    4600   0.99630801    2.0603979   -99357.963   -99355.903 
    4610   0.99627487    2.0603294   -99357.966   -99355.906 
    4620   0.99229355    2.0520959   -99357.961   -99355.909 
    4630   0.98908726    2.0454652   -99357.952   -99355.906 
    4640    1.0036319    2.0755439   -99357.975   -99355.899 
    4650   0.99937093    2.0667321   -99357.956   -99355.889 
    4660    1.0045659    2.0774756   -99357.959   -99355.881 
    4670    1.0027238     2.073666   -99357.948   -99355.875 
    4680    1.0023248    2.0728409    -99357.94   -99355.868 
    4690    1.0004851    2.0690363   -99357.931   -99355.862 
    4700   0.99738084    2.0626166   -99357.922   -99355.859 
    4710   0.99440529     2.056463   -99357.915   -99355.859 
    4720   0.99913788    2.0662502   -99357.925   -99355.859 
    4730   0.99544194    2.0586068   -99357.915   -99355.857 
    4740   0.98973824    2.0468114   -99357.898   -99355.852 
    4750    1.0026764     2.073568   -99357.921   -99355.848 
    4760    1.0002971    2.0686475    -99357.91   -99355.841 
    4770    1.0034762     2.075222   -99357.903   -99355.828 
    4780    1.0024446    2.0730886   -99357.888   -99355.814 
    4790   0.99881284     2.065578   -99357.873   -99355.808 
    4800   0.99804734    2.0639949   -99357.872   -99355.808 
    4810     1.000112    2.0682646   -99357.879   -99355.811 
    4820   0.99947497    2.0669473   -99357.876    -99355.81 
    4830   0.99918478    2.0663472   -99357.872   -99355.806 
    4840    1.0069973    2.0825038   -99357.888   -99355.806 
    4850   0.99409308    2.0558174   -99357.865   -99355.809 
    4860   0.99228383    2.0520758   -99357.865   -99355.813 
    4870    1.0060677    2.0805813   -99357.895   -99355.815 
    4880    0.9902625    2.0478956   -99357.856   -99355.808 
    4890    1.0032818    2.0748199   -99357.869   -99355.794 
    4900   0.99703646    2.0619044   -99357.846   -99355.784 
    4910    0.9951066    2.0579134   -99357.838    -99355.78 
    4920    1.0082201    2.0850324   -99357.863   -99355.778 
    4930    1.0112519    2.0913024   -99357.863   -99355.772 
    4940    1.0043633    2.0770566   -99357.835   -99355.758 
    4950    1.0072262     2.082977   -99357.826   -99355.743 
    4960    1.0147546    2.0985461   -99357.833   -99355.734 
    4970    1.0169344     2.103054    -99357.83   -99355.727 
    4980    1.0179379    2.1051293   -99357.825    -99355.72 
    4990    1.0183632    2.1060088   -99357.825   -99355.719 
    5000    1.0167423    2.1026566   -99357.825   -99355.722 
    5010    1.0054551    2.0793144   -99357.806   -99355.727 
    5020    1.0213496    2.1121846   -99357.847   -99355.735 
    5030    1.0041495    2.0766144   -99357.815   -99355.739 
    5040    1.0119005    2.0926437   -99357.833    -99355.74 
    5050   0.99997727    2.0679861   -99357.812   -99355.744 
    5060     1.014809    2.0986586   -99357.845   -99355.746 
    5070    1.0126207    2.0941331    -99357.84   -99355.745 
    5080    1.0045036    2.0773467   -99357.818    -99355.74 
    5090    1.0099805    2.0886731   -99357.827   -99355.738 
    5100    1.0083828    2.0853689   -99357.836   -99355.751 
    5110    1.0059377    2.0803125   -99357.848   -99355.767 
    5120    1.0056515    2.0797206   -99357.851   -99355.772 
    5130    1.0081671    2.0849229   -99357.853   -99355.768 
    5140    1.0069814    2.0824709   -99357.851   -99355.769 
    5150    1.0042975    2.0769205   -99357.854   -99355.777 
    5160   0.99233916    2.0521902   -99357.837   -99355.785 
    5170    1.0103453    2.0894274   -99357.875   -99355.785 
    5180   0.99917095    2.0663186   -99357.847    -99355.78 
    5190    1.0025726    2.0733532   -99357.853    -99355.78 
    5200    1.0043391    2.0770065   -99357.863   -99355.786 
    5210    1.0052159    2.0788196   -99357.873   -99355.795 
    5220    1.0040592    2.0764276    -99357.88   -99355.804 
    5230   0.98608497    2.0392563   -99357.848   -99355.809 
    5240   0.99493046    2.0575491   -99357.864   -99355.807 
    5250   0.97986693    2.0263972   -99357.825   -99355.799 
    5260    0.9816544    2.0300938   -99357.818   -99355.787 
    5270   0.99134785    2.0501401   -99357.827   -99355.777 
    5280   0.98758731    2.0423632   -99357.811   -99355.768 
    5290    1.0048498    2.0780626   -99357.837   -99355.759 
    5300   0.99550932    2.0587462   -99357.808   -99355.749 
    5310   0.99912706    2.0662278   -99357.809   -99355.742 
    5320   0.99892655    2.0658131   -99357.808   -99355.742 
    5330   0.98808804    2.0433987   -99357.789   -99355.746 
    5340   0.99163877    2.0507418   -99357.799   -99355.748 
    5350   0.98859534    2.0444478   -99357.783   -99355.739 
    5360   0.99684781    2.0615142   -99357.783   -99355.721 
    5370   0.99145938    2.0503708   -99357.755   -99355.705 
    5380    1.0021293    2.0724364   -99357.763    -99355.69 
    5390   0.99969965    2.0674119   -99357.746   -99355.679 
    5400    1.0046002    2.0775464   -99357.748   -99355.671 
    5410    1.0057928    2.0800128   -99357.745   -99355.665 
    5420    1.0058952    2.0802244   -99357.746   -99355.666 
    5430    1.0047934    2.0779459   -99357.748    -99355.67 
    5440     1.008278    2.0851523   -99357.757   -99355.672 
    5450    1.0117229    2.0922765   -99357.767   -99355.675 
    5460   0.99964491    2.0672987    -99357.75   -99355.683 
    5470    1.0030976    2.0744391   -99357.761   -99355.687 
    5480    1.0021356    2.0724495   -99357.757   -99355.684 
    5490   0.99109795    2.0496233   -99357.725   -99355.675 
    5500   0.99466962    2.0570097   -99357.719   -99355.662 
    5510   0.99005348    2.0474633   -99357.703   -99355.655 
    5520   0.99398351    2.0555908   -99357.709   -99355.653 
    5530   0.99221761    2.0519388   -99357.705   -99355.653 
    5540   0.98800969    2.0432367     -99357.7   -99355.657 
    5550   0.99204181    2.0515753   -99357.713   -99355.661 
    5560   0.99361539    2.0548295   -99357.717   -99355.662 
    5570   0.99576707    2.0592792   -99357.723   -99355.664 
    5580    1.0011305    2.0703709    -99357.73    -99355.66 
    5590   0.99976788     2.067553   -99357.715   -99355.648 
    5600   0.99804111     2.063982   -99357.697   -99355.633 
    5610    1.0069674    2.0824419   -99357.704   -99355.621 
    5620    1.0031173    2.0744797    -99357.69   -99355.615 
    5630     1.005602    2.0796183   -99357.694   -99355.614 
    5640    1.0111445    2.0910802   -99357.701    -99355.61 
    5650    1.0024656    2.0731321   -99357.676   -99355.603 
    5660     1.010135    2.0889927   -99357.692   -99355.603 
    5670    1.0101618    2.0890479   -99357.702   -99355.613 
    5680    1.0053111    2.0790166   -99357.703   -99355.623 
    5690    1.0089532    2.0865486   -99357.714   -99355.627 
    5700   0.99383005    2.0552734   -99357.684   -99355.628 
    5710   0.99949015    2.0669787     -99357.7   -99355.633 
    5720   0.99717768    2.0621964   -99357.699   -99355.637 
    5730    1.0047628    2.0778827   -99357.715   -99355.637 
    5740     1.001526    2.0711888   -99357.704   -99355.633 
    5750   0.99336385    2.0543093   -99357.681   -99355.627 
    5760    0.9973664    2.0625867   -99357.688   -99355.625 
    5770   0.99934938    2.0666875   -99357.696   -99355.629 
    5780   0.99647465    2.0607425   -99357.691   -99355.631 
    5790   0.99272505    2.0529882    -99357.68   -99355.627 
    5800   0.99068616    2.0487717   -99357.672   -99355.623 
    5810   0.99175328    2.0509786   -99357.675   -99355.624 
    5820    1.0003947    2.0688493     -99357.7   -99355.631 
    5830    1.0025305    2.0732662   -99357.712   -99355.639 
    5840   0.99850051    2.0649321   -99357.702   -99355.637 
    5850    1.0019984    2.0721658   -99357.703   -99355.631 
    5860   0.99914704    2.0662691   -99357.691   -99355.625 
    5870    1.0097139    2.0881218   -99357.702   -99355.614 
    5880   0.99834828    2.0646172   -99357.666   -99355.602 
    5890    1.0012186    2.0705531   -99357.656   -99355.586 
    5900    1.0053125    2.0790194   -99357.649    -99355.57 
    5910    1.0053638    2.0791255   -99357.643   -99355.564 
    5920    1.0108188    2.0904067   -99357.649   -99355.559 
    5930    1.0096946    2.0880819   -99357.638    -99355.55 
    5940    1.0047365    2.0778284   -99357.626   -99355.548 
    5950    1.0182785    2.1058336   -99357.657   -99355.551 
    5960    1.0148251    2.0986919   -99357.655   -99355.556 
    5970    1.0051445    2.0786721    -99357.64   -99355.561 
    5980    1.0110045    2.0907907   -99357.651    -99355.56 
    5990    1.0075673    2.0836825   -99357.644    -99355.56 
    6000    1.0031471    2.0745414   -99357.647   -99355.572 
    6010   0.99756023    2.0629875   -99357.641   -99355.578 
    6020   0.99245804     2.052436   -99357.624   -99355.571 
    6030   0.98483511    2.0366716   -99357.602   -99355.565 
    6040   0.99205015    2.0515925   -99357.615   -99355.563 
    6050   0.99296066    2.0534755   -99357.617   -99355.563 
    6060   0.99137067    2.0501873   -99357.616   -99355.566 
    6070    0.9882422    2.0437175   -99357.609   -99355.565 
    6080   0.99946448    2.0669256   -99357.622   -99355.555 
    6090   0.99808649    2.0640759   -99357.607   -99355.543 
    6100    1.0082312    2.0850554   -99357.618   -99355.533 
    6110    1.0018921     2.071946   -99357.599   -99355.527 
    6120   0.99698669    2.0618014   -99357.584   -99355.522 
    6130    1.0006557     2.069389   -99357.583   -99355.514 
    6140    1.0091214    2.0868964   -99357.585   -99355.498 
    6150   0.99438893    2.0564292   -99357.537   -99355.481 
    6160    1.0156797    2.1004592    -99357.57   -99355.469 
    6170    1.0046201    2.0775875   -99357.545   -99355.467 
    6180   0.99827941    2.0644748   -99357.538   -99355.474 
    6190     1.013641    2.0962432   -99357.583   -99355.486 
    6200    1.0087338    2.0860948   -99357.579   -99355.493 
    6210    1.0028931     2.074016   -99357.569   -99355.495 
    6220     1.004996    2.0783649   -99357.587   -99355.509 
    6230    1.0065767    2.0816339   -99357.609   -99355.527 
    6240    1.0044852    2.0773087   -99357.612   -99355.535 
    6250    1.0120483    2.0929493   -99357.626   -99355.533 
    6260    1.0040152    2.0763367   -99357.603   -99355.526 
    6270    1.0050176    2.0784095     -99357.6   -99355.522 
    6280     1.009502    2.0876836   -99357.608    -99355.52 
    6290     1.004761     2.077879   -99357.591   -99355.513 
    6300   0.99769535     2.063267   -99357.561   -99355.498 
    6310   0.99739502    2.0626459   -99357.552   -99355.489 
    6320   0.99637889    2.0605445   -99357.547   -99355.487 
    6330   0.99829256     2.064502   -99357.551   -99355.487 
    6340   0.99764511    2.0631631   -99357.551   -99355.488 
    6350   0.99352123    2.0546347   -99357.539   -99355.484 
    6360   0.99946599    2.0669287   -99357.546   -99355.479 
    6370   0.98919027    2.0456782   -99357.533   -99355.487 
    6380      1.00143    2.0709904   -99357.571     -99355.5 
    6390   0.99223426    2.0519733   -99357.556   -99355.504 
    6400    0.9930763    2.0537146   -99357.549   -99355.496 
    6410    1.0000714    2.0681807   -99357.546   -99355.477 
    6420   0.99796497    2.0638245   -99357.523   -99355.459 
    6430    1.0014801    2.0710939   -99357.518   -99355.447 
    6440    1.0048045     2.077969   -99357.512   -99355.434 
    6450    1.0102082     2.089144   -99357.509    -99355.42 
    6460    1.0040416    2.0763912   -99357.486   -99355.409 
    6470    1.0143955    2.0978035   -99357.502   -99355.405 
    6480    1.0142927    2.0975908   -99357.503   -99355.405 
    6490    1.0101485    2.0890204   -99357.496   -99355.407 
    6500    1.0062297    2.0809163   -99357.487   -99355.406 
    6510    1.0017559    2.0716643   -99357.476   -99355.404 
    6520    1.0047091    2.0777716   -99357.483   -99355.405 
    6530   0.99536009    2.0584376   -99357.462   -99355.403 
    6540   0.99099887    2.0494184   -99357.443   -99355.394 
    6550    1.0042819    2.0768883   -99357.459   -99355.383 
    6560   0.99707206     2.061978   -99357.439   -99355.377 
    6570   0.99589501    2.0595438   -99357.435   -99355.375 
    6580   0.99310328    2.0537704    -99357.43   -99355.376 
    6590   0.99328355    2.0541432   -99357.434    -99355.38 
    6600   0.99416412    2.0559643    -99357.44   -99355.384 
    6610   0.99399534    2.0556152   -99357.443   -99355.387 
    6620   0.99705206    2.0619366   -99357.452    -99355.39 
    6630   0.99731465    2.0624797    -99357.45   -99355.388 
    6640    1.0041311    2.0765764   -99357.452   -99355.376 
    6650    1.0063222    2.0811075   -99357.443   -99355.362 
    6660    1.0067731    2.0820401   -99357.436   -99355.354 
    6670    1.0100839    2.0888869   -99357.439    -99355.35 
    6680    1.0057105    2.0798426   -99357.422   -99355.342 
    6690    1.0070448    2.0826019   -99357.414   -99355.331 
    6700    1.0007096    2.0695004   -99357.393   -99355.323 
    6710    1.0006725    2.0694239   -99357.395   -99355.326 
    6720    1.0014361    2.0710029   -99357.408   -99355.337 
    6730   0.99908528    2.0661414   -99357.413   -99355.347 
    6740    1.0023532    2.0728995   -99357.426   -99355.353 
    6750   0.99239609    2.0523079    -99357.41   -99355.358 
    6760   0.99313815    2.0538425   -99357.412   -99355.359 
    6770   0.99626421    2.0603073   -99357.419   -99355.359 
    6780   0.98590757    2.0388894     -99357.4   -99355.361 
    6790   0.98938636    2.0460837   -99357.406    -99355.36 
    6800   0.99866518    2.0652726   -99357.421   -99355.356 
    6810   0.99072178    2.0488454     -99357.4   -99355.351 
    6820   0.99540497    2.0585304   -99357.403   -99355.345 
    6830    1.0034805    2.0752309   -99357.405    -99355.33 
    6840     1.010452    2.0896482   -99357.402   -99355.312 
    6850    1.0098306     2.088363   -99357.394   -99355.305 
    6860   0.99680961    2.0614352   -99357.369   -99355.307 
    6870    1.0044478    2.0772313   -99357.384   -99355.306 
    6880    1.0119206    2.0926853   -99357.392   -99355.299 
    6890    1.0078894    2.0843486   -99357.373   -99355.289 
    6900    1.0015266    2.0711902   -99357.353   -99355.281 
    6910    1.0035323    2.0753379   -99357.357   -99355.281 
    6920    1.0109581    2.0906948   -99357.373   -99355.282 
    6930    1.0030801    2.0744028   -99357.351   -99355.277 
    6940    1.0016679    2.0714823   -99357.341    -99355.27 
    6950     1.003451    2.0751699   -99357.344   -99355.269 
    6960    1.0011522    2.0704158   -99357.348   -99355.277 
    6970    1.0069864    2.0824812   -99357.365   -99355.283 
    6980    1.0022509     2.072688   -99357.356   -99355.284 
    6990    1.0028541    2.0739354   -99357.364    -99355.29 
    7000    1.0050521     2.078481   -99357.382   -99355.304 
    7010   0.99921153    2.0664025   -99357.378   -99355.312 
    7020   0.99542343    2.0585686   -99357.365   -99355.307 
    7030   0.99731826    2.0624871   -99357.357   -99355.294 
    7040   0.99594661    2.0596505   -99357.349   -99355.289 
    7050   0.98864926    2.0445594   -99357.336   -99355.291 
    7060   0.99392732    2.0554746   -99357.343   -99355.288 
    7070   0.99143316    2.0503166   -99357.323   -99355.273 
    7080    1.0012313    2.0705794   -99357.328   -99355.257 
    7090   0.99695486    2.0617356   -99357.315   -99355.253 
    7100    1.0009629    2.0700243   -99357.329   -99355.259 
    7110    1.0018729    2.0719063   -99357.335   -99355.263 
    7120    1.0023404    2.0728731   -99357.335   -99355.262 
    7130    1.0046587    2.0776675   -99357.337   -99355.259 
    7140    1.0044706    2.0772784   -99357.332   -99355.255 
    7150   0.99745765    2.0627754   -99357.308   -99355.245 
    7160    1.0030883    2.0744197   -99357.306   -99355.231 
    7170   0.99893427    2.0658291   -99357.292   -99355.226 
    7180    1.0023673    2.0729287   -99357.302    -99355.23 
    7190   0.99951437    2.0670288   -99357.299   -99355.232 
    7200    1.0121373    2.0931333   -99357.318   -99355.225 
    7210    1.0013352    2.0707944    -99357.28    -99355.21 
    7220    1.0037737    2.0758372   -99357.277   -99355.201 
    7230     1.000322     2.068699   -99357.276   -99355.207 
    7240    1.0107363    2.0902362   -99357.303   -99355.213 
    7250    1.0087649    2.0861591   -99357.294   -99355.208 
    7260    1.0101975    2.0891219   -99357.286   -99355.197 
    7270    1.0169496    2.1030853   -99357.289   -99355.186 
    7280    1.0145155    2.0980516    -99357.28   -99355.182 
    7290    1.0114015    2.0916117   -99357.281   -99355.189 
    7300    1.0104873    2.0897211   -99357.284   -99355.194 
    7310    1.0086496    2.0859208   -99357.277   -99355.192 
    7320    1.0079538    2.0844817   -99357.271   -99355.187 
    7330    1.0059072    2.0802494   -99357.261    -99355.18 
    7340   0.99978978    2.0675983   -99357.247   -99355.179 
    7350    1.0008929    2.0698795   -99357.251   -99355.181 
    7360    1.0028664    2.0739608   -99357.253   -99355.179 
    7370    1.0040785    2.0764675   -99357.259   -99355.182 
    7380   0.99669214    2.0611923   -99357.255   -99355.194 
    7390   0.99666565    2.0611375   -99357.255   -99355.194 
    7400   0.99685169    2.0615222   -99357.249   -99355.188 
    7410    0.9944057    2.0564639   -99357.236   -99355.179 
    7420   0.99621231       2.0602   -99357.229   -99355.168 
    7430   0.99915182     2.066279   -99357.237   -99355.171 
    7440   0.98835861    2.0439583    -99357.22   -99355.176 
    7450   0.99878598    2.0655224    -99357.23   -99355.165 
    7460    1.0005601    2.0691913   -99357.221   -99355.152 
    7470   0.99696181      2.06175   -99357.206   -99355.144 
    7480    1.0055162    2.0794407   -99357.218   -99355.139 
    7490    1.0046508    2.0776511   -99357.216   -99355.138 
    7500    1.0025457    2.0732977   -99357.212   -99355.139 
    7510    1.0071688    2.0828584   -99357.216   -99355.133 
    7520    1.0131835     2.095297   -99357.215   -99355.119 
    7530    1.0181554    2.1055791   -99357.208   -99355.102 
    7540    1.0075084    2.0835607   -99357.175   -99355.092 
    7550    1.0118306    2.0924991   -99357.182    -99355.09 
    7560    1.0195164    2.1083935   -99357.201   -99355.093 
    7570    1.0110927     2.090973   -99357.191     -99355.1 
    7580     1.002127    2.0724318   -99357.181   -99355.109 
    7590     1.006586    2.0816531    -99357.19   -99355.108 
    7600   0.99982898    2.0676794   -99357.167   -99355.099 
    7610    1.0073153    2.0831613   -99357.174    -99355.09 
    7620   0.99303139    2.0536217   -99357.148   -99355.095 
    7630   0.99868041    2.0653041   -99357.178   -99355.112 
    7640    1.0019535     2.072073   -99357.197   -99355.125 
    7650   0.99627659    2.0603329   -99357.179   -99355.118 
    7660   0.99795142    2.0637965   -99357.167   -99355.103 
    7670   0.98912586     2.045545   -99357.144   -99355.098 
    7680   0.99889647    2.0657509   -99357.168   -99355.102 
    7690    1.0028139    2.0738524   -99357.178   -99355.104 
    7700   0.99049419    2.0483747   -99357.142   -99355.093 
    7710    1.0049177    2.0782031   -99357.152   -99355.074 
    7720   0.98985351    2.0470498   -99357.104   -99355.057 
    7730    1.0053527    2.0791025   -99357.126   -99355.047 
    7740    1.0004973    2.0690615   -99357.111   -99355.042 
    7750   0.98732901     2.041829   -99357.083   -99355.041 
    7760   0.99365475    2.0549109   -99357.087   -99355.032 
    7770   0.98960997    2.0465461   -99357.066    -99355.02 
    7780    1.0011493    2.0704099   -99357.084   -99355.014 
    7790    1.0044917     2.077322   -99357.088   -99355.011 
    7800   0.99308891    2.0537407   -99357.061   -99355.007 
    7810    1.0108802    2.0905338   -99357.089   -99354.999 
    7820    1.0059059    2.0802466   -99357.064   -99354.984 
    7830    1.0164931    2.1021414   -99357.073   -99354.971 
    7840    1.0059053    2.0802455   -99357.043   -99354.962 
    7850     1.007594    2.0837378   -99357.032   -99354.948 
    7860    1.0061062    2.0806609   -99357.023   -99354.943 
    7870    1.0011982     2.070511   -99357.024   -99354.954 
    7880    1.0049825    2.0783371   -99357.045   -99354.966 
    7890    1.0021701    2.0725209   -99357.048   -99354.976 
    7900   0.99899291    2.0659504   -99357.049   -99354.983 
    7910   0.99847101    2.0648711   -99357.052   -99354.987 
    7920   0.99850641    2.0649443   -99357.056   -99354.991 
    7930   0.99837861      2.06468   -99357.056   -99354.991 
    7940   0.99345893    2.0545059   -99357.031   -99354.977 
    7950   0.99555467      2.05884   -99357.012   -99354.953 
    7960   0.99093986    2.0492964   -99356.982   -99354.933 
    7970    1.0071052    2.0827269   -99357.005   -99354.922 
    7980    1.0013491     2.070823    -99356.99   -99354.919 
    7990    1.0005781    2.0692285   -99356.986   -99354.917 
    8000    1.0056438    2.0797045   -99356.997   -99354.917 
    8010   0.99898038    2.0659244   -99356.996    -99354.93 
    8020    1.0031697    2.0745881   -99357.024   -99354.949 
    8030    1.0025056    2.0732147   -99357.032   -99354.959 
    8040    1.0012373    2.0705918   -99357.028   -99354.957 
    8050    1.0016636    2.0714735   -99357.024   -99354.953 
    8060   0.99996767    2.0679662   -99357.022   -99354.954 
    8070    1.0030707    2.0743833   -99357.033   -99354.959 
    8080    1.0017502    2.0716526   -99357.024   -99354.952 
    8090   0.99293352    2.0534193   -99356.993   -99354.939 
    8100   0.98707432    2.0413023   -99356.974   -99354.933 
    8110    0.9898408    2.0470235   -99356.981   -99354.934 
    8120   0.99182413    2.0511251   -99356.992   -99354.941 
    8130   0.98961907     2.046565   -99356.994   -99354.948 
    8140   0.99234625    2.0522049   -99357.002    -99354.95 
    8150   0.99124865     2.049935   -99357.002   -99354.952 
    8160   0.99920544    2.0663899   -99357.019   -99354.953 
    8170   0.99201843    2.0515269   -99356.998   -99354.947 
    8180   0.99159397    2.0506491   -99356.985   -99354.935 
    8190   0.99314217    2.0538508   -99356.969   -99354.916 
    8200   0.99161603    2.0506947   -99356.949   -99354.899 
    8210   0.99186986    2.0512197   -99356.947   -99354.895 
    8220   0.99459132    2.0568477   -99356.949   -99354.893 
    8230   0.99881556    2.0655836   -99356.944   -99354.879 
    8240    1.0002464    2.0685426   -99356.935   -99354.867 
    8250   0.99525879    2.0582281   -99356.923   -99354.864 
    8260   0.99791801    2.0637274   -99356.933   -99354.869 
    8270    1.0075838    2.0837167   -99356.954   -99354.871 
    8280    0.9999868    2.0680058   -99356.929   -99354.861 
    8290    1.0038091    2.0759104   -99356.927   -99354.851 
    8300    1.0023817    2.0729585   -99356.922   -99354.849 
    8310    1.0090217    2.0866903   -99356.933   -99354.847 
    8320   0.99802615    2.0639511   -99356.907   -99354.843 
    8330    1.0043489    2.0770267   -99356.915   -99354.838 
    8340    1.0069684     2.082444   -99356.912    -99354.83 
    8350    1.0003242    2.0687036   -99356.893   -99354.824 
    8360     1.005166    2.0787166     -99356.9   -99354.821 
    8370    1.0041088    2.0765302   -99356.894   -99354.817 
    8380    0.9990793     2.066129   -99356.883   -99354.817 
    8390    1.0074271    2.0833925   -99356.906   -99354.823 
    8400    1.0006148    2.0693045   -99356.902   -99354.833 
    8410   0.99151185    2.0504793   -99356.897   -99354.846 
    8420   0.99668426     2.061176   -99356.918   -99354.857 
    8430   0.99022584    2.0478198   -99356.914   -99354.866 
    8440   0.98916544    2.0456268   -99356.918   -99354.872 
    8450   0.98751156    2.0422066   -99356.911   -99354.869 
    8460    0.9981077    2.0641197   -99356.925   -99354.861 
    8470   0.99092468     2.049265   -99356.897   -99354.848 
    8480    1.0025221    2.0732488   -99356.899   -99354.826 
    8490   0.99504958    2.0577954   -99356.869   -99354.811 
    8500    1.0030882    2.0744195   -99356.881   -99354.807 
    8510   0.99079407    2.0489949   -99356.852   -99354.803 
    8520    1.0036605     2.075603   -99356.871   -99354.796 
    8530    1.0067749    2.0820437   -99356.867   -99354.785 
    8540   0.98998842    2.0473288   -99356.832   -99354.785 
    8550    1.0069177     2.082339   -99356.885   -99354.802 
    8560    1.0108954    2.0905651   -99356.908   -99354.818 
    8570    1.0052871     2.078967   -99356.895   -99354.816 
    8580    0.9965753    2.0609507   -99356.862   -99354.801 
    8590    0.9985964    2.0651304   -99356.843   -99354.778 
    8600   0.99980903    2.0676381   -99356.832   -99354.765 
    8610   0.99714722    2.0621334   -99356.822    -99354.76 
    8620   0.99680862    2.0614332   -99356.805   -99354.743 
    8630    1.0031204    2.0744862   -99356.793   -99354.718 
    8640   0.99875525    2.0654589   -99356.768   -99354.703 
    8650    1.0155897     2.100273   -99356.804   -99354.704 
    8660    1.0114096    2.0916285   -99356.817   -99354.726 
    8670    1.0093613    2.0873926   -99356.835   -99354.748 
    8680    1.0071246     2.082767   -99356.831   -99354.748 
    8690     1.007598    2.0837459   -99356.828   -99354.744 
    8700    1.0139165    2.0968129   -99356.844   -99354.748 
    8710    1.0048408     2.078044   -99356.827   -99354.749 
    8720   0.99882116    2.0655952   -99356.816    -99354.75 
    8730    1.0024994    2.0732018    -99356.82   -99354.747 
    8740   0.99660794    2.0610182   -99356.789   -99354.728 
    8750    1.0067967    2.0820888   -99356.784   -99354.702 
    8760   0.99225645    2.0520191   -99356.729   -99354.677 
    8770   0.99280594    2.0531555   -99356.715   -99354.662 
    8780   0.99568902    2.0591178   -99356.729    -99354.67 
    8790   0.99562286     2.058981   -99356.747   -99354.688 
    8800    1.0005528    2.0691762   -99356.768   -99354.699 
    8810   0.99233359    2.0521787   -99356.748   -99354.695 
    8820    1.0024984    2.0731998   -99356.756   -99354.682 
    8830    1.0034058    2.0750763   -99356.746    -99354.67 
    8840    1.0067834    2.0820613   -99356.742    -99354.66 
    8850    1.0058349    2.0800999   -99356.726   -99354.646 
    8860    1.0023507    2.0728943     -99356.7   -99354.627 
    8870   0.99749084     2.062844   -99356.679   -99354.616 
    8880   0.99176253    2.0509977    -99356.67   -99354.619 
    8890   0.99384563    2.0553056   -99356.682   -99354.627 
    8900   0.99616099    2.0600939    -99356.69    -99354.63 
    8910   0.99541277    2.0585465   -99356.686   -99354.627 
    8920   0.99241033    2.0523374   -99356.683   -99354.631 
    8930   0.98988064    2.0471059   -99356.694   -99354.646 
    8940   0.98827197    2.0437791   -99356.713    -99354.67 
    8950   0.98321783     2.033327   -99356.713    -99354.68 
    8960   0.98824531     2.043724   -99356.702   -99354.658 
    8970   0.98047831    2.0276616   -99356.651   -99354.623 
    8980    0.9919034     2.051289   -99356.647   -99354.596 
    8990    0.9998737    2.0677719   -99356.638    -99354.57 
    9000    1.0028971    2.0740243   -99356.625   -99354.551 
    9010    1.0057589    2.0799427   -99356.622   -99354.542 
    9020   0.99928104    2.0665462   -99356.601   -99354.534 
    9030     1.001503    2.0711414   -99356.601    -99354.53 
    9040    1.0056847    2.0797891   -99356.609   -99354.529 
    9050   0.99368333      2.05497   -99356.576   -99354.521 
    9060    1.0007259    2.0695343   -99356.591   -99354.522 
    9070    1.0031161    2.0744773   -99356.606   -99354.532 
    9080   0.99898021    2.0659241   -99356.604   -99354.538 
    9090    1.0047405    2.0778366   -99356.617   -99354.539 
    9100    1.0039904    2.0762853   -99356.597   -99354.521 
    9110   0.99677254    2.0613586   -99356.548   -99354.487 
    9120   0.99733226    2.0625161   -99356.528   -99354.465 
    9130     1.001069    2.0702439   -99356.538   -99354.468 
    9140   0.99908067    2.0661318   -99356.546    -99354.48 
    9150    1.0019685     2.072104   -99356.553   -99354.481 
    9160    1.0052086    2.0788046   -99356.545   -99354.467 
    9170    1.0081419    2.0848708   -99356.548   -99354.463 
    9180    1.0063998    2.0812681   -99356.565   -99354.483 
    9190   0.99855433    2.0650434   -99356.568   -99354.503 
    9200    1.0069235     2.082351   -99356.591   -99354.509 
    9210   0.99838692    2.0646972   -99356.562   -99354.498 
    9220   0.99517172     2.058048   -99356.537   -99354.479 
    9230   0.98982369    2.0469881   -99356.529   -99354.482 
    9240   0.98468144    2.0363538   -99356.532   -99354.495 
    9250   0.99331724    2.0542129   -99356.539   -99354.484 
    9260   0.98701342    2.0411764   -99356.497   -99354.456 
    9270   0.98684965    2.0408377   -99356.476   -99354.435 
    9280   0.99305596    2.0536726   -99356.494   -99354.441 
    9290   0.99879763    2.0655465   -99356.533   -99354.467 
    9300   0.99872442    2.0653951   -99356.538   -99354.472 
    9310    1.0055918     2.079597   -99356.535   -99354.455 
    9320    1.0088532    2.0863417    -99356.54   -99354.453 
    9330    1.0039975       2.0763   -99356.533   -99354.457 
    9340   0.99888934    2.0657362    -99356.51   -99354.444 
    9350   0.99705734    2.0619475   -99356.484   -99354.422 
    9360    1.0036092     2.075497   -99356.476   -99354.401 
    9370      1.00501    2.0783939   -99356.477   -99354.399 
    9380   0.99926853    2.0665204   -99356.479   -99354.413 
    9390    1.0018764    2.0719136   -99356.482    -99354.41 
    9400    1.0084599    2.0855284   -99356.485   -99354.399 
    9410    1.0078602    2.0842883   -99356.489   -99354.405 
    9420    1.0042894    2.0769036    -99356.49   -99354.413 
    9430    1.0016813    2.0715101   -99356.486   -99354.414 
    9440   0.99568991    2.0591197   -99356.467   -99354.408 
    9450   0.99444681    2.0565489   -99356.451   -99354.395 
    9460   0.99448302    2.0566238   -99356.452   -99354.396 
    9470   0.99239872    2.0523134   -99356.456   -99354.403 
    9480   0.99897937    2.0659224    -99356.46   -99354.394 
    9490   0.99111818    2.0496652   -99356.429   -99354.379 
    9500   0.99590743    2.0595695   -99356.434   -99354.374 
    9510   0.99877337    2.0654964   -99356.445    -99354.38 
    9520   0.99794359    2.0637803   -99356.459   -99354.395 
    9530    1.0015249    2.0711867   -99356.465   -99354.394 
    9540   0.99935247     2.066694   -99356.435   -99354.368 
    9550     1.001395     2.070918    -99356.42   -99354.349 
    9560    1.0010067     2.070115   -99356.423   -99354.353 
    9570    1.0030603    2.0743618   -99356.438   -99354.364 
    9580   0.99629335    2.0603676   -99356.428   -99354.368 
    9590   0.99863098    2.0652019    -99356.42   -99354.355 
    9600   0.99846781    2.0648644   -99356.405    -99354.34 
    9610    1.0039464    2.0761944   -99356.416   -99354.339 
    9620    1.0056561    2.0797301   -99356.416   -99354.336 
    9630    1.0088422    2.0863189   -99356.409   -99354.323 
    9640    1.0119641    2.0927752   -99356.404   -99354.311 
    9650    1.0150211    2.0990972     -99356.4   -99354.301 
    9660    1.0073147    2.0831601    -99356.37   -99354.286 
    9670    1.0086192    2.0858579    -99356.36   -99354.274 
    9680     1.016053    2.1012313   -99356.373   -99354.272 
    9690    1.0056211    2.0796577   -99356.365   -99354.285 
    9700    1.0080105    2.0845991   -99356.392   -99354.307 
    9710    1.0069821    2.0824722   -99356.399   -99354.317 
    9720     1.001415    2.0709592   -99356.384   -99354.313 
    9730    1.0172901    2.1037896    -99356.42   -99354.316 
    9740    1.0000067    2.0680469   -99356.396   -99354.328 
    9750    1.0000851     2.068209   -99356.399   -99354.331 
    9760    1.0038729    2.0760424   -99356.395   -99354.319 
    9770    1.0009719    2.0700429   -99356.373   -99354.303 
    9780   0.99288892    2.0533271   -99356.342   -99354.289 
    9790   0.99163063    2.0507249    -99356.33    -99354.28 
    9800   0.99071437    2.0488301   -99356.324   -99354.275 
    9810   0.99330863    2.0541951   -99356.329   -99354.275 
    9820   0.99397839    2.0555802   -99356.331   -99354.276 
    9830    0.9900395    2.0474344   -99356.325   -99354.278 
    9840    0.9952398    2.0581888   -99356.338   -99354.279 
    9850    1.0058859    2.0802052   -99356.359   -99354.279 
    9860    1.0066713    2.0818296   -99356.353   -99354.271 
    9870     1.009886    2.0884777   -99356.333   -99354.244 
    9880     1.006248    2.0809542   -99356.285   -99354.204 
    9890    1.0047434    2.0778427   -99356.252   -99354.174 
    9900     1.013444    2.0958356   -99356.254   -99354.159 
    9910    1.0022052    2.0725935   -99356.223    -99354.15 
    9920    1.0037733    2.0758365   -99356.229   -99354.153 
    9930    1.0063514     2.081168   -99356.243   -99354.161 
    9940    1.0081376    2.0848619   -99356.262   -99354.177 
    9950    1.0021656    2.0725116   -99356.275   -99354.203 
    9960    1.0011328    2.0703758   -99356.291   -99354.221 
    9970   0.98861826    2.0444953   -99356.276   -99354.232 
    9980   0.99000175    2.0473563   -99356.287    -99354.24 
    9990   0.99219316    2.0518883    -99356.29   -99354.239 
   10000   0.97967415    2.0259985   -99356.249   -99354.223 
   10010   0.99701342    2.0618567   -99356.257   -99354.196 
   10020   0.99196618    2.0514189   -99356.214   -99354.162 
   10030   0.99902862    2.0660242   -99356.202   -99354.136 
   10040    1.0023998    2.0729959     -99356.2   -99354.127 
   10050    1.0095126    2.0877055   -99356.211   -99354.123 
   10060    1.0028311    2.0738879   -99356.192   -99354.118 
   10070   0.99751739    2.0628989    -99356.18   -99354.117 
   10080   0.99783454    2.0635548   -99356.183    -99354.12 
   10090   0.99816642    2.0642412   -99356.187   -99354.123 
   10100    1.0017076    2.0715644   -99356.191   -99354.119 
   10110   0.99678874    2.0613921   -99356.166   -99354.105 
   10120   0.99421027    2.0560597   -99356.144   -99354.088 
   10130   0.99023287    2.0478343   -99356.119   -99354.072 
   10140    1.0068665    2.0822332   -99356.131   -99354.049 
   10150    1.0124215    2.0937211   -99356.114   -99354.021 
   10160    1.0022078    2.0725988   -99356.077   -99354.004 
   10170    1.0077907    2.0841444   -99356.082   -99353.998 
   10180    1.0058278    2.0800851   -99356.077   -99353.997 
   10190    1.0244684    2.1186345   -99356.122   -99354.003 
   10200    1.0093388    2.0873461   -99356.095   -99354.008 
   10210    1.0055266    2.0794624   -99356.092   -99354.012 
   10220    1.0053734    2.0791454   -99356.104   -99354.025 
   10230    1.0030379    2.0743155   -99356.109   -99354.035 
   10240    1.0086621    2.0859465   -99356.117   -99354.031 
   10250   0.99506665    2.0578307   -99356.078    -99354.02 
   10260   0.99939624    2.0667845    -99356.08   -99354.013 
   10270   0.99857661    2.0650894   -99356.076   -99354.011 
   10280    0.9969527    2.0617311   -99356.061   -99353.999 
   10290   0.99409245    2.0558161   -99356.031   -99353.975 
   10300   0.99180159    2.0510785   -99356.011    -99353.96 
   10310   0.99888004     2.065717   -99356.034   -99353.968 
   10320   0.98971299    2.0467592   -99356.034   -99353.987 
   10330    0.9904852    2.0483561   -99356.053   -99354.005 
   10340   0.99390961    2.0554379    -99356.06   -99354.004 
   10350   0.99522135    2.0581506   -99356.045   -99353.987 
   10360   0.99723772    2.0623206    -99356.03   -99353.968 
   10370     1.005075    2.0785282   -99356.028   -99353.949 
   10380    1.0022198    2.0726237   -99355.998   -99353.926 
   10390    1.0112488     2.091296   -99355.997   -99353.906 
   10400    1.0163075    2.1017576   -99355.989   -99353.887 
   10410    1.0115713     2.091963   -99355.961   -99353.869 
   10420   0.99981928    2.0676593   -99355.924   -99353.856 
   10430    1.0157315    2.1005663   -99355.952   -99353.852 
   10440    1.0052349     2.078859   -99355.947   -99353.868 
   10450    1.0042011     2.076721    -99355.98   -99353.903 
   10460    1.0161374    2.1014057   -99356.031    -99353.93 
   10470   0.99841246      2.06475   -99356.005    -99353.94 
   10480    1.0106231    2.0900019   -99356.031   -99353.941 
   10490   0.99606982    2.0599053   -99355.992   -99353.932 
   10500   0.99751103    2.0628858   -99355.987   -99353.924 
   10510   0.98993823     2.047225   -99355.967   -99353.919 
   10520   0.98412418    2.0352013   -99355.939   -99353.904 
   10530    1.0011288    2.0703674   -99355.954   -99353.884 
   10540   0.99778973    2.0634622   -99355.934    -99353.87 
   10550     1.001327    2.0707773   -99355.935   -99353.864 
   10560    1.0007072    2.0694955   -99355.932   -99353.863 
   10570    1.0090333    2.0867142   -99355.947    -99353.86 
   10580   0.99974625    2.0675083   -99355.926   -99353.858 
   10590    1.0072023    2.0829277   -99355.946   -99353.863 
   10600    1.0002056    2.0684582   -99355.932   -99353.864 
   10610    1.0043989    2.0771301   -99355.933   -99353.856 
   10620    1.0101234    2.0889685   -99355.937   -99353.848 
   10630    1.0051842    2.0787542   -99355.923   -99353.844 
   10640    1.0079577    2.0844899   -99355.937   -99353.852 
   10650    1.0021543    2.0724883   -99355.934   -99353.862 
   10660    0.9981364    2.0641791   -99355.924   -99353.859 
   10670   0.99211964    2.0517362   -99355.904   -99353.852 
   10680   0.98761722    2.0424251    -99355.89   -99353.847 
   10690   0.99597786    2.0597151     -99355.9    -99353.84 
   10700   0.99097994    2.0493793   -99355.886   -99353.836 
   10710   0.99299447    2.0535454   -99355.888   -99353.835 
   10720   0.99987429    2.0677731   -99355.899   -99353.831 
   10730   0.99599159    2.0597435   -99355.897   -99353.838 
   10740   0.99539046    2.0585004   -99355.908   -99353.849 
   10750   0.99884717     2.065649    -99355.92   -99353.855 
   10760    0.9993408    2.0666698   -99355.926   -99353.859 
   10770   0.99616174    2.0600954   -99355.918   -99353.858 
   10780   0.99864619    2.0652333   -99355.912   -99353.847 
   10790   0.98922046    2.0457406   -99355.884   -99353.838 
   10800     1.001936    2.0720367   -99355.895   -99353.823 
   10810   0.99279572    2.0531344   -99355.848   -99353.795 
   10820   0.99779738     2.063478   -99355.835   -99353.771 
   10830   0.99726661    2.0623803   -99355.822   -99353.759 
   10840    1.0013517    2.0708285   -99355.818   -99353.747 
   10850    0.9965766    2.0609534   -99355.797   -99353.736 
   10860    1.0064489    2.0813695   -99355.814   -99353.733 
   10870    1.0026356    2.0734836    -99355.82   -99353.747 
   10880    1.0008092    2.0697066   -99355.849   -99353.779 
   10890    1.0083936    2.0853913   -99355.885   -99353.799 
   10900    1.0089172     2.086474   -99355.874   -99353.787 
   10910    1.0011728    2.0704584   -99355.837   -99353.766 
   10920    1.0093751     2.087421   -99355.842   -99353.755 
   10930    1.0060732    2.0805926   -99355.834   -99353.753 
   10940   0.99868282    2.0653091   -99355.818   -99353.752 
   10950    1.0030255    2.0742898   -99355.806   -99353.732 
   10960    1.0019009    2.0719643   -99355.769   -99353.697 
   10970    1.0038132    2.0759189   -99355.756   -99353.681 
   10980    1.0038083    2.0759088   -99355.762   -99353.686 
   10990    0.9961691    2.0601106    -99355.76     -99353.7 
   11000     1.011146    2.0910834   -99355.803   -99353.712 
   11010   0.99173923    2.0509495   -99355.775   -99353.724 
   11020    1.0058979    2.0802301   -99355.809   -99353.729 
   11030   0.99703409    2.0618995   -99355.783   -99353.721 
   11040   0.98693683     2.041018    -99355.74   -99353.699 
   11050   0.99405976    2.0557484    -99355.73   -99353.675 
   11060   0.99524231     2.058194   -99355.714   -99353.655 
   11070   0.99876893    2.0654872   -99355.707   -99353.642 
   11080   0.98908779    2.0454662   -99355.667   -99353.622 
   11090   0.99693167    2.0616876   -99355.653   -99353.592 
   11100   0.99837534    2.0646732   -99355.634   -99353.569 
   11110    1.0053983     2.079197   -99355.655   -99353.576 
   11120     1.006982     2.082472   -99355.686   -99353.604 
   11130    1.0082261    2.0850449   -99355.714   -99353.629 
   11140    1.0046099    2.0775665   -99355.712   -99353.635 
   11150    1.0074778    2.0834975   -99355.712   -99353.629 
   11160    1.0145404    2.0981031   -99355.725   -99353.627 
   11170    1.0023643    2.0729224   -99355.689   -99353.616 
   11180   0.99679363    2.0614022    -99355.65   -99353.588 
   11190   0.99662603    2.0610556   -99355.624   -99353.563 
   11200    1.0013074    2.0707369    -99355.62   -99353.549 
   11210   0.99547346     2.058672   -99355.603   -99353.544 
   11220    0.9991719    2.0663205   -99355.608   -99353.541 
   11230    1.0090722    2.0867948   -99355.622   -99353.535 
   11240   0.99516565    2.0580355   -99355.598    -99353.54 
   11250    1.0078976    2.0843655   -99355.642   -99353.558 
   11260   0.99711827    2.0620736   -99355.627   -99353.565 
   11270    1.0088521    2.0863395   -99355.643   -99353.556 
   11280   0.99886795    2.0656919   -99355.613   -99353.547 
   11290   0.99655468     2.060908   -99355.602   -99353.541 
   11300    1.0016234    2.0713902   -99355.609   -99353.538 
   11310    1.0000625    2.0681622   -99355.603   -99353.535 
   11320    1.0032252    2.0747029     -99355.6   -99353.525 
   11330   0.99232275    2.0521563   -99355.568   -99353.516 
   11340    1.0020072    2.0721841   -99355.586   -99353.514 
   11350   0.99375115    2.0551102   -99355.567   -99353.512 
   11360   0.99705518    2.0619431   -99355.573   -99353.511 
   11370   0.98887866    2.0450338   -99355.558   -99353.513 
   11380   0.99943717    2.0668691   -99355.582   -99353.515 
   11390    1.0014477    2.0710271   -99355.587   -99353.516 
   11400   0.98867465    2.0446119   -99355.546   -99353.502 
   11410   0.99951997    2.0670403   -99355.539   -99353.472 
   11420   0.98943116    2.0461763     -99355.5   -99353.454 
   11430   0.99164568     2.050756   -99355.501    -99353.45 
   11440   0.99385959    2.0553345   -99355.489   -99353.433 
   11450   0.99521519    2.0581379    -99355.46   -99353.402 
   11460   0.99534738    2.0584113   -99355.437   -99353.378 
   11470   0.99510681    2.0579138   -99355.429   -99353.371 
   11480   0.99627402    2.0603276   -99355.436   -99353.376 
   11490    1.0055314    2.0794721    -99355.46    -99353.38 
   11500   0.99842061    2.0647668   -99355.442   -99353.377 
   11510   0.98948749    2.0462928   -99355.409   -99353.362 
   11520    1.0062991    2.0810598   -99355.429   -99353.348 
   11530   0.99781778    2.0635201   -99355.403    -99353.34 
   11540    1.0056455    2.0797081   -99355.423   -99353.343 
   11550   0.99432509    2.0562972   -99355.409   -99353.353 
   11560    1.0000121     2.068058    -99355.42   -99353.352 
   11570    1.0121049    2.0930663   -99355.426   -99353.333 
   11580    1.0075652    2.0836782   -99355.393   -99353.309 
   11590    1.0009207    2.0699372    -99355.36    -99353.29 
   11600    1.0050952    2.0785701   -99355.362   -99353.284 
   11610    1.0112672    2.0913341   -99355.379   -99353.287 
   11620    1.0109227    2.0906215   -99355.375   -99353.284 
   11630    1.0022848    2.0727582    -99355.34   -99353.267 
   11640    1.0027059    2.0736289   -99355.322   -99353.248 
   11650    1.0069888    2.0824862   -99355.322    -99353.24 
   11660   0.99968993    2.0673918    -99355.32   -99353.253 
   11670   0.99505177    2.0577999   -99355.335   -99353.278 
   11680   0.99212425    2.0517457   -99355.338   -99353.286 
   11690    1.0027594    2.0737395   -99355.349   -99353.275 
   11700   0.99730411    2.0624579   -99355.325   -99353.263 
   11710    1.0060536    2.0805522    -99355.33   -99353.249 
   11720    1.0002393    2.0685278    -99355.31   -99353.242 
   11730    1.0070083    2.0825264   -99355.332   -99353.249 
   11740    1.0077443    2.0840485   -99355.334    -99353.25 
   11750    1.0079836    2.0845433   -99355.324   -99353.239 
   11760   0.99842136    2.0647684   -99355.304   -99353.239 
   11770    1.0007889    2.0696645   -99355.322   -99353.253 
   11780   0.99718271    2.0622068   -99355.335   -99353.272 
   11790   0.99374722    2.0551021   -99355.334   -99353.279 
   11800   0.99402725    2.0556812   -99355.322   -99353.266 
   11810   0.99058433    2.0485611   -99355.306   -99353.257 
   11820   0.99696067    2.0617476   -99355.314   -99353.252 
   11830   0.99727556    2.0623988   -99355.306   -99353.244 
   11840   0.99660465    2.0610114   -99355.302   -99353.241 
   11850   0.99648643    2.0607669   -99355.289   -99353.228 
   11860   0.99126563    2.0499701   -99355.256   -99353.206 
   11870    1.0021041    2.0723845   -99355.265   -99353.192 
   11880   0.99515362    2.0580106   -99355.245   -99353.187 
   11890    1.0006604    2.0693987    -99355.26   -99353.191 
   11900    1.0122857    2.0934403   -99355.295   -99353.202 
   11910    1.0106694    2.0900978   -99355.286   -99353.196 
   11920    1.0163168    2.1017768   -99355.284   -99353.182 
   11930    1.0102732    2.0892785    -99355.27    -99353.18 
   11940    1.0180718    2.1054061   -99355.295    -99353.19 
   11950    1.0128216    2.0945486   -99355.305    -99353.21 
   11960    1.0102841    2.0893008   -99355.309   -99353.219 
   11970    1.0091899     2.087038   -99355.287     -99353.2 
   11980    1.0129488    2.0948116   -99355.277   -99353.182 
   11990    1.0048788    2.0781226    -99355.25   -99353.172 
   12000    1.0030141    2.0742663    -99355.23   -99353.155 
   12010    1.0010215    2.0701455   -99355.216   -99353.146 
   12020   0.99599592    2.0597525   -99355.197   -99353.137 
   12030    1.0016386    2.0714218   -99355.194   -99353.123 
   12040   0.98774075    2.0426805   -99355.166   -99353.123 
   12050   0.98961936    2.0465655   -99355.173   -99353.127 
   12060   0.99940258    2.0667976   -99355.182   -99353.115 
   12070   0.99404384    2.0557155    -99355.16   -99353.104 
   12080   0.99112767    2.0496848   -99355.143   -99353.093 
   12090   0.99667942     2.061166    -99355.14   -99353.078 
   12100   0.99700019    2.0618294   -99355.126   -99353.065 
   12110     1.000633    2.0693421   -99355.115   -99353.045 
   12120    1.0161738    2.1014811   -99355.136   -99353.035 
   12130    1.0076608    2.0838759   -99355.129   -99353.045 
   12140    1.0058431    2.0801168   -99355.136   -99353.056 
   12150    1.0124358    2.0937507    -99355.16   -99353.067 
   12160    1.0105381    2.0898262   -99355.181   -99353.091 
   12170    1.0038301    2.0759539   -99355.188   -99353.112 
   12180   0.99868297    2.0653094   -99355.182   -99353.117 
   12190   0.99479308     2.057265   -99355.157     -99353.1 
   12200   0.98835865    2.0439584    -99355.11   -99353.066 
   12210   0.99686608     2.061552   -99355.111   -99353.049 
   12220   0.99801294    2.0639237   -99355.113   -99353.049 
   12230   0.99026729    2.0479055   -99355.083   -99353.035 
   12240    0.9868157    2.0407675   -99355.056   -99353.015 
   12250   0.99423641    2.0561138   -99355.053   -99352.997 
   12260   0.99279372    2.0531302   -99355.037   -99352.983 
   12270   0.99572484    2.0591919   -99355.059       -99353 
   12280   0.99958866    2.0671824   -99355.098    -99353.03 
   12290   0.98957327    2.0464702   -99355.098   -99353.051 
   12300   0.99859864     2.065135    -99355.13   -99353.065 
   12310   0.99787542    2.0636394   -99355.129   -99353.065 
   12320   0.99314741    2.0538617   -99355.116   -99353.062 
   12330   0.99184551    2.0511693    -99355.12   -99353.069 
   12340   0.98632683    2.0397565   -99355.101   -99353.061 
   12350   0.98812535    2.0434759   -99355.084    -99353.04 
   12360   0.98871917    2.0447039   -99355.065    -99353.02 
   12370   0.98773722    2.0426732   -99355.044   -99353.001 
   12380   0.99124554    2.0499286   -99355.041   -99352.991 
   12390   0.99953693    2.0670754   -99355.044   -99352.977 
   12400    1.0018792    2.0719194   -99355.018   -99352.946 
   12410   0.99796244    2.0638193   -99354.992   -99352.928 
   12420    1.0067254    2.0819413       -99355   -99352.918 
   12430    1.0015393    2.0712164    -99354.97   -99352.899 
   12440    1.0010012    2.0701036   -99354.962   -99352.891 
   12450    1.0039895    2.0762834   -99354.963   -99352.887 
   12460    1.0024246    2.0730472   -99354.946   -99352.872 
   12470    1.0002896     2.068632   -99354.934   -99352.865 
   12480     1.000072     2.068182    -99354.91   -99352.842 
   12490     1.007153    2.0828257   -99354.892   -99352.809 
   12500   0.99904819    2.0660647   -99354.866     -99352.8 
   12510    1.0012604    2.0706396   -99354.864   -99352.793 
   12520   0.99998817    2.0680086   -99354.854   -99352.785 
   12530    1.0045527    2.0774481   -99354.879   -99352.801 
   12540   0.99711677    2.0620704   -99354.886   -99352.824 
   12550   0.99687695    2.0615745   -99354.912   -99352.851 
   12560   0.99883302    2.0656197   -99354.951   -99352.885 
   12570   0.99398391    2.0555916   -99354.952   -99352.896 
   12580   0.98547721    2.0379995   -99354.922   -99352.884 
   12590   0.99492248    2.0575326   -99354.929   -99352.871 
   12600   0.98348295    2.0338752    -99354.88   -99352.846 
   12610   0.98559565    2.0382444   -99354.847   -99352.808 
   12620   0.99067445    2.0487475   -99354.818   -99352.769 
   12630    0.9945585    2.0567798   -99354.779   -99352.722 
   12640   0.99544128    2.0586055   -99354.751   -99352.692 
   12650   0.98905353    2.0453954    -99354.73   -99352.684 
   12660   0.99829082    2.0644984   -99354.733   -99352.669 
   12670   0.99785067    2.0635882   -99354.718   -99352.655 
   12680   0.98737734     2.041929     -99354.7   -99352.658 
   12690   0.98981454    2.0469692   -99354.706   -99352.659 
   12700   0.98920976    2.0457185     -99354.7   -99352.655 
   12710   0.98932979    2.0459667   -99354.693   -99352.647 
   12720   0.99720945    2.0622621   -99354.694   -99352.632 
   12730    0.9980072    2.0639119   -99354.673   -99352.609 
   12740    1.0017804    2.0717149   -99354.644   -99352.573 
   12750    1.0097241    2.0881429    -99354.62   -99352.532 
   12760   0.99644691    2.0606852   -99354.578   -99352.518 
   12770    1.0149668    2.0989849   -99354.629    -99352.53 
   12780    1.0053069    2.0790079   -99354.632   -99352.553 
   12790    1.0115708    2.0919619   -99354.655   -99352.563 
   12800    1.0071863    2.0828946   -99354.637   -99352.554 
   12810    1.0008792    2.0698513    -99354.63   -99352.561 
   12820     1.011906     2.092655   -99354.687   -99352.594 
   12830    1.0021861     2.072554   -99354.702   -99352.629 
   12840    1.0011078    2.0703241   -99354.718   -99352.648 
   12850   0.99905511     2.066079   -99354.702   -99352.636 
   12860   0.99937031    2.0667308   -99354.668   -99352.602 
   12870   0.99413056    2.0558949   -99354.635   -99352.579 
   12880   0.99466843    2.0570072   -99354.628   -99352.571 
   12890   0.99870239    2.0653496   -99354.629   -99352.563 
   12900   0.99205476     2.051602    -99354.61   -99352.558 
   12910    0.9922375      2.05198   -99354.602    -99352.55 
   12920   0.99557106    2.0588739   -99354.597   -99352.538 
   12930   0.99263073    2.0527932    -99354.59   -99352.537 
   12940    1.0041567    2.0766292   -99354.624   -99352.547 
   12950    1.0039113    2.0761217   -99354.649   -99352.573 
   12960    1.0108225    2.0904144   -99354.704   -99352.613 
   12970    1.0080786    2.0847398   -99354.719   -99352.634 
   12980    1.0084175    2.0854408    -99354.71   -99352.624 
   12990    1.0089146    2.0864687   -99354.692   -99352.605 
   13000     1.007201     2.082925   -99354.671   -99352.588 
   13010    1.0005488    2.0691679   -99354.644   -99352.575 
   13020    1.0024443    2.0730879    -99354.64   -99352.567 
   13030    1.0018275    2.0718123   -99354.626   -99352.554 
   13040    1.0002012    2.0684491   -99354.604   -99352.536 
   13050   0.99782337    2.0635317   -99354.579   -99352.515 
   13060   0.99202086    2.0515319   -99354.546   -99352.494 
   13070   0.99064515    2.0486869   -99354.536   -99352.487 
   13080    1.0050951    2.0785699   -99354.575   -99352.496 
   13090   0.98590491     2.038884   -99354.546   -99352.507 
   13100    0.9957072    2.0591554    -99354.57   -99352.511 
   13110   0.99797967    2.0638549   -99354.569   -99352.505 
   13120    1.0060915    2.0806305    -99354.58   -99352.499 
   13130    1.0086772    2.0859777    -99354.58   -99352.494 
   13140    1.0017361    2.0716233   -99354.552   -99352.481 
   13150    1.0006197    2.0693147    -99354.53   -99352.461 
   13160    1.0020394    2.0722506   -99354.515   -99352.443 
   13170    1.0002753    2.0686025   -99354.504   -99352.436 
   13180    0.9917755    2.0510245   -99354.479   -99352.428 
   13190   0.99354485    2.0546836   -99354.465   -99352.411 
   13200     1.000689    2.0694579    -99354.47     -99352.4 
   13210   0.99974819    2.0675123   -99354.476   -99352.409 
   13220    0.9955627    2.0588566   -99354.488   -99352.429 
   13230    1.0048858     2.078137   -99354.533   -99352.455 
   13240    1.0051123    2.0786055   -99354.537   -99352.458 
   13250   0.99424532    2.0561322   -99354.487   -99352.431 
   13260    1.0002215    2.0684911   -99354.485   -99352.417 
   13270    1.0218816    2.1132849   -99354.534   -99352.421 
   13280   0.99650066    2.0607963   -99354.473   -99352.412 
   13290    1.0104027    2.0895462   -99354.483   -99352.393 
   13300    1.0087411    2.0861099   -99354.459   -99352.373 
   13310    1.0047754    2.0779088   -99354.428    -99352.35 
   13320    1.0050151    2.0784045   -99354.414   -99352.336 
   13330    1.0066909    2.0818702   -99354.408   -99352.326 
   13340   0.99834062    2.0646014   -99354.379   -99352.314 
   13350    1.0033542    2.0749697   -99354.396   -99352.321 
   13360    1.0055492    2.0795089   -99354.414   -99352.335 
   13370   0.99249642    2.0525154    -99354.39   -99352.337 
   13380   0.99011698    2.0475947   -99354.386   -99352.338 
   13390   0.99157626    2.0506125   -99354.378   -99352.328 
   13400   0.99774981    2.0633796   -99354.378   -99352.315 
   13410   0.99785412    2.0635953   -99354.381   -99352.318 
   13420   0.99265533     2.052844   -99354.362   -99352.309 
   13430    1.0049697    2.0783106   -99354.364   -99352.286 
   13440    1.0067863    2.0820674    -99354.36   -99352.278 
   13450    1.0082154    2.0850227   -99354.361   -99352.276 
   13460    0.9951816    2.0580684   -99354.324   -99352.266 
   13470    0.9990476    2.0660635   -99354.329   -99352.263 
   13480   0.98947162      2.04626   -99354.309   -99352.262 
   13490   0.99553841    2.0588063   -99354.326   -99352.267 
   13500   0.99602068    2.0598037   -99354.327   -99352.268 
   13510   0.99247115    2.0524632   -99354.299   -99352.247 
   13520   0.99576165     2.059268   -99354.281   -99352.222 
   13530    1.0024393    2.0730777   -99354.281   -99352.208 
   13540    1.0027677    2.0737568   -99354.268   -99352.195 
   13550   0.99445473    2.0565653   -99354.241   -99352.185 
   13560    1.0096272    2.0879425   -99354.269   -99352.181 
   13570    1.0044659    2.0772686   -99354.248   -99352.171 
   13580    1.0037296    2.0757461   -99354.233   -99352.158 
   13590    1.0037876     2.075866    -99354.23   -99352.154 
   13600    1.0063276    2.0811188   -99354.235   -99352.154 
   13610    1.0066741    2.0818353   -99354.226   -99352.144 
   13620    1.0023404     2.072873   -99354.202   -99352.129 
   13630    1.0058847    2.0802027   -99354.207   -99352.127 
   13640    1.0159238    2.1009639   -99354.236   -99352.135 
   13650    1.0024914    2.0731853   -99354.204   -99352.131 
   13660    1.0068222    2.0821416     -99354.2   -99352.118 
   13670     1.009194    2.0870465   -99354.192   -99352.105 
   13680    0.9952677    2.0582465   -99354.154   -99352.096 
   13690    1.0002524     2.068555   -99354.173   -99352.104 
   13700   0.99861989    2.0651789   -99354.178   -99352.112 
   13710   0.98312532    2.0331357   -99354.132   -99352.099 
   13720   0.99582605    2.0594012   -99354.141   -99352.082 
   13730   0.99326522    2.0541053    -99354.12   -99352.066 
   13740    1.0028957    2.0740214   -99354.126   -99352.052 
   13750   0.99150998    2.0504754   -99354.105   -99352.054 
   13760    1.0019641    2.0720949   -99354.124   -99352.052 
   13770    1.0091139    2.0868809    -99354.12   -99352.033 
   13780    1.0063165    2.0810958   -99354.098   -99352.017 
   13790    1.0055372    2.0794841   -99354.077   -99351.997 
   13800   0.99937765     2.066746   -99354.041   -99351.974 
   13810    1.0045236     2.077388   -99354.035   -99351.957 
   13820    1.0019473    2.0720601   -99354.004   -99351.932 
   13830    1.0029654    2.0741656   -99353.988   -99351.914 
   13840   0.99842502     2.064776   -99353.973   -99351.908 
   13850   0.98953649    2.0463942   -99353.937   -99351.891 
   13860   0.99295262    2.0534589   -99353.928   -99351.875 
   13870    1.0033323    2.0749244   -99353.949   -99351.874 
   13880    1.0011883    2.0704905   -99353.941    -99351.87 
   13890   0.99383694    2.0552876   -99353.924   -99351.869 
   13900   0.99452046    2.0567012   -99353.924   -99351.867 
   13910    1.0019834    2.0721348   -99353.922    -99351.85 
   13920    0.9954602    2.0586446   -99353.892   -99351.834 
   13930    1.0082116    2.0850148   -99353.911   -99351.826 
   13940    1.0100402    2.0887966   -99353.903   -99351.814 
   13950    1.0100771    2.0888729   -99353.899    -99351.81 
   13960    1.0111406    2.0910721   -99353.896   -99351.805 
   13970    1.0090216    2.0866901    -99353.88   -99351.793 
   13980    1.0133364    2.0956132   -99353.892   -99351.797 
   13990   0.99971023    2.0674338   -99353.877    -99351.81 
   14000    1.0078905    2.0843509   -99353.896   -99351.811 
   14010   0.99186117    2.0512017   -99353.858   -99351.807 
   14020   0.99526458    2.0582401   -99353.856   -99351.798 
   14030    1.0058221    2.0800733   -99353.878   -99351.797 
   14040    1.0000628    2.0681629   -99353.879   -99351.811 
   14050   0.99933943     2.066667   -99353.873   -99351.806 
   14060    1.0031324    2.0745111   -99353.861   -99351.786 
   14070   0.99869348    2.0653311   -99353.839   -99351.774 
   14080   0.99723405     2.062313   -99353.831   -99351.768 
   14090    1.0045341    2.0774096   -99353.846   -99351.769 
   14100   0.99952092    2.0670423   -99353.839   -99351.772 
   14110    1.0030859    2.0744149   -99353.836   -99351.761 
   14120    1.0052361    2.0788615   -99353.826   -99351.747 
   14130    1.0021807    2.0725427   -99353.813    -99351.74 
   14140    1.0049186    2.0782048   -99353.811   -99351.733 
   14150    1.0066172    2.0817176   -99353.813   -99351.731 
   14160    1.0045969    2.0775396   -99353.807    -99351.73 
   14170    1.0088174    2.0862677   -99353.809   -99351.723 
   14180    1.0012678    2.0706548   -99353.796   -99351.725 
   14190   0.99950113    2.0670014   -99353.791   -99351.724 
   14200    1.0042512    2.0768247   -99353.791   -99351.714 
   14210    1.0086454    2.0859121   -99353.803   -99351.717 
   14220    1.0035088    2.0752893   -99353.799   -99351.724 
   14230    1.0002703     2.068592   -99353.793   -99351.725 
   14240     1.002698    2.0736126     -99353.8   -99351.726 
   14250    1.0072479     2.083022   -99353.798   -99351.715 
   14260    1.0048456     2.078054   -99353.778     -99351.7 
   14270    1.0101427    2.0890086   -99353.785   -99351.696 
   14280    1.0056559    2.0797296    -99353.77   -99351.691 
   14290    1.0020468    2.0722659   -99353.757   -99351.684 
   14300    1.0067787    2.0820517   -99353.769   -99351.687 
   14310    1.0029484    2.0741305   -99353.765   -99351.691 
   14320    1.0009226    2.0699411   -99353.781   -99351.711 
   14330    0.9958432    2.0594367   -99353.793   -99351.734 
   14340   0.98876076    2.0447899   -99353.774   -99351.729 
   14350   0.99186742    2.0512146   -99353.777   -99351.725 
   14360   0.99409834    2.0558282   -99353.791   -99351.735 
   14370   0.99124812    2.0499339   -99353.782   -99351.732 
   14380   0.99535416    2.0584253   -99353.775   -99351.716 
   14390   0.99934118    2.0666706   -99353.752   -99351.686 
   14400    1.0017114    2.0715724   -99353.716   -99351.644 
   14410   0.99971305    2.0674396   -99353.687   -99351.619 
   14420   0.99831721     2.064553   -99353.661   -99351.596 
   14430   0.99780502    2.0634938   -99353.622   -99351.559 
   14440   0.99901638    2.0659989   -99353.602   -99351.536 
   14450    1.0051637    2.0787117   -99353.619    -99351.54 
   14460    1.0092222    2.0871048   -99353.651   -99351.564 
   14470    1.0029074    2.0740457   -99353.659   -99351.585 
   14480    1.0033026     2.074863    -99353.64   -99351.565 
   14490    1.0040715     2.076453    -99353.61   -99351.534 
   14500    1.0018334    2.0718245   -99353.614   -99351.542 
   14510   0.98979338    2.0469254   -99353.602   -99351.555 
   14520   0.99919783    2.0663741    -99353.61   -99351.544 
   14530   0.99227249    2.0520523   -99353.565   -99351.513 
   14540   0.99479866    2.0572765   -99353.533   -99351.476 
   14550   0.99033532    2.0480462   -99353.506   -99351.458 
   14560   0.99770103    2.0632787    -99353.52   -99351.457 
   14570   0.99887193    2.0657002   -99353.518   -99351.452 
   14580    1.0068515    2.0822022   -99353.541   -99351.459 
   14590    1.0070038    2.0825171   -99353.555   -99351.472 
   14600    1.0059137    2.0802629   -99353.545   -99351.465 
   14610    1.0174978    2.1042192   -99353.549   -99351.445 
   14620     1.017359    2.1039319   -99353.523   -99351.419 
   14630    1.0238322    2.1173188   -99353.513   -99351.396 
   14640    1.0115701    2.0919604   -99353.501   -99351.409 
   14650    1.0117148    2.0922596   -99353.529   -99351.437 
   14660    1.0108303    2.0904305   -99353.528   -99351.438 
   14670    1.0002157     2.068479   -99353.487   -99351.419 
   14680    1.0020738    2.0723218   -99353.476   -99351.404 
   14690    0.9956768    2.0590925   -99353.467   -99351.408 
   14700   0.99495311    2.0575959   -99353.485   -99351.427 
   14710   0.99783926    2.0635646   -99353.499   -99351.436 
   14720    1.0052464    2.0788827   -99353.498   -99351.419 
   14730   0.99587386    2.0595001   -99353.453   -99351.393 
   14740    1.0006305     2.069337   -99353.453   -99351.384 
   14750   0.99777267    2.0634269   -99353.462   -99351.399 
   14760    1.0041861      2.07669   -99353.483   -99351.407 
   14770    1.0020157    2.0722016   -99353.464   -99351.391 
   14780   0.99973571    2.0674865   -99353.445   -99351.377 
   14790    1.0073936    2.0833233   -99353.454   -99351.371 
   14800    1.0125201    2.0939251   -99353.453   -99351.359 
   14810    1.0099465    2.0886028   -99353.422   -99351.334 
   14820    1.0100761    2.0888707   -99353.381   -99351.292 
   14830    1.0042351    2.0767914   -99353.342   -99351.266 
   14840    1.0045953    2.0775363   -99353.346   -99351.268 
   14850    1.0022045    2.0725921   -99353.338   -99351.265 
   14860   0.99834184    2.0646039   -99353.304   -99351.239 
   14870   0.99095493    2.0493276    -99353.26   -99351.211 
   14880   0.98830005    2.0438372   -99353.255   -99351.211 
   14890   0.99053714    2.0484635   -99353.294   -99351.246 
   14900   0.99250115    2.0525252   -99353.315   -99351.262 
   14910     1.002447    2.0730936   -99353.301   -99351.228 
   14920   0.99701423    2.0618584   -99353.253   -99351.191 
   14930    1.0059902    2.0804211   -99353.263   -99351.182 
   14940    1.0102544    2.0892396   -99353.271   -99351.182 
   14950    1.0155718    2.1002361   -99353.268   -99351.167 
   14960    1.0116382    2.0921013   -99353.227   -99351.135 
   14970    1.0069946    2.0824982   -99353.191   -99351.108 
   14980    1.0094474    2.0875707   -99353.205   -99351.117 
   14990    1.0126335    2.0941595   -99353.237   -99351.143 
   15000   0.99367387    2.0549504   -99353.207   -99351.152 
   15010   0.99698561    2.0617992   -99353.205   -99351.143 
   15020   0.98627208    2.0396433   -99353.177   -99351.138 
   15030    0.9908509    2.0491124   -99353.201   -99351.152 
   15040    0.9950343    2.0577638    -99353.22   -99351.163 
   15050   0.98930183    2.0459089   -99353.189   -99351.143 
   15060   0.98136846    2.0295024   -99353.152   -99351.122 
   15070   0.98623272    2.0395619   -99353.147   -99351.108 
   15080   0.99551852    2.0587652   -99353.127   -99351.068 
   15090   0.99625271    2.0602835   -99353.063   -99351.002 
   15100   0.99518537    2.0580762   -99352.999    -99350.94 
   15110   0.98806589    2.0433529   -99352.959   -99350.916 
   15120    0.9980484    2.0639971   -99352.994    -99350.93 
   15130    1.0002212    2.0684906   -99352.993   -99350.925 
   15140    1.0114764    2.0917667   -99352.968   -99350.876 
   15150   0.99845664    2.0648413   -99352.902   -99350.837 
   15160    1.0053321      2.07906   -99352.928   -99350.849 
   15170    1.0062655    2.0809903   -99352.983   -99350.902 
   15180    1.0038518    2.0759987   -99353.019   -99350.943 
   15190    1.0016012    2.0713443   -99352.999   -99350.928 
   15200   0.99489995     2.057486   -99352.944   -99350.887 
   15210    1.0025151    2.0732344   -99352.947   -99350.874 
   15220   0.99142864    2.0503072    -99352.94   -99350.889 
   15230     1.005134    2.0786503   -99352.969    -99350.89 
   15240    0.9976908    2.0632576   -99352.912   -99350.848 
   15250   0.99185685    2.0511928   -99352.839   -99350.788 
   15260     1.000816    2.0697206   -99352.817   -99350.748 
   15270    1.0003872    2.0688339   -99352.804   -99350.735 
   15280     1.006577    2.0816346   -99352.838   -99350.756 
   15290    0.9986041    2.0651463   -99352.866     -99350.8 
   15300   0.99717786    2.0621968   -99352.895   -99350.833 
   15310    1.0072323    2.0829897    -99352.93   -99350.847 
   15320    1.0084645    2.0855379   -99352.936    -99350.85 
   15330    1.0097799    2.0882582   -99352.934   -99350.845 
   15340    1.0036292    2.0755383   -99352.923   -99350.848 
   15350    1.0047814    2.0779211   -99352.928    -99350.85 
   15360     1.006322    2.0811071   -99352.919   -99350.838 
   15370     1.017632    2.1044967   -99352.928   -99350.823 
   15380    1.0079155    2.0844026   -99352.891   -99350.806 
   15390    1.0099015    2.0885098   -99352.875   -99350.787 
   15400    1.0020445    2.0722613   -99352.866   -99350.793 
   15410    1.0104656    2.0896762    -99352.91    -99350.82 
   15420     1.010066    2.0888499   -99352.919    -99350.83 
   15430     1.006605    2.0816923   -99352.907   -99350.825 
   15440    1.0041007    2.0765135   -99352.908   -99350.831 
   15450    1.0041049    2.0765221   -99352.924   -99350.847 
   15460    1.0029728    2.0741809    -99352.93   -99350.855 
   15470   0.99857478    2.0650857   -99352.896   -99350.831 
   15480    1.0094489    2.0875738   -99352.869   -99350.782 
   15490    1.0028978    2.0740257   -99352.822   -99350.748 
   15500   0.99639517    2.0605782   -99352.785   -99350.725 
   15510   0.99888594    2.0657292    -99352.76   -99350.694 
   15520   0.99458604    2.0568368   -99352.709   -99350.652 
   15530    1.0084799    2.0855697    -99352.68   -99350.595 
   15540    1.0041387    2.0765921   -99352.638   -99350.561 
   15550   0.99965838    2.0673266   -99352.644   -99350.577 
   15560    1.0047356    2.0778264   -99352.674   -99350.596 
   15570    1.0076304     2.083813   -99352.685   -99350.601 
   15580    1.0156185    2.1003326   -99352.705   -99350.605 
   15590    1.0126486    2.0941908   -99352.692   -99350.598 
   15600    1.0073855    2.0833065    -99352.67   -99350.587 
   15610    1.0109188    2.0906135   -99352.678   -99350.588 
   15620     1.005933    2.0803028   -99352.677   -99350.597 
   15630    1.0124551    2.0937905   -99352.703   -99350.609 
   15640    1.0057743    2.0799744    -99352.68     -99350.6 
   15650    1.0128797    2.0946687   -99352.659   -99350.564 
   15660    1.0032257     2.074704   -99352.617   -99350.542 
   15670   0.99057942     2.048551   -99352.594   -99350.546 
   15680    1.0097452    2.0881864   -99352.634   -99350.546 
   15690    1.0019085    2.0719799   -99352.606   -99350.534 
   15700    1.0007983    2.0696841   -99352.584   -99350.514 
   15710    1.0014363    2.0710034   -99352.575   -99350.504 
   15720    1.0057706    2.0799668   -99352.607   -99350.527 
   15730   0.99955715    2.0671172   -99352.616   -99350.549 
   15740    1.0034914    2.0752534   -99352.619   -99350.544 
   15750    1.0052264    2.0788414   -99352.601   -99350.522 
   15760    0.9956008    2.0589354   -99352.543   -99350.484 
   15770   0.99308165    2.0537257   -99352.509   -99350.455 
   15780   0.98690782     2.040958   -99352.496   -99350.455 
   15790   0.99638789    2.0605631   -99352.507   -99350.447 
   15800    0.9866436    2.0404116   -99352.456   -99350.415 
   15810   0.99478087    2.0572397   -99352.437    -99350.38 
   15820   0.99131667    2.0500756   -99352.396   -99350.346 
   15830   0.99591117    2.0595772   -99352.394   -99350.334 
   15840   0.99256594    2.0526592   -99352.402    -99350.35 
   15850    0.9963072    2.0603962   -99352.421   -99350.361 
   15860   0.99997948    2.0679906   -99352.433   -99350.365 
   15870    1.0040175    2.0763414   -99352.439   -99350.362 
   15880    1.0077643    2.0840898   -99352.426   -99350.342 
   15890    1.0074943    2.0835315   -99352.406   -99350.322 
   15900    1.0126164    2.0941242   -99352.395   -99350.301 
   15910     1.017195    2.1035929   -99352.355   -99350.251 
   15920    1.0101852    2.0890963   -99352.274   -99350.185 
   15930    1.0198869    2.1091598   -99352.236   -99350.127 
   15940     1.000198    2.0684425   -99352.165   -99350.097 
   15950    0.9969653    2.0617572   -99352.164   -99350.103 
   15960    1.0020293    2.0722297   -99352.194   -99350.122 
   15970    0.9973875    2.0626303   -99352.194   -99350.132 
   15980    1.0019969    2.0721626   -99352.208   -99350.135 
   15990   0.99334965    2.0542799   -99352.205    -99350.15 
   16000    1.0092532     2.087169   -99352.269   -99350.182 
   16010    0.9963947    2.0605772   -99352.259   -99350.199 
   16020    1.0065239    2.0815248   -99352.261    -99350.18 
   16030    1.0011964    2.0705073   -99352.206   -99350.136 
   16040    1.0015571    2.0712533   -99352.154   -99350.083 
   16050    1.0032873    2.0748312   -99352.123   -99350.048 
   16060    1.0103138    2.0893624   -99352.125   -99350.035 
   16070    1.0106843    2.0901285   -99352.114   -99350.024 
   16080     1.010362     2.089462   -99352.105   -99350.016 
   16090    1.0049659    2.0783027   -99352.101   -99350.023 
   16100    1.0083066    2.0852115   -99352.116   -99350.031 
   16110    1.0034491    2.0751659    -99352.12   -99350.045 
   16120    1.0033373    2.0749347   -99352.138   -99350.063 
   16130   0.99429323    2.0562313   -99352.127   -99350.071 
   16140    1.0008853    2.0698639   -99352.134   -99350.064 
   16150   0.99540033    2.0585208   -99352.104   -99350.046 
   16160   0.99724315    2.0623318   -99352.076   -99350.014 
   16170   0.99356678     2.054729   -99352.044   -99349.989 
   16180   0.99689853    2.0616191   -99352.029   -99349.968 
   16190   0.99441138    2.0564756   -99351.994   -99349.937 
   16200    0.9912704    2.0499799   -99351.948   -99349.898 
   16210   0.98943579    2.0461859   -99351.901   -99349.855 
   16220     1.007902    2.0843746   -99351.902   -99349.818 
   16230   0.99879199    2.0655349    -99351.87   -99349.804 
   16240    1.0072222    2.0829689   -99351.887   -99349.804 
   16250    1.0095112    2.0877025   -99351.886   -99349.798 
   16260    1.0038328    2.0759594   -99351.856    -99349.78 
   16270    1.0009252    2.0699464   -99351.834   -99349.764 
   16280    1.0149853    2.0990231   -99351.873   -99349.774 
   16290     1.015861    2.1008342   -99351.894   -99349.794 
   16300   0.99795169    2.0637971   -99351.835   -99349.771 
   16310    1.0093043    2.0872747   -99351.805   -99349.717 
   16320    1.0026918    2.0735999    -99351.76   -99349.686 
   16330    1.0069854     2.082479   -99351.767   -99349.685 
   16340    1.0003266    2.0687084   -99351.764   -99349.695 
   16350   0.98565433    2.0383658   -99351.733   -99349.694 
   16360    1.0004233    2.0689084   -99351.748   -99349.679 
   16370   0.99722973    2.0623041   -99351.745   -99349.683 
   16380    0.9944946    2.0566477   -99351.775   -99349.718 
   16390   0.99925733    2.0664972   -99351.816   -99349.749 
   16400   0.99591949    2.0595944   -99351.818   -99349.758 
   16410   0.99505079    2.0577979   -99351.803   -99349.745 
   16420   0.99612992    2.0600296   -99351.785   -99349.725 
   16430   0.99525692    2.0582242   -99351.773   -99349.715 
   16440   0.99075521    2.0489145   -99351.761   -99349.712 
   16450   0.99140529    2.0502589   -99351.752   -99349.702 
   16460   0.99857759    2.0650915   -99351.739   -99349.674 
   16470   0.98919812    2.0456944    -99351.67   -99349.624 
   16480    1.0004172    2.0688958   -99351.643   -99349.574 
   16490    1.0061708    2.0807945   -99351.637   -99349.556 
   16500    1.0057421    2.0799079   -99351.658   -99349.579 
   16510    1.0081421    2.0848712   -99351.696   -99349.611 
   16520    1.0146305    2.0982895   -99351.716   -99349.618 
   16530    1.0156653    2.1004294     -99351.7     -99349.6 
   16540    1.0176475    2.1045287   -99351.691   -99349.586 
   16550    1.0165324    2.1022225   -99351.707   -99349.605 
   16560    1.0122105    2.0932848   -99351.745   -99349.652 
   16570    1.0118435    2.0925257   -99351.757   -99349.665 
   16580    1.0047215    2.0777973   -99351.691   -99349.613 
   16590    1.0088391    2.0863127   -99351.632   -99349.546 
   16600    1.0047297    2.0778141   -99351.594   -99349.516 
   16610    1.0042351    2.0767913     -99351.6   -99349.523 
   16620    1.0044852    2.0773086   -99351.611   -99349.534 
   16630    1.0035234    2.0753196   -99351.601   -99349.526 
   16640   0.99450494    2.0566691   -99351.571   -99349.514 
   16650   0.99949637    2.0669915   -99351.586   -99349.519 
   16660   0.99977928    2.0675766   -99351.599   -99349.532 
   16670   0.99679191    2.0613986   -99351.602   -99349.541 
   16680   0.99773167    2.0633421   -99351.611   -99349.548 
   16690    1.0132815    2.0954997   -99351.651   -99349.556 
   16700    1.0027526    2.0737256   -99351.638   -99349.564 
   16710    1.0110084    2.0907987   -99351.653   -99349.562 
   16720   0.99786968    2.0636275   -99351.606   -99349.542 
   16730    1.0037254    2.0757372   -99351.604   -99349.528 
   16740     1.001505    2.0711454   -99351.615   -99349.544 
   16750   0.99797203    2.0638391    -99351.63   -99349.566 
   16760    1.0003283    2.0687121   -99351.632   -99349.563 
   16770    1.0022059    2.0725948   -99351.606   -99349.534 
   16780    1.0025637     2.073335   -99351.574     -99349.5 
   16790   0.99869619    2.0653367   -99351.564   -99349.499 
   16800    1.0021939    2.0725701   -99351.588   -99349.516 
   16810    1.0006802    2.0694398   -99351.578   -99349.508 
   16820   0.99024377    2.0478569   -99351.533   -99349.485 
   16830   0.99377147    2.0551522   -99351.524   -99349.469 
   16840    0.9916254    2.0507141   -99351.524   -99349.473 
   16850   0.99380835    2.0552285    -99351.54   -99349.485 
   16860   0.99870716    2.0653594   -99351.537   -99349.472 
   16870   0.99504188    2.0577795   -99351.491   -99349.433 
   16880   0.99723855    2.0623223   -99351.471   -99349.409 
   16890    1.0053515    2.0791001   -99351.476   -99349.397 
   16900    1.0050024    2.0783782   -99351.461   -99349.382 
   16910     1.002301    2.0727916    -99351.43   -99349.357 
   16920     1.004222    2.0767644   -99351.391   -99349.314 
   16930    1.0010654    2.0702364   -99351.354   -99349.284 
   16940    1.0014306    2.0709916   -99351.359   -99349.288 
   16950    1.0044067    2.0771464   -99351.376   -99349.299 
   16960   0.99887741    2.0657115    -99351.37   -99349.304 
   16970   0.99851286    2.0649576   -99351.358   -99349.293 
   16980   0.99347768    2.0545447   -99351.306   -99349.252 
   16990    1.0062534    2.0809653   -99351.295   -99349.214 
   17000    1.0076071    2.0837648   -99351.278   -99349.194 
   17010    1.0053731    2.0791447   -99351.263   -99349.184 
   17020    1.0194371    2.1082296   -99351.293   -99349.185 
   17030    1.0209241    2.1113048   -99351.289   -99349.178 
   17040    1.0236796    2.1170033   -99351.261   -99349.144 
   17050    1.0117991     2.092434   -99351.205   -99349.113 
   17060    1.0170625    2.1033189   -99351.206   -99349.103 
   17070    1.0217958    2.1131076   -99351.221   -99349.108 
   17080    1.0107073    2.0901762   -99351.217   -99349.126 
   17090    1.0046295    2.0776069   -99351.215   -99349.138 
   17100    1.0022237    2.0726318   -99351.209   -99349.137 
   17110    1.0098047    2.0883095   -99351.231   -99349.143 
   17120    1.0133538    2.0956491   -99351.251   -99349.155 
   17130    1.0036184     2.075516   -99351.261   -99349.185 
   17140   0.99581955    2.0593878   -99351.285   -99349.225 
   17150   0.99831423    2.0645468   -99351.292   -99349.227 
   17160    1.0006519    2.0693812    -99351.26   -99349.191 
   17170    1.0013648    2.0708556   -99351.222   -99349.151 
   17180   0.98895769    2.0451972   -99351.164   -99349.119 
   17190    1.0000617    2.0681607   -99351.154   -99349.086 
   17200    1.0010629    2.0702312   -99351.115   -99349.044 
   17210    1.0017593    2.0716713    -99351.07   -99348.998 
   17220    1.0023256    2.0728426   -99351.048   -99348.976 
   17230    1.0055127    2.0794334   -99351.062   -99348.983 
   17240    1.0059562    2.0803507   -99351.075   -99348.995 
   17250    1.0143826    2.0977768   -99351.096   -99348.999 
   17260    1.0067072    2.0819038   -99351.073   -99348.991 
   17270    1.0000986     2.068237    -99351.05   -99348.982 
   17280    1.0088852    2.0864079    -99351.08   -99348.994 
   17290    1.0059493    2.0803364   -99351.086   -99349.006 
   17300    1.0066483    2.0817819   -99351.062    -99348.98 
   17310    1.0055551    2.0795212   -99351.011   -99348.932 
   17320   0.99494122    2.0575713   -99350.946   -99348.889 
   17330    1.0038246    2.0759424    -99350.94   -99348.864 
   17340   0.99245929    2.0524386   -99350.911   -99348.859 
   17350    1.0046463    2.0776418   -99350.938   -99348.861 
   17360   0.99606159    2.0598883   -99350.928   -99348.868 
   17370    0.9947757     2.057229   -99350.935   -99348.878 
   17380   0.99849758     2.064926   -99350.937   -99348.872 
   17390    1.0048098    2.0779799   -99350.943   -99348.865 
   17400   0.99501187    2.0577174   -99350.922   -99348.864 
   17410   0.99663559    2.0610754    -99350.92   -99348.859 
   17420    1.0065068    2.0814894   -99350.944   -99348.863 
   17430   0.99709214    2.0620195    -99350.93   -99348.868 
   17440    1.0008509    2.0697927   -99350.918   -99348.848 
   17450   0.99795346    2.0638007   -99350.883    -99348.82 
   17460    1.0034082    2.0750813   -99350.868   -99348.793 
   17470   0.99808054    2.0640636    -99350.84   -99348.776 
   17480   0.99703796    2.0619075   -99350.847   -99348.785 
   17490   0.99377639    2.0551624   -99350.835    -99348.78 
   17500   0.99393341    2.0554871   -99350.797   -99348.741 
   17510   0.98891318    2.0451051   -99350.757   -99348.712 
   17520   0.99409533     2.055822    -99350.76   -99348.705 
   17530   0.99694972     2.061725   -99350.772    -99348.71 
   17540    0.9937322     2.055071   -99350.778   -99348.723 
   17550    1.0068472    2.0821933   -99350.791   -99348.709 
   17560    1.0004859    2.0690379   -99350.741   -99348.672 
   17570   0.99104832    2.0495207   -99350.707   -99348.657 
   17580    0.9950224    2.0577392   -99350.708    -99348.65 
   17590   0.98352953    2.0339716   -99350.668   -99348.634 
   17600   0.99611237    2.0599933   -99350.665   -99348.605 
   17610   0.98820942    2.0436498   -99350.593   -99348.549 
   17620   0.99077849    2.0489627   -99350.551   -99348.502 
   17630    0.9937169    2.0550394   -99350.547   -99348.492 
   17640    1.0006248    2.0693252   -99350.563   -99348.494 
   17650    1.0074768    2.0834953   -99350.581   -99348.498 
   17660    1.0025793    2.0733672   -99350.584    -99348.51 
   17670   0.99796258    2.0638196   -99350.581   -99348.517 
   17680    1.0048097    2.0779797   -99350.607   -99348.529 
   17690    1.0118979    2.0926383   -99350.638   -99348.545 
   17700     1.003246     2.074746   -99350.616   -99348.541 
   17710     1.010103    2.0889264   -99350.612   -99348.523 
   17720    1.0129771    2.0948701   -99350.592   -99348.497 
   17730       1.0174    2.1040168   -99350.565   -99348.461 
   17740    1.0105316    2.0898128   -99350.524   -99348.434 
   17750    1.0112519    2.0913023   -99350.509   -99348.417 
   17760   0.99430821    2.0562623   -99350.469   -99348.412 
   17770    1.0122882    2.0934454   -99350.514   -99348.421 
   17780    1.0087476    2.0861234   -99350.513   -99348.427 
   17790    1.0004692    2.0690035   -99350.502   -99348.433 
   17800    1.0117476    2.0923275   -99350.539   -99348.446 
   17810    1.0022009    2.0725846   -99350.538   -99348.465 
   17820    1.0126031    2.0940966   -99350.599   -99348.505 
   17830    1.0074701    2.0834815   -99350.625   -99348.541 
   17840   0.99216503    2.0518301   -99350.594   -99348.542 
   17850    1.0024962    2.0731952   -99350.607   -99348.534 
   17860   0.99671316    2.0612358   -99350.585   -99348.524 
   17870    1.0000061    2.0680456   -99350.573   -99348.505 
   17880   0.99759893    2.0630676   -99350.559   -99348.496 
   17890   0.99900483     2.065975    -99350.54   -99348.474 
   17900   0.99349549    2.0545815   -99350.483   -99348.428 
   17910   0.99347211    2.0545332   -99350.473   -99348.419 
   17920   0.99387655    2.0553696   -99350.495    -99348.44 
   17930   0.98792219    2.0430557   -99350.498   -99348.455 
   17940   0.98903867    2.0453647   -99350.508   -99348.463 
   17950    0.9950391    2.0577737   -99350.521   -99348.463 
   17960   0.99283365    2.0532128   -99350.521   -99348.468 
   17970    1.0071779    2.0828772   -99350.551   -99348.469 
   17980    1.0112144    2.0912248    -99350.52   -99348.429 
   17990    1.0113455    2.0914959   -99350.467   -99348.375 
   18000    1.0183805    2.1060446   -99350.457    -99348.35 
   18010    1.0102401    2.0892098    -99350.43   -99348.341 
   18020    1.0144745    2.0979669   -99350.418    -99348.32 
   18030    1.0106822    2.0901241    -99350.37    -99348.28 
   18040    1.0111521     2.091096   -99350.335   -99348.243 
   18050    1.0054302    2.0792628   -99350.327   -99348.248 
   18060    1.0030641    2.0743698   -99350.352   -99348.277 
   18070    1.0040007    2.0763067   -99350.371   -99348.295 
   18080     1.009763    2.0882233   -99350.394   -99348.306 
   18090     1.002636    2.0734845   -99350.388   -99348.314 
   18100    1.0039096    2.0761182   -99350.394   -99348.318 
   18110     1.003405    2.0750747   -99350.393   -99348.318 
   18120   0.99088937     2.049192   -99350.348   -99348.299 
   18130    1.0072799    2.0830882   -99350.353   -99348.269 
   18140   0.99616544    2.0601031   -99350.304   -99348.244 
   18150   0.99599356    2.0597476   -99350.261   -99348.201 
   18160   0.99257876    2.0526857   -99350.193    -99348.14 
   18170    1.0004303    2.0689229   -99350.153   -99348.084 
   18180   0.99061415    2.0486228    -99350.09   -99348.041 
   18190   0.98288401    2.0326366   -99350.068   -99348.036 
   18200   0.99823358      2.06438   -99350.123   -99348.058 
   18210    1.0035793    2.0754351   -99350.147   -99348.071 
   18220    1.0025322    2.0732697   -99350.146   -99348.073 
   18230    1.0021067    2.0723899   -99350.136   -99348.064 
   18240    1.0137163    2.0963987   -99350.137   -99348.041 
   18250    1.0165692    2.1022986   -99350.137   -99348.034 
   18260     1.007207    2.0829373   -99350.134   -99348.051 
   18270    1.0137443    2.0964568    -99350.16   -99348.064 
   18280      1.00728    2.0830883   -99350.139   -99348.056 
   18290    1.0085837    2.0857844   -99350.098   -99348.013 
   18300    1.0115659    2.0919518    -99350.06   -99347.968 
   18310    1.0029025    2.0740355   -99350.055   -99347.981 
   18320    1.0059684     2.080376   -99350.087   -99348.006 
   18330    1.0069639    2.0824345   -99350.087   -99348.004 
   18340    1.0038401    2.0759744    -99350.08   -99348.004 
   18350    1.0079159    2.0844035   -99350.097   -99348.013 
   18360    1.0136928    2.0963502   -99350.129   -99348.032 
   18370   0.99947733    2.0669522   -99350.119   -99348.052 
   18380    1.0085245     2.085662   -99350.123   -99348.037 
   18390   0.99441095    2.0564747   -99350.065   -99348.008 
   18400    1.0010255    2.0701538   -99350.072   -99348.002 
   18410   0.99672841    2.0612673   -99350.054   -99347.993 
   18420   0.99534449    2.0584053   -99350.009    -99347.95 
   18430    1.0021494    2.0724781   -99349.954   -99347.881 
   18440   0.99816817    2.0642448   -99349.889   -99347.825 
   18450   0.99566461    2.0590673   -99349.878   -99347.819 
   18460   0.99664147    2.0610875   -99349.902   -99347.841 
   18470    1.0041752    2.0766675   -99349.917    -99347.84 
   18480   0.99551077    2.0587492   -99349.873   -99347.815 
   18490   0.99805283    2.0640063   -99349.853   -99347.789 
   18500   0.99943457    2.0668637   -99349.861   -99347.794 
   18510    1.0004699    2.0690049   -99349.901   -99347.832 
   18520   0.99963938    2.0672873   -99349.924   -99347.857 
   18530   0.99743773    2.0627342   -99349.907   -99347.845 
   18540   0.99364316    2.0548869   -99349.867   -99347.812 
   18550   0.99601629    2.0597946   -99349.831   -99347.771 
   18560   0.99783692    2.0635597   -99349.791   -99347.727 
   18570   0.99400959    2.0556447   -99349.738   -99347.683 
   18580    1.0020373    2.0722462   -99349.725   -99347.653 
   18590    1.0002725    2.0685966   -99349.709    -99347.64 
   18600   0.99064641    2.0486895   -99349.653   -99347.604 
   18610   0.99859821    2.0651341   -99349.604   -99347.539 
   18620    1.0019528    2.0720715   -99349.567   -99347.494 
   18630   0.99701011    2.0618499   -99349.568   -99347.506 
   18640   0.99393131    2.0554828   -99349.609   -99347.554 
   18650   0.99088401    2.0491809   -99349.635   -99347.586 
   18660   0.99786001    2.0636075    -99349.64   -99347.577 
   18670    1.0010775    2.0702613   -99349.635   -99347.564 
   18680   0.99294964    2.0534527   -99349.625   -99347.572 
   18690   0.99719784    2.0622381    -99349.62   -99347.558 
   18700   0.99614626    2.0600634   -99349.573   -99347.513 
   18710   0.99685211    2.0615231   -99349.525   -99347.464 
   18720    1.0007803    2.0696467   -99349.494   -99347.424 
   18730     1.008971    2.0865853   -99349.481   -99347.394 
   18740   0.99989166     2.067809   -99349.425   -99347.357 
   18750    1.0074295    2.0833976   -99349.404    -99347.32 
   18760    1.0071515    2.0828225   -99349.408   -99347.325 
   18770    1.0063575    2.0811806   -99349.445   -99347.364 
   18780   0.99764509     2.063163   -99349.443   -99347.379 
   18790    1.0018733    2.0719071   -99349.447   -99347.375 
   18800    1.0063314    2.0811266   -99349.475   -99347.394 
   18810    1.0098376    2.0883775   -99349.522   -99347.434 
   18820    1.0035071    2.0752859   -99349.533   -99347.458 
   18830    1.0042165    2.0767528   -99349.507   -99347.431 
   18840    1.0075587    2.0836647   -99349.447   -99347.363 
   18850    1.0004044    2.0688694   -99349.391   -99347.322 
   18860     1.004308    2.0769421   -99349.414   -99347.337 
   18870    1.0050958    2.0785714   -99349.426   -99347.348 
   18880   0.99039986    2.0481797   -99349.365   -99347.317 
   18890   0.99907253     2.066115   -99349.349   -99347.283 
   18900   0.99796247    2.0638194   -99349.337   -99347.273 
   18910     1.005225    2.0788386   -99349.374   -99347.295 
   18920   0.99383595    2.0552856   -99349.392   -99347.337 
   18930    1.0019152    2.0719938   -99349.423   -99347.351 
   18940   0.99851902    2.0649703   -99349.407   -99347.342 
   18950   0.99588017    2.0595131     -99349.4    -99347.34 
   18960    1.0037891    2.0758691   -99349.411   -99347.335 
   18970     1.001447    2.0710254    -99349.39   -99347.319 
   18980   0.99526341    2.0582376   -99349.354   -99347.295 
   18990    1.0005378    2.0691452   -99349.316   -99347.247 
   19000    1.0039908    2.0762861   -99349.275   -99347.199 
   19010    1.0022988     2.072787   -99349.248   -99347.176 
   19020   0.99584306    2.0594364   -99349.215   -99347.156 
   19030    1.0053606    2.0791189   -99349.227   -99347.148 
   19040    1.0059676    2.0803742   -99349.241   -99347.161 
   19050    1.0012954     2.070712   -99349.241    -99347.17 
   19060     1.000128    2.0682977   -99349.247   -99347.179 
   19070     0.999775    2.0675678   -99349.267     -99347.2 
   19080    1.0053022    2.0789983   -99349.306   -99347.227 
   19090   0.99418725    2.0560121   -99349.314   -99347.258 
   19100    1.0003403    2.0687369   -99349.344   -99347.275 
   19110    0.9934491    2.0544856   -99349.328   -99347.274 
   19120    1.0065906    2.0816626   -99349.352   -99347.271 
   19130    1.0061328    2.0807159   -99349.353   -99347.272 
   19140   0.99082392    2.0490566    -99349.31   -99347.261 
   19150   0.99998677    2.0680057   -99349.296   -99347.228 
   19160    1.0052297    2.0788483    -99349.26   -99347.181 
   19170   0.99804652    2.0639932     -99349.2   -99347.136 
   19180    1.0013354    2.0707947   -99349.182   -99347.111 
   19190    1.0001481    2.0683393   -99349.177   -99347.109 
   19200    1.0034347    2.0751361   -99349.201   -99347.126 
   19210    1.0006761    2.0694313    -99349.22   -99347.151 
   19220   0.99757754    2.0630233    -99349.22   -99347.157 
   19230   0.99286782    2.0532835   -99349.196   -99347.142 
   19240   0.99711687    2.0620707   -99349.182    -99347.12 
   19250   0.99935709    2.0667035   -99349.167     -99347.1 
   19260    1.0024312    2.0730609   -99349.174   -99347.101 
   19270   0.99192261    2.0513288    -99349.16   -99347.109 
   19280   0.99796074    2.0638158   -99349.139   -99347.075 
   19290   0.99722372    2.0622916   -99349.059   -99346.996 
   19300   0.99463888    2.0569461   -99348.983   -99346.926 
   19310   0.99064255    2.0486816   -99348.965   -99346.916 
   19320   0.99976601    2.0675492    -99349.04   -99346.972 
   19330   0.99919028    2.0663585   -99349.089   -99347.022 
   19340   0.99666886    2.0611442   -99349.074   -99347.013 
   19350   0.99802397    2.0639466   -99349.051   -99346.987 
   19360    1.0032551    2.0747647   -99349.067   -99346.992 
   19370    1.0020271    2.0722252   -99349.089   -99347.017 
   19380   0.99897591    2.0659152   -99349.099   -99347.033 
   19390    1.0100722    2.0888628   -99349.099    -99347.01 
   19400    1.0028647    2.0739573   -99349.027   -99346.954 
   19410     1.004331    2.0769898   -99348.978   -99346.901 
   19420     1.006983    2.0824741   -99348.941   -99346.859 
   19430    1.0097737    2.0882454   -99348.903   -99346.815 
   19440    1.0022131    2.0726097   -99348.849   -99346.776 
   19450     1.003425    2.0751161   -99348.816   -99346.741 
   19460    1.0135558     2.096067   -99348.815   -99346.719 
   19470    1.0069752    2.0824581   -99348.805   -99346.723 
   19480   0.99881944    2.0655916   -99348.801   -99346.736 
   19490    1.0023171    2.0728249   -99348.844   -99346.771 
   19500     1.002159     2.072498   -99348.897   -99346.825 
   19510   0.99963724    2.0672829   -99348.914   -99346.847 
   19520   0.99458038    2.0568251   -99348.902   -99346.845 
   19530    1.0009026    2.0698998   -99348.906   -99346.836 
   19540   0.99399089     2.055606    -99348.85   -99346.794 
   19550    1.0012831    2.0706866   -99348.803   -99346.733 
   19560   0.99778253    2.0634472   -99348.721   -99346.657 
   19570   0.99215462    2.0518086   -99348.622    -99346.57 
   19580    1.0030873    2.0744177   -99348.602   -99346.528 
   19590    1.0011014    2.0703107   -99348.592   -99346.521 
   19600   0.99743316    2.0627248   -99348.556   -99346.493 
   19610    1.0053389    2.0790741   -99348.547   -99346.468 
   19620   0.99946972    2.0669364   -99348.527    -99346.46 
   19630    1.0066156    2.0817143   -99348.538   -99346.456 
   19640    1.0106716    2.0901022   -99348.576   -99346.486 
   19650    1.0048004    2.0779605   -99348.589   -99346.511 
   19660    1.0153672     2.099813   -99348.597   -99346.498 
   19670   0.99962128    2.0672499   -99348.556   -99346.489 
   19680    1.0078952    2.0843606   -99348.554   -99346.469 
   19690   0.99881415    2.0655807   -99348.506    -99346.44 
   19700   0.99999095    2.0680143   -99348.518    -99346.45 
   19710   0.99728017    2.0624084   -99348.522    -99346.46 
   19720   0.99185402    2.0511869   -99348.501    -99346.45 
   19730   0.99602532    2.0598133   -99348.508   -99346.449 
   19740   0.99015413    2.0476715   -99348.476   -99346.428 
   19750   0.99860869    2.0651558   -99348.474   -99346.409 
   19760   0.99502567     2.057746    -99348.49   -99346.432 
   19770   0.99168735    2.0508422     -99348.5   -99346.449 
   19780     1.000489    2.0690444   -99348.522   -99346.453 
   19790   0.99039716    2.0481741   -99348.517   -99346.469 
   19800    0.9996232    2.0672538   -99348.539   -99346.472 
   19810    1.0035799    2.0754364   -99348.544   -99346.469 
   19820    1.0046441    2.0776373   -99348.552   -99346.475 
   19830    1.0060941    2.0806358   -99348.538   -99346.457 
   19840    1.0130684     2.095059   -99348.505   -99346.409 
   19850     1.008207    2.0850054   -99348.423   -99346.338 
   19860     1.000289    2.0686306   -99348.331   -99346.263 
   19870    1.0074303    2.0833992     -99348.3   -99346.217 
   19880    1.0027098    2.0736371   -99348.249   -99346.176 
   19890   0.99966645    2.0673433   -99348.189   -99346.121 
   19900    1.0062581     2.080975   -99348.167   -99346.086 
   19910    1.0043911    2.0771141   -99348.156   -99346.079 
   19920     1.003708    2.0757014   -99348.192   -99346.116 
   19930    0.9977099     2.063297   -99348.262   -99346.198 
   19940    1.0054647    2.0793343   -99348.349    -99346.27 
   19950   0.99590362    2.0595616    -99348.36   -99346.301 
   19960   0.99605625    2.0598773   -99348.335   -99346.275 
   19970    1.0102524    2.0892354   -99348.299    -99346.21 
   19980   0.99326076    2.0540961   -99348.225   -99346.171 
   19990    1.0035491    2.0753726   -99348.206   -99346.131 
   20000   0.99516823    2.0580408   -99348.095   -99346.037 
   20010    1.0017187    2.0715874   -99348.017   -99345.945 
   20020    1.0020487    2.0722698   -99347.966   -99345.894 
   20030   0.99869242    2.0653289    -99347.95   -99345.885 
   20040    1.0026096    2.0734298   -99347.989   -99345.915 
   20050   0.99457598     2.056816   -99347.979   -99345.922 
   20060    1.0024146    2.0730266   -99347.982   -99345.909 
   20070    0.9965335    2.0608642   -99348.008   -99345.947 
   20080    1.0014879    2.0711101   -99348.069   -99345.997 
   20090   0.99171537    2.0509002    -99348.06    -99346.01 
   20100    1.0055759    2.0795641   -99348.063   -99345.983 
   20110   0.99679464    2.0614043   -99347.964   -99345.903 
   20120    1.0024768    2.0731553   -99347.898   -99345.824 
   20130    1.0108637    2.0904995   -99347.879   -99345.788 
   20140    1.0031092    2.0744629   -99347.819   -99345.745 
   20150   0.99355615     2.054707   -99347.754     -99345.7 
   20160    1.0060729    2.0805919   -99347.766   -99345.686 
   20170    1.0094022    2.0874772   -99347.785   -99345.697 
   20180   0.99894072    2.0658424   -99347.816   -99345.751 
   20190   0.99454748    2.0567571   -99347.882   -99345.826 
   20200   0.99828456    2.0644855   -99347.947   -99345.883 
   20210   0.99778854    2.0634597   -99348.018   -99345.955 
   20220    1.0053457    2.0790881   -99348.119    -99346.04 
   20230   0.99640594    2.0606004   -99348.139   -99346.078 
   20240    1.0001666    2.0683775   -99348.121   -99346.053 
   20250   0.99942648     2.066847   -99348.056   -99345.989 
   20260    1.0074879    2.0835182   -99348.015   -99345.931 
   20270     1.007346    2.0832248   -99348.005   -99345.922 
   20280    1.0097979    2.0882953   -99348.008    -99345.92 
   20290     1.001817    2.0717906   -99347.947   -99345.876 
   20300   0.99927833    2.0665406   -99347.882   -99345.815 
   20310    1.0069747    2.0824569   -99347.877   -99345.794 
   20320   0.99532896    2.0583732   -99347.893   -99345.834 
   20330   0.99644417    2.0606795   -99347.947   -99345.887 
   20340   0.99174967    2.0509711   -99347.954   -99345.903 
   20350   0.99479586    2.0572707   -99347.954   -99345.897 
   20360   0.99353748    2.0546684   -99347.945    -99345.89 
   20370   0.98996988    2.0472904    -99347.95   -99345.903 
   20380   0.98860682    2.0444716   -99347.952   -99345.908 
   20390    1.0062364    2.0809302   -99347.926   -99345.845 
   20400    1.0069288     2.082362   -99347.848   -99345.765 
   20410   0.99333639    2.0542525   -99347.811   -99345.756 
   20420    1.0053105    2.0790154   -99347.855   -99345.776 
   20430    1.0064091    2.0812872   -99347.852   -99345.771 
   20440    1.0004224    2.0689066   -99347.799   -99345.731 
   20450    1.0075769    2.0837023   -99347.757   -99345.673 
   20460   0.99931914     2.066625   -99347.753   -99345.686 
   20470    1.0039853    2.0762748   -99347.839   -99345.763 
   20480    1.0077159    2.0839898   -99347.889   -99345.805 
   20490   0.99782987    2.0635452   -99347.865   -99345.802 
   20500    1.0081089    2.0848026   -99347.854    -99345.77 
   20510    1.0017887    2.0717322   -99347.809   -99345.738 
   20520   0.99921643    2.0664126   -99347.802   -99345.735 
   20530    1.0107093    2.0901802   -99347.808   -99345.718 
   20540    1.0041418    2.0765985   -99347.742   -99345.666 
   20550    0.9927948    2.0531325   -99347.679   -99345.626 
   20560   0.99310433    2.0537726   -99347.653     -99345.6 
   20570    1.0032117    2.0746749   -99347.659   -99345.584 
   20580   0.99666251     2.061131   -99347.646   -99345.585 
   20590   0.99015281    2.0476688   -99347.609   -99345.561 
   20600    0.9938412    2.0552965   -99347.575    -99345.52 
   20610     1.001668    2.0714825    -99347.57   -99345.499 
   20620    1.0074469    2.0834335   -99347.584   -99345.501 
   20630    1.0004354    2.0689334   -99347.605   -99345.536 
   20640   0.99742245    2.0627026   -99347.638   -99345.575 
   20650    1.0093093    2.0872849   -99347.661   -99345.574 
   20660    1.0026069    2.0734241   -99347.609   -99345.536 
   20670   0.99658697    2.0609748   -99347.516   -99345.455 
   20680    1.0064987    2.0814727   -99347.439   -99345.358 
   20690    1.0094061    2.0874852   -99347.382   -99345.294 
   20700     1.006697    2.0818826    -99347.33   -99345.249 
   20710      1.00186    2.0718797   -99347.266   -99345.194 
   20720   0.99430313    2.0562518   -99347.197   -99345.141 
   20730    1.0067812    2.0820568   -99347.185   -99345.103 
   20740   0.99363266    2.0548652   -99347.181   -99345.126 
   20750   0.99895181    2.0658654   -99347.271   -99345.205 
   20760    1.0005348     2.069139   -99347.324   -99345.254 
   20770   0.99583379    2.0594172   -99347.311   -99345.251 
   20780    1.0079118     2.084395   -99347.303   -99345.219 
   20790   0.99933524    2.0666583   -99347.254   -99345.187 
   20800     1.008086    2.0847553   -99347.267   -99345.183 
   20810    1.0090702    2.0867906   -99347.254   -99345.167 
   20820   0.99795444    2.0638028   -99347.173   -99345.109 
   20830    1.0023918    2.0729795    -99347.12   -99345.047 
   20840    1.0123882    2.0936523   -99347.109   -99345.016 
   20850    1.0065347     2.081547    -99347.11   -99345.029 
   20860   0.99789617    2.0636823   -99347.136   -99345.072 
   20870    1.0001193    2.0682798   -99347.161   -99345.093 
   20880    1.0046647    2.0776797   -99347.142   -99345.065 
   20890   0.99636038    2.0605062   -99347.077   -99345.017 
   20900   0.99506089    2.0578188   -99347.045   -99344.987 
   20910    1.0024209    2.0730396   -99347.075   -99345.002 
   20920   0.99709574     2.062027   -99347.109   -99345.047 
   20930    1.0047837    2.0779258   -99347.139   -99345.062 
   20940    1.0101375    2.0889978   -99347.119    -99345.03 
   20950    1.0068686    2.0822376   -99347.051   -99344.969 
   20960    1.0057892    2.0800053   -99346.975   -99344.895 
   20970    1.0065975    2.0816769    -99346.92   -99344.838 
   20980   0.99695429    2.0617344   -99346.891   -99344.829 
   20990    1.0038696    2.0760354   -99346.918   -99344.842 
   21000   0.99885006    2.0656549   -99346.895    -99344.83 
   21010   0.98983661    2.0470148   -99346.817    -99344.77 
   21020   0.99623303    2.0602428   -99346.766   -99344.705 
   21030    1.0048559    2.0780751   -99346.788    -99344.71 
   21040   0.98297445    2.0328237   -99346.812    -99344.78 
   21050   0.99567048    2.0590795   -99346.903   -99344.844 
   21060    1.0015395    2.0712168   -99346.925   -99344.854 
   21070   0.99861252    2.0651637   -99346.896    -99344.83 
   21080   0.99376302    2.0551348   -99346.874   -99344.819 
   21090   0.99859211    2.0651215   -99346.881   -99344.816 
   21100    1.0033873    2.0750382   -99346.856   -99344.781 
   21110    1.0018857    2.0719327    -99346.79   -99344.718 
   21120    1.0130651    2.0950522   -99346.741   -99344.646 
   21130    1.0051947    2.0787759   -99346.658   -99344.579 
   21140    1.0065465    2.0815715   -99346.599   -99344.518 
   21150   0.99853075    2.0649946   -99346.533   -99344.468 
   21160    1.0016747    2.0714964   -99346.498   -99344.427 
   21170    1.0063828    2.0812329   -99346.473   -99344.392 
   21180   0.99915205    2.0662795   -99346.434   -99344.368 
   21190   0.99475684      2.05719   -99346.421   -99344.364 
   21200   0.99863155    2.0652031    -99346.43   -99344.365 
   21210    1.0131773    2.0952842   -99346.448   -99344.353 
   21220     1.016031    2.1011857   -99346.438   -99344.337 
   21230    0.9972213    2.0622866   -99346.389   -99344.327 
   21240    1.0072831    2.0830948   -99346.393    -99344.31 
   21250    1.0128586    2.0946252    -99346.37   -99344.276 
   21260    1.0027193    2.0736567   -99346.299   -99344.226 
   21270    1.0010099    2.0701217   -99346.247   -99344.176 
   21280     1.002873    2.0739744   -99346.211   -99344.137 
   21290    1.0022492    2.0726845   -99346.173   -99344.101 
   21300    1.0044886    2.0773156   -99346.147    -99344.07 
   21310    1.0146456    2.0983206   -99346.153   -99344.054 
   21320    1.0116093    2.0920415   -99346.163   -99344.071 
   21330     1.019832    2.1090463   -99346.222   -99344.113 
   21340    1.0198352    2.1090528   -99346.263   -99344.154 
   21350    1.0156311    2.1003587   -99346.278   -99344.178 
   21360    1.0240047    2.1176755   -99346.298    -99344.18 
   21370    1.0105612    2.0898739   -99346.266   -99344.176 
   21380    1.0182726    2.1058213   -99346.273   -99344.167 
   21390    1.0201666    2.1097384    -99346.24   -99344.131 
   21400    1.0085436    2.0857015   -99346.153   -99344.067 
   21410    1.0155421    2.1001746   -99346.111   -99344.011 
   21420    1.0182166    2.1057057   -99346.094   -99343.988 
   21430    1.0087285    2.0860839   -99346.082   -99343.996 
   21440    1.0080481    2.0846769    -99346.08   -99343.995 
   21450    1.0085042    2.0856199   -99346.064   -99343.978 
   21460    1.0056542    2.0797262   -99346.067   -99343.988 
   21470    1.0023605    2.0729147   -99346.104   -99344.031 
   21480    1.0026616    2.0735374   -99346.143    -99344.07 
   21490   0.99499587    2.0576844   -99346.151   -99344.094 
   21500    1.0045674    2.0774786   -99346.172   -99344.095 
   21510   0.99252488    2.0525743   -99346.127   -99344.074 
   21520   0.99560294    2.0589398   -99346.093   -99344.034 
   21530   0.99536599    2.0584498    -99346.01   -99343.951 
   21540    1.0023312    2.0728541    -99345.91   -99343.837 
   21550    1.0055929    2.0795993   -99345.832   -99343.753 
   21560   0.99528398    2.0582802    -99345.77   -99343.712 
   21570    1.0126228    2.0941374   -99345.769   -99343.675 
   21580    1.0109285    2.0906335   -99345.731    -99343.64 
   21590    1.0178476    2.1049424   -99345.717   -99343.612 
   21600     1.015929    2.1009747   -99345.694   -99343.593 
   21610    1.0257025    2.1211866   -99345.709   -99343.587 
   21620     1.038384    2.1474124   -99345.732   -99343.584 
   21630    1.0343602     2.139091   -99345.736   -99343.596 
   21640    1.0323023    2.1348353   -99345.741   -99343.607 
   21650    1.0274537    2.1248083   -99345.711   -99343.587 
   21660    1.0191457    2.1076271   -99345.674   -99343.566 
   21670    1.0234388    2.1165054   -99345.694   -99343.577 
   21680   0.99959676    2.0671991   -99345.661   -99343.593 
   21690   0.99422642    2.0560931   -99345.643   -99343.587 
   21700   0.99241614    2.0523494   -99345.613    -99343.56 
   21710   0.99578678      2.05932   -99345.592   -99343.532 
   21720   0.99472534    2.0571249   -99345.599   -99343.542 
   21730   0.99440213    2.0564565   -99345.628   -99343.572 
   21740   0.99671852    2.0612468   -99345.644   -99343.583 
   21750   0.98990436    2.0471549   -99345.628   -99343.581 
   21760    1.0096749     2.088041   -99345.657   -99343.569 
   21770    1.0044521    2.0772401   -99345.639   -99343.562 
   21780   0.99821909    2.0643501   -99345.644   -99343.579 
   21790    1.0089193    2.0864786   -99345.654   -99343.567 
   21800    1.0123086    2.0934877   -99345.614    -99343.52 
   21810    1.0011589    2.0704296   -99345.567   -99343.497 
   21820     1.000875    2.0698425   -99345.569   -99343.499 
   21830    1.0058593    2.0801503   -99345.574   -99343.494 
   21840     1.010765    2.0902954    -99345.55    -99343.46 
   21850    1.0022151     2.072614   -99345.484   -99343.411 
   21860    1.0069112    2.0823256   -99345.483   -99343.401 
   21870    1.0090785    2.0868077   -99345.515   -99343.428 
   21880   0.99771872    2.0633153   -99345.499   -99343.436 
   21890   0.99402121    2.0556687   -99345.473   -99343.418 
   21900   0.99300173    2.0535604   -99345.465   -99343.411 
   21910   0.98663573    2.0403953   -99345.483   -99343.443 
   21920   0.99303477    2.0536287   -99345.522   -99343.468 
   21930    0.9903074    2.0479884   -99345.482   -99343.434 
   21940   0.98973201    2.0467985   -99345.416   -99343.369 
   21950    1.0003301    2.0687156   -99345.384   -99343.315 
   21960   0.99959208    2.0671895   -99345.357   -99343.289 
   21970    1.0046937    2.0777399   -99345.365   -99343.287 
   21980   0.99805601    2.0640128   -99345.329   -99343.265 
   21990    1.0094375    2.0875501     -99345.3   -99343.213 
   22000     1.011807    2.0924504   -99345.261   -99343.168 
   22010    1.0032971    2.0748516   -99345.218   -99343.143 
   22020     1.002604    2.0734183   -99345.193    -99343.12 
   22030    1.0054875    2.0793815   -99345.165   -99343.086 
   22040    1.0017176     2.071585    -99345.12   -99343.048 
   22050    1.0049874    2.0783473   -99345.128    -99343.05 
   22060    1.0113359    2.0914762   -99345.191     -99343.1 
   22070    1.0106077    2.0899702   -99345.205   -99343.115 
   22080    1.0154053    2.0998918   -99345.172   -99343.072 
   22090    1.0176404    2.1045139    -99345.16   -99343.055 
   22100     1.017065    2.1033241   -99345.197   -99343.094 
   22110    1.0057183    2.0798588   -99345.216   -99343.137 
   22120    1.0114167    2.0916432   -99345.222   -99343.131 
   22130    1.0036413    2.0755634   -99345.132   -99343.057 
   22140    1.0015415     2.071221   -99345.045   -99342.973 
   22150   0.99041537    2.0482117   -99344.974   -99342.926 
   22160    0.9954624    2.0586491   -99344.951   -99342.893 
   22170   0.99520816    2.0581234   -99344.926   -99342.868 
   22180   0.99565324    2.0590438   -99344.913   -99342.854 
   22190   0.99531545    2.0583453   -99344.897   -99342.838 
   22200   0.99312028    2.0538056   -99344.885   -99342.831 
   22210   0.99481081    2.0573016   -99344.892   -99342.835 
   22220    1.0053618    2.0791214   -99344.906   -99342.827 
   22230    1.0035665    2.0754087   -99344.884   -99342.809 
   22240    1.0070573    2.0826279   -99344.863    -99342.78 
   22250    1.0004499    2.0689634   -99344.791   -99342.722 
   22260    1.0099092    2.0885256   -99344.749    -99342.66 
   22270    1.0126116    2.0941142   -99344.713   -99342.619 
   22280    1.0076339    2.0838201   -99344.664    -99342.58 
   22290    1.0154335    2.0999501   -99344.659   -99342.559 
   22300    1.0051443    2.0786716   -99344.647   -99342.568 
   22310    1.0016973    2.0715432   -99344.658   -99342.586 
   22320    1.0124814    2.0938451   -99344.704    -99342.61 
   22330   0.99969898    2.0674105   -99344.705   -99342.637 
   22340   0.99017157    2.0477075   -99344.714   -99342.667 
   22350   0.99219178    2.0518854   -99344.746   -99342.694 
   22360   0.98537971    2.0377978   -99344.746   -99342.708 
   22370   0.99083937    2.0490886    -99344.75   -99342.701 
   22380   0.99463628    2.0569407   -99344.723   -99342.666 
   22390   0.98765226    2.0424975   -99344.666   -99342.623 
   22400   0.99604857    2.0598614   -99344.649   -99342.589 
   22410    1.0171885    2.1035795   -99344.656   -99342.552 
   22420    1.0115477    2.0919141    -99344.61   -99342.518 
   22430    1.0127148    2.0943277   -99344.588   -99342.494 
   22440    1.0220774    2.1136899   -99344.578   -99342.465 
   22450    1.0214569    2.1124066   -99344.548   -99342.435 
   22460    1.0136222    2.0962042   -99344.514   -99342.418 
   22470    1.0096736    2.0880384   -99344.512   -99342.424 
   22480    1.0053284    2.0790523    -99344.53   -99342.451 
   22490    1.0036587    2.0755993   -99344.542   -99342.467 
   22500   0.99871442    2.0653744   -99344.522   -99342.457 
   22510    1.0025618     2.073331   -99344.507   -99342.434 
   22520   0.99818825    2.0642863   -99344.471   -99342.407 
   22530   0.99652599    2.0608487   -99344.463   -99342.402 
   22540    1.0124512    2.0937826   -99344.517   -99342.423 
   22550    1.0074989    2.0835411   -99344.517   -99342.433 
   22560    1.0025793    2.0733671   -99344.492   -99342.419 
   22570    1.0098212    2.0883437   -99344.485   -99342.396 
   22580    1.0042683      2.07686   -99344.478   -99342.401 
   22590    1.0019826    2.0721331   -99344.515   -99342.443 
   22600     1.009555    2.0877931   -99344.558    -99342.47 
   22610    1.0106569    2.0900719   -99344.559   -99342.469 
   22620    1.0062973    2.0810561   -99344.548   -99342.467 
   22630   0.99553809    2.0588057   -99344.501   -99342.442 
   22640   0.99567046    2.0590794   -99344.456   -99342.397 
   22650    1.0020243    2.0722193   -99344.445   -99342.373 
   22660   0.99688856    2.0615985   -99344.414   -99342.352 
   22670   0.99081815    2.0490447    -99344.39   -99342.341 
   22680   0.99557985     2.058892   -99344.384   -99342.325 
   22690    1.0008043    2.0696963   -99344.314   -99342.244 
   22700    1.0009268    2.0699498   -99344.204   -99342.134 
   22710   0.99971821    2.0674503    -99344.13   -99342.063 
   22720   0.99863678    2.0652139   -99344.091   -99342.025 
   22730    1.0050554    2.0784878   -99344.094   -99342.015 
   22740      0.99935    2.0666888   -99344.073   -99342.006 
   22750    1.0065297    2.0815367   -99344.058   -99341.976 
   22760    1.0009166    2.0699285   -99344.041   -99341.971 
   22770    1.0019305    2.0720255   -99344.073   -99342.001 
   22780    1.0053299    2.0790555   -99344.123   -99342.044 
   22790      1.00258    2.0733685   -99344.174   -99342.101 
   22800   0.99801052    2.0639187   -99344.195   -99342.131 
   22810   0.99499776    2.0576883   -99344.196   -99342.138 
   22820   0.99373638    2.0550797   -99344.212   -99342.157 
   22830   0.99052225    2.0484328   -99344.185   -99342.136 
   22840   0.98890358    2.0450853   -99344.108   -99342.063 
   22850    0.9979266    2.0637452   -99344.075   -99342.011 
   22860     0.994067    2.0557634   -99344.066    -99342.01 
   22870   0.99260525    2.0527405     -99344.1   -99342.048 
   22880    1.0007384    2.0695601   -99344.139   -99342.069 
   22890   0.99984905    2.0677209   -99344.096   -99342.028 
   22900    1.0034114    2.0750879   -99344.067   -99341.992 
   22910    1.0011839    2.0704813   -99344.082   -99342.011 
   22920    1.0013484    2.0708215   -99344.098   -99342.027 
   22930    1.0099078    2.0885228   -99344.123   -99342.034 
   22940    1.0067499    2.0819921   -99344.113   -99342.031 
   22950    1.0027469    2.0737138   -99344.069   -99341.996 
   22960    1.0020417    2.0722553   -99344.032    -99341.96 
   22970    1.0110537    2.0908924   -99344.027   -99341.936 
   22980    1.0031905    2.0746311   -99343.979   -99341.904 
   22990   0.99190796    2.0512985    -99343.92   -99341.869 
   23000    0.9975357    2.0629368   -99343.886   -99341.823 
   23010   0.99593532    2.0596272    -99343.83    -99341.77 
   23020   0.99833877    2.0645976   -99343.797   -99341.732 
   23030    0.9990159    2.0659979    -99343.79   -99341.724 
   23040   0.99617918    2.0601315   -99343.834   -99341.774 
   23050    1.0007431    2.0695698   -99343.907   -99341.838 
   23060   0.99887746    2.0657116   -99343.892   -99341.827 
   23070    1.0034842    2.0752386   -99343.841   -99341.766 
   23080    1.0061024    2.0806531   -99343.812   -99341.731 
   23090     1.008277    2.0851501   -99343.848   -99341.762 
   23100    1.0180962    2.1054565   -99343.938   -99341.832 
   23110    1.0138037    2.0965795   -99343.924   -99341.827 
   23120    1.0062779     2.081016   -99343.819   -99341.738 
   23130    1.0155666    2.1002252   -99343.755   -99341.655 
   23140    1.0074841    2.0835104   -99343.706   -99341.622 
   23150    1.0037359    2.0757589   -99343.708   -99341.632 
   23160   0.99938613    2.0667636   -99343.702   -99341.636 
   23170    1.0028771    2.0739831   -99343.658   -99341.584 
   23180   0.99962848    2.0672647   -99343.605   -99341.538 
   23190   0.99202072    2.0515316   -99343.585   -99341.534 
   23200   0.99510015       2.0579   -99343.575   -99341.517 
   23210      0.99597    2.0596989   -99343.543   -99341.484 
   23220   0.99751647     2.062897   -99343.518   -99341.455 
   23230    1.0046637    2.0776778    -99343.51   -99341.433 
   23240      1.00508    2.0785387   -99343.485   -99341.407 
   23250    1.0170904    2.1033766    -99343.43   -99341.327 
   23260    1.0036395    2.0755597   -99343.278   -99341.203 
   23270    1.0111991    2.0911931   -99343.213   -99341.122 
   23280    1.0158795    2.1008725   -99343.201     -99341.1 
   23290   0.98651706    2.0401499   -99343.148   -99341.108 
   23300   0.99934713    2.0666829    -99343.19   -99341.123 
   23310   0.99085745     2.049126   -99343.179    -99341.13 
   23320   0.99798112    2.0638579   -99343.202   -99341.138 
   23330   0.99630195    2.0603854   -99343.209   -99341.149 
   23340   0.99322542     2.054023   -99343.196   -99341.142 
   23350   0.99133428    2.0501121   -99343.177   -99341.127 
   23360   0.99488982     2.057465   -99343.174   -99341.117 
   23370   0.99806261    2.0640265   -99343.181   -99341.117 
   23380   0.99562741    2.0589904    -99343.17   -99341.111 
   23390   0.99592246    2.0596006   -99343.124   -99341.065 
   23400    1.0018659    2.0718917   -99343.072       -99341 
   23410    1.0037331    2.0757532   -99343.047   -99340.971 
   23420    1.0005296    2.0691282   -99343.057   -99340.988 
   23430    1.0064247    2.0813195   -99343.107   -99341.026 
   23440    1.0064772     2.081428   -99343.099   -99341.018 
   23450    1.0092932    2.0872517   -99343.029   -99340.942 
   23460    1.0051214    2.0786243   -99342.971   -99340.892 
   23470    1.0099518    2.0886138   -99343.004   -99340.916 
   23480    1.0176749    2.1045854   -99343.067   -99340.962 
   23490     1.008094    2.0847717   -99343.083   -99340.998 
   23500     1.006003    2.0804475   -99343.062   -99340.981 
   23510    1.0049574    2.0782851   -99342.985   -99340.907 
   23520    1.0035904    2.0754581   -99342.932   -99340.856 
   23530    0.9919186    2.0513205   -99342.904   -99340.852 
   23540   0.99157695    2.0506139   -99342.911   -99340.861 
   23550   0.99696985    2.0617666   -99342.911    -99340.85 
   23560   0.99959867    2.0672031   -99342.855   -99340.788 
   23570    1.0003749    2.0688084   -99342.801   -99340.732 
   23580    1.0019498    2.0720652   -99342.811   -99340.739 
   23590    1.0077643    2.0840899   -99342.855   -99340.771 
   23600     1.004205    2.0767291   -99342.864   -99340.787 
   23610    1.0093885    2.0874488   -99342.872   -99340.784 
   23620    1.0060163    2.0804749   -99342.858   -99340.777 
   23630    1.0066917    2.0818716   -99342.881   -99340.799 
   23640    1.0084709    2.0855512   -99342.902   -99340.817 
   23650   0.99702227     2.061875   -99342.855   -99340.793 
   23660   0.99938802    2.0667675   -99342.843   -99340.776 
   23670    1.0001129    2.0682665   -99342.841   -99340.773 
   23680     1.003094    2.0744315   -99342.802   -99340.728 
   23690   0.99731385     2.062478   -99342.704   -99340.642 
   23700    1.0037784    2.0758468   -99342.624   -99340.548 
   23710    1.0058621    2.0801561   -99342.595   -99340.515 
   23720     1.004355    2.0770394   -99342.639   -99340.561 
   23730    1.0079472    2.0844681   -99342.692   -99340.607 
   23740    1.0007004    2.0694815   -99342.683   -99340.613 
   23750   0.99850038    2.0649318   -99342.645   -99340.581 
   23760    0.9958413    2.0594327   -99342.573   -99340.513 
   23770   0.99422338    2.0560868   -99342.523   -99340.467 
   23780   0.99711165    2.0620599    -99342.52   -99340.457 
   23790   0.99830878    2.0645356   -99342.501   -99340.437 
   23800    1.0018731    2.0719067   -99342.496   -99340.424 
   23810   0.99796768    2.0638302   -99342.505   -99340.441 
   23820    1.0025697    2.0733473   -99342.511   -99340.438 
   23830    1.0063474    2.0811596   -99342.465   -99340.384 
   23840   0.99733984    2.0625318   -99342.371   -99340.309 
   23850     1.003381     2.075025   -99342.363   -99340.288 
   23860   0.99957996    2.0671644   -99342.407    -99340.34 
   23870   0.99626548    2.0603099   -99342.451   -99340.391 
   23880    1.0032504    2.0747549   -99342.466   -99340.391 
   23890   0.99664424    2.0610932   -99342.415   -99340.354 
   23900    0.9928563    2.0532596   -99342.362   -99340.309 
   23910   0.99306928    2.0537001   -99342.343    -99340.29 
   23920   0.98945744    2.0462307   -99342.344   -99340.298 
   23930   0.98426182     2.035486   -99342.342   -99340.307 
   23940   0.98377736    2.0344841   -99342.336   -99340.302 
   23950   0.99314129     2.053849   -99342.351   -99340.298 
   23960   0.99204386    2.0515795   -99342.356   -99340.305 
   23970    1.0005307    2.0691306   -99342.377   -99340.308 
   23980     1.002474    2.0731494   -99342.356   -99340.282 
   23990   0.99858008    2.0650966   -99342.318   -99340.253 
   24000    1.0074138    2.0833651   -99342.334   -99340.251 
   24010    0.9996742    2.0673593   -99342.333   -99340.266 
   24020   0.99884444    2.0656433   -99342.357   -99340.291 
   24030    1.0082388    2.0850711   -99342.383   -99340.298 
   24040   0.99184177    2.0511616   -99342.322   -99340.271 
   24050    1.0073102    2.0831508   -99342.335   -99340.252 
   24060    1.0034589    2.0751862   -99342.325    -99340.25 
   24070   0.99987522     2.067775   -99342.298    -99340.23 
   24080   0.99903654    2.0660406   -99342.272   -99340.206 
   24090    1.0070769    2.0826684   -99342.261   -99340.179 
   24100    1.0023963    2.0729886    -99342.22   -99340.147 
   24110    1.0084167    2.0854391   -99342.212   -99340.127 
   24120    1.0095546    2.0877924   -99342.196   -99340.108 
   24130    1.0068391    2.0821766   -99342.166   -99340.084 
   24140    1.0113724    2.0915516   -99342.157   -99340.065 
   24150    1.0130071    2.0949321   -99342.151   -99340.056 
   24160    1.0156839    2.1004679   -99342.139   -99340.039 
   24170    1.0101522    2.0890282   -99342.098   -99340.009 
   24180    1.0164972    2.1021498   -99342.089   -99339.987 
   24190    1.0088205    2.0862742   -99342.065   -99339.979 
   24200    1.0037408    2.0757692   -99342.069   -99339.993 
   24210    1.0160211    2.1011652   -99342.105   -99340.004 
   24220    1.0109868    2.0907542   -99342.081   -99339.991 
   24230     1.000194    2.0684343   -99342.053   -99339.985 
   24240   0.99970973    2.0674328   -99342.065   -99339.997 
   24250      1.00086    2.0698116   -99342.048   -99339.978 
   24260   0.99630537    2.0603924   -99341.957   -99339.896 
   24270    0.9964506    2.0606928   -99341.859   -99339.799 
   24280   0.99958358    2.0671719   -99341.797    -99339.73 
   24290    1.0017934    2.0717419   -99341.772   -99339.701 
   24300    1.0008531    2.0697973   -99341.787   -99339.717 
   24310    1.0055605    2.0795323   -99341.808   -99339.729 
   24320    1.0032706    2.0747968    -99341.76   -99339.685 
   24330    1.0005249    2.0691185   -99341.696   -99339.627 
   24340    1.0142454    2.0974931   -99341.692   -99339.594 
   24350    1.0125937    2.0940773   -99341.676   -99339.582 
   24360    1.0029704     2.074176   -99341.662   -99339.588 
   24370    1.0040944    2.0765004   -99341.662   -99339.585 
   24380    1.0089776    2.0865991   -99341.644   -99339.557 
   24390    1.0115488    2.0919164   -99341.619   -99339.527 
   24400    1.0101865    2.0890991   -99341.581   -99339.492 
   24410    1.0020617    2.0722967   -99341.517   -99339.445 
   24420   0.99669493    2.0611981   -99341.478   -99339.417 
   24430    1.0019719    2.0721111    -99341.49   -99339.418 
   24440    1.0062089    2.0808733   -99341.513   -99339.433 
   24450   0.99451138    2.0566824   -99341.493   -99339.437 
   24460   0.99590724    2.0595691   -99341.474   -99339.415 
   24470   0.99749105    2.0628445   -99341.438   -99339.375 
   24480   0.99755828    2.0629835    -99341.43   -99339.367 
   24490   0.99586335    2.0594783   -99341.436   -99339.377 
   24500    1.0053174    2.0790295   -99341.433   -99339.354 
   24510    1.0164681    2.1020897   -99341.415   -99339.313 
   24520    1.0033016    2.0748608    -99341.35   -99339.275 
   24530   0.99643018    2.0606505   -99341.269   -99339.209 
   24540    1.0027253    2.0736691   -99341.219   -99339.145 
   24550    1.0011248    2.0703592   -99341.173   -99339.103 
   24560    0.9954976    2.0587219   -99341.108    -99339.05 
   24570   0.99573789    2.0592189   -99341.062   -99339.003 
   24580   0.99514383    2.0579903   -99341.049   -99338.991 
   24590    0.9966079    2.0610181   -99341.058   -99338.997 
   24600    1.0010649    2.0702352   -99341.073   -99339.003 
   24610    1.0019369    2.0720386   -99341.067   -99338.995 
   24620   0.98908703    2.0454647   -99341.028   -99338.983 
   24630   0.99625117    2.0602803   -99341.049   -99338.989 
   24640     1.000239    2.0685273   -99341.068       -99339 
   24650    0.9924129    2.0523427   -99341.045   -99338.993 
   24660    1.0063301    2.0811238   -99341.039   -99338.958 
   24670    1.0046965    2.0777456    -99340.97   -99338.892 
   24680    1.0112966    2.0913947   -99340.909   -99338.817 
   24690    1.0108899    2.0905538   -99340.837   -99338.747 
   24700    1.0025885    2.0733862   -99340.763   -99338.689 
   24710    1.0026065    2.0734233   -99340.721   -99338.647 
   24720    1.0023164    2.0728234   -99340.662    -99338.59 
   24730     1.017846    2.1049392    -99340.63   -99338.525 
   24740    1.0062937    2.0810487    -99340.59   -99338.509 
   24750    1.0061049    2.0806581   -99340.604   -99338.524 
   24760     1.003704    2.0756931   -99340.626   -99338.551 
   24770    1.0146553    2.0983407   -99340.679    -99338.58 
   24780    1.0175363    2.1042987    -99340.68   -99338.576 
   24790    1.0058102    2.0800487   -99340.624   -99338.544 
   24800   0.99403867    2.0557048   -99340.573   -99338.518 
   24810    1.0038933    2.0760845   -99340.577   -99338.501 
   24820    1.0081811    2.0849518   -99340.601   -99338.516 
   24830   0.99847449    2.0648783   -99340.606   -99338.542 
   24840   0.99496421    2.0576189   -99340.555   -99338.497 
   24850   0.99820882    2.0643288   -99340.483   -99338.419 
   24860     1.008426    2.0854583   -99340.462   -99338.377 
   24870    1.0023052    2.0728004   -99340.437   -99338.364 
   24880    1.0105085    2.0897651   -99340.476   -99338.386 
   24890     1.014712     2.098458   -99340.522   -99338.424 
   24900    1.0099327    2.0885742   -99340.524   -99338.435 
   24910    1.0178509    2.1049493   -99340.544   -99338.439 
   24920    1.0110547    2.0908945   -99340.526   -99338.435 
   24930    1.0090172     2.086681   -99340.489   -99338.402 
   24940    1.0046169    2.0775809   -99340.455   -99338.378 
   24950    1.0089828    2.0866099   -99340.455   -99338.369 
   24960      1.01461    2.0982471   -99340.439   -99338.341 
   24970    1.0174995    2.1042227   -99340.411   -99338.307 
   24980    1.0100688    2.0888556   -99340.354   -99338.266 
   24990    1.0164458    2.1020435   -99340.325   -99338.223 
   25000    1.0153762    2.0998315   -99340.303   -99338.203 
   25010    1.0111299    2.0910502   -99340.262   -99338.171 
   25020     1.004357    2.0770435   -99340.201   -99338.124 
   25030    1.0053721    2.0791427   -99340.183   -99338.104 
   25040    1.0003649    2.0687877   -99340.181   -99338.112 
   25050    1.0183978    2.1060802   -99340.236    -99338.13 
   25060    1.0160976    2.1013235   -99340.235   -99338.134 
   25070    1.0217409    2.1129939   -99340.193    -99338.08 
   25080    1.0093475    2.0873639   -99340.108    -99338.02 
   25090    1.0179052    2.1050617   -99340.099   -99337.994 
   25100     1.020973    2.1114058   -99340.076   -99337.965 
   25110    1.0067218     2.081934   -99339.985   -99337.903 
   25120    1.0129199    2.0947518     -99339.9   -99337.805 
   25130    1.0074806    2.0835032   -99339.784   -99337.701 
   25140   0.99922077    2.0664216   -99339.705   -99337.638 
   25150    1.0054114     2.079224   -99339.672   -99337.592 
   25160   0.99938833    2.0667681   -99339.583   -99337.517 
   25170    0.9974534    2.0627666   -99339.518   -99337.455 
   25180   0.99654501     2.060888     -99339.5   -99337.439 
   25190    1.0024366     2.073072   -99339.516   -99337.442 
   25200   0.99110572    2.0496394     -99339.5    -99337.45 
   25210   0.99863677    2.0652139   -99339.513   -99337.448 
   25220    1.0035571    2.0753892   -99339.495    -99337.42 
   25230     1.002233     2.072651   -99339.451   -99337.379 
   25240    1.0003898    2.0688391   -99339.391   -99337.322 
   25250    1.0059714    2.0803822   -99339.319   -99337.238 
   25260    1.0026553    2.0735244   -99339.214    -99337.14 
   25270    1.0059928    2.0804263   -99339.135   -99337.055 
   25280    1.0101424    2.0890079   -99339.085   -99336.996 
   25290     1.010163    2.0890505   -99339.058   -99336.969 
   25300    1.0081097    2.0848042   -99339.044   -99336.959 
   25310      1.00577    2.0799655   -99339.019    -99336.94 
   25320    1.0022048    2.0725926   -99338.998   -99336.925 
   25330   0.99654841    2.0608951   -99339.011    -99336.95 
   25340    1.0093375    2.0873432    -99339.09   -99337.003 
   25350    1.0056958    2.0798122   -99339.109   -99337.029 
   25360    1.0083346    2.0852693   -99339.101   -99337.016 
   25370    1.0098942    2.0884947   -99339.083   -99336.994 
   25380    1.0144154    2.0978446   -99339.085   -99336.987 
   25390    1.0126574    2.0942089   -99339.094       -99337 
   25400    1.0045227    2.0773862   -99339.078   -99337.001 
   25410    1.0057097     2.079841   -99339.043   -99336.963 
   25420    1.0086677    2.0859582   -99339.002   -99336.916 
   25430    1.0041861    2.0766901   -99338.949   -99336.873 
   25440    1.0096143    2.0879158   -99338.904   -99336.816 
   25450     1.001243    2.0706036   -99338.814   -99336.743 
   25460    1.0084257    2.0854576   -99338.769   -99336.684 
   25470    1.0095251    2.0877312   -99338.741   -99336.653 
   25480    1.0120488    2.0929504   -99338.726   -99336.633 
   25490    1.0132235    2.0953797    -99338.71   -99336.615 
   25500    1.0181529    2.1055738   -99338.697   -99336.591 
   25510    1.0084629    2.0855347   -99338.637   -99336.551 
   25520    1.0069033    2.0823093   -99338.581   -99336.499 
   25530    1.0103711    2.0894808    -99338.52   -99336.431 
   25540    1.0052332    2.0788556   -99338.427   -99336.348 
   25550    1.0053998       2.0792   -99338.355   -99336.276 
   25560    1.0085933    2.0858043    -99338.28   -99336.195 
   25570    1.0067597    2.0820123   -99338.176   -99336.094 
   25580    1.0109894    2.0907595   -99338.098   -99336.007 
   25590    1.0064438    2.0813591   -99338.025   -99335.944 
   25600    1.0143827     2.097777   -99337.991   -99335.893 
   25610    1.0065473     2.081573   -99337.939   -99335.858 
   25620    1.0040942       2.0765   -99337.883   -99335.807 
   25630    1.0097068     2.088107   -99337.851   -99335.763 
   25640    1.0070557    2.0826245   -99337.853    -99335.77 
   25650    1.0231214    2.1158489    -99337.91   -99335.794 
   25660    1.0193711    2.1080932   -99337.899   -99335.791 
   25670    1.0306233     2.131363   -99337.867   -99335.735 
   25680    1.0345595    2.1395032    -99337.76    -99335.62 
   25690    1.0343153    2.1389983   -99337.613   -99335.474 
   25700     1.025341    2.1204391   -99337.453   -99335.333 
   25710    1.0273956     2.124688   -99337.327   -99335.202 
   25720     1.025391    2.1205424   -99337.204   -99335.083 
   25730    1.0194776    2.1083134   -99337.098    -99334.99 
   25740    1.0173632    2.1039408   -99337.022   -99334.918 
   25750    1.0074434    2.0834263   -99336.959   -99334.875 
   25760    1.0128669    2.0946422   -99336.943   -99334.848 
   25770    1.0057909    2.0800089   -99336.893   -99334.813 
   25780    1.0065497    2.0815781   -99336.865   -99334.784 
   25790    1.0141709     2.097339   -99336.858   -99334.761 
   25800    1.0039432    2.0761877   -99336.823   -99334.747 
   25810    1.0033931      2.07505   -99336.804   -99334.729 
   25820   0.99433424    2.0563161   -99336.733   -99334.677 
   25830   0.98898735    2.0452585   -99336.668   -99334.623 
   25840   0.99138941    2.0502261   -99336.639   -99334.588 
   25850   0.98837446    2.0439911   -99336.585   -99334.541 
   25860   0.98956089    2.0464446   -99336.541   -99334.494 
   25870    1.0018167    2.0717901   -99336.549   -99334.477 
   25880    1.0075102    2.0835644   -99336.551   -99334.467 
   25890    1.0066484    2.0817823   -99336.542    -99334.46 
   25900     1.005748    2.0799202   -99336.528   -99334.448 
   25910    1.0127124    2.0943227   -99336.503   -99334.409 
   25920    1.0111019    2.0909922   -99336.458   -99334.367 
   25930    1.0001857    2.0684172   -99336.404   -99334.335 
   25940   0.99434414    2.0563365   -99336.331   -99334.275 
   25950    1.0066957    2.0818799   -99336.275   -99334.193 
   25960   0.99733165    2.0625148   -99336.169   -99334.106 
   25970    0.9993039    2.0665935   -99336.076    -99334.01 
   25980   0.99706967     2.061973   -99335.989   -99333.927 
   25990    0.9987739    2.0654974   -99335.925   -99333.859 
   26000   0.99588394    2.0595209   -99335.882   -99333.822 
   26010   0.99821999    2.0643519   -99335.894   -99333.829 
   26020     1.003108    2.0744604   -99335.894    -99333.82 
   26030   0.99874084    2.0654291   -99335.843   -99333.777 
   26040   0.99742882    2.0627158   -99335.816   -99333.753 
   26050   0.99802598    2.0639507   -99335.815   -99333.751 
   26060   0.99593443    2.0596253   -99335.799   -99333.739 
   26070   0.99975176    2.0675197   -99335.764   -99333.696 
   26080    1.0000553    2.0681474   -99335.713   -99333.645 
   26090    1.0010638     2.070233   -99335.688   -99333.618 
   26100    1.0023686    2.0729314   -99335.683    -99333.61 
   26110    1.0136346    2.0962298   -99335.687    -99333.59 
   26120    1.0153077      2.09969    -99335.66    -99333.56 
   26130    1.0118566    2.0925529   -99335.612    -99333.52 
   26140    1.0180947    2.1054535   -99335.566   -99333.461 
   26150    1.0189356    2.1071925   -99335.497    -99333.39 
   26160    1.0203916    2.1102036   -99335.421   -99333.311 
   26170    1.0187625    2.1068345   -99335.353   -99333.246 
   26180    1.0243513    2.1183924   -99335.339    -99333.22 
   26190    1.0264931    2.1228216   -99335.328   -99333.205 
   26200    1.0330592    2.1364006   -99335.309   -99333.173 
   26210    1.0184153    2.1061166   -99335.229   -99333.123 
   26220    1.0205712     2.110575   -99335.209   -99333.098 
   26230    1.0262677    2.1223556   -99335.265   -99333.142 
   26240    1.0230043    2.1156067   -99335.322   -99333.206 
   26250    1.0199933    2.1093799   -99335.333   -99333.224 
   26260    1.0151301    2.0993225   -99335.305   -99333.205 
   26270    1.0142595    2.0975222   -99335.258   -99333.161 
   26280    1.0059813    2.0804025   -99335.207   -99333.127 
   26290    1.0046279    2.0776038    -99335.22   -99333.143 
   26300   0.99614373    2.0600582   -99335.212   -99333.152 
   26310   0.99542447    2.0585707   -99335.167   -99333.109 
   26320   0.99599476    2.0597501   -99335.111   -99333.051 
   26330   0.99660158     2.061005    -99335.07   -99333.009 
   26340   0.99991001    2.0678469   -99335.049   -99332.981 
   26350    1.0005532    2.0691771   -99335.021   -99332.952 
   26360    1.0077851    2.0841329   -99334.996   -99332.912 
   26370    1.0163219    2.1017873   -99335.007   -99332.905 
   26380     1.023589    2.1168158   -99335.044   -99332.927 
   26390    1.0272429    2.1243723   -99335.067   -99332.943 
   26400    1.0251936    2.1201343   -99335.042   -99332.922 
   26410    1.0209898    2.1114406   -99334.984   -99332.872 
   26420    1.0221676    2.1138764   -99334.919   -99332.805 
   26430    1.0204969    2.1104213   -99334.852   -99332.742 
   26440    1.0235465     2.116728   -99334.816   -99332.699 
   26450    1.0206633    2.1107655   -99334.773   -99332.663 
   26460    1.0221337    2.1138062   -99334.739   -99332.625 
   26470    1.0286398    2.1272612   -99334.706   -99332.579 
   26480    1.0331744    2.1366389   -99334.676   -99332.539 
   26490    1.0327997    2.1358639   -99334.669   -99332.533 
   26500    1.0347031    2.1398003   -99334.676   -99332.536 
   26510    1.0329016    2.1360746   -99334.655   -99332.519 
   26520    1.0396121    2.1499522   -99334.621   -99332.471 
   26530    1.0309602    2.1320599   -99334.539   -99332.407 
   26540    1.0440171    2.1590618   -99334.524   -99332.365 
   26550    1.0424747    2.1558722     -99334.5   -99332.344 
   26560    1.0406599     2.152119   -99334.465   -99332.313 
   26570    1.0448373    2.1607581   -99334.428   -99332.268 
   26580    1.0518814    2.1753254    -99334.37   -99332.195 
   26590    1.0557548    2.1833359   -99334.283   -99332.099 
   26600    1.0726488    2.2182731   -99334.243   -99332.025 
   26610    1.0719056    2.2167362   -99334.196    -99331.98 
   26620    1.0736741    2.2203936   -99334.138   -99331.917 
   26630    1.0774776    2.2282594   -99334.035   -99331.807 
   26640    1.0920024     2.258297   -99333.902   -99331.643 
   26650    1.1039839    2.2830753   -99333.743    -99331.46 
   26660    1.1085176    2.2924511   -99333.587   -99331.295 
   26670     1.107319    2.2899723   -99333.443   -99331.153 
   26680    1.1213696    2.3190294   -99333.355   -99331.036 
   26690    1.1230824    2.3225716    -99333.24   -99330.918 
   26700     1.120059    2.3163191   -99333.077    -99330.76 
   26710    1.1166255    2.3092184   -99332.895   -99330.586 
   26720    1.1052545    2.2857028   -99332.753   -99330.467 
   26730    1.0970742    2.2687857   -99332.696   -99330.427 
   26740    1.1021302    2.2792418   -99332.657   -99330.378 
   26750    1.1027173    2.2804558   -99332.527   -99330.246 
   26760    1.1050417    2.2852627   -99332.368   -99330.083 
   26770    1.1144291    2.3046763   -99332.258   -99329.953 
   26780    1.1030826    2.2812112   -99332.145   -99329.864 
   26790     1.093266    2.2609102   -99332.049   -99329.788 
   26800    1.0946729    2.2638198   -99331.967   -99329.703 
   26810     1.079697    2.2328492   -99331.867   -99329.634 
   26820    1.0734532    2.2199367   -99331.818   -99329.598 
   26830    1.0685637     2.209825   -99331.764   -99329.554 
   26840    1.0616085    2.1954415   -99331.688   -99329.493 
   26850      1.06727    2.2071496    -99331.66   -99329.453 
   26860     1.085592    2.2450402   -99331.669   -99329.424 
   26870    1.0827845    2.2392342   -99331.626   -99329.386 
   26880    1.0943604    2.2631734   -99331.598   -99329.335 
   26890    1.0956808    2.2659042   -99331.523   -99329.257 
   26900    1.1049938    2.2851637    -99331.46   -99329.175 
   26910    1.0851619    2.2441507   -99331.337   -99329.093 
   26920    1.0683103    2.2093009   -99331.192   -99328.983 
   26930    1.0514492    2.1744318   -99331.028   -99328.853 
   26940    1.0407511    2.1523076   -99330.871   -99328.719 
   26950    1.0373282     2.145229   -99330.721   -99328.576 
   26960    1.0370782    2.1447119   -99330.579   -99328.435 
   26970    1.0371077    2.1447731    -99330.46   -99328.315 
   26980    1.0608448    2.1938621   -99330.381   -99328.187 
   26990    1.0751638    2.2234742   -99330.281   -99328.057 
   27000    1.0776924    2.2287035   -99330.176   -99327.947 
   27010    1.0806806    2.2348832   -99330.092   -99327.857 
   27020    1.0726251    2.2182242    -99329.97   -99327.751 
   27030    1.0645238    2.2014704   -99329.823   -99327.622 
   27040    1.0429857    2.1569288   -99329.652   -99327.495 
   27050    1.0274951    2.1248939   -99329.518   -99327.393 
   27060    1.0183829    2.1060495   -99329.413   -99327.307 
   27070    1.0166244    2.1024128   -99329.301   -99327.199 
   27080    1.0154075    2.0998963   -99329.166   -99327.066 
   27090    1.0121962    2.0932551   -99329.045   -99326.952 
   27100    1.0032823     2.074821    -99328.93   -99326.855 
   27110    1.0025083    2.0732203   -99328.803   -99326.729 
   27120    1.0107954    2.0903584   -99328.662   -99326.572 
   27130    1.0110285    2.0908403   -99328.513   -99326.422 
   27140    1.0122362     2.093338   -99328.391   -99326.298 
   27150    1.0174786    2.1041793   -99328.302   -99326.198 
   27160    1.0245009    2.1187017   -99328.212   -99326.094 
   27170    1.0121681    2.0931971   -99328.078   -99325.985 
   27180    1.0159619    2.1010428   -99327.994   -99325.893 
   27190    1.0113029    2.0914078   -99327.903   -99325.811 
   27200    1.0083088     2.085216    -99327.83   -99325.745 
   27210    1.0091594    2.0869751   -99327.781   -99325.695 
   27220    1.0183212    2.1059218   -99327.709   -99325.603 
   27230    1.0173354    2.1038833   -99327.577   -99325.473 
   27240    1.0216593    2.1128252   -99327.493    -99325.38 
   27250    1.0280982    2.1261412   -99327.437    -99325.31 
   27260    1.0311179     2.132386   -99327.341   -99325.208 
   27270    1.0284142    2.1267945   -99327.226   -99325.099 
   27280    1.0181808    2.1056316   -99327.133   -99325.027 
   27290    1.0124336    2.0937463   -99327.089   -99324.995 
   27300      1.00077    2.0696255   -99327.033   -99324.963 
   27310   0.98675257    2.0406369   -99326.933   -99324.893 
   27320   0.98292636    2.0327242    -99326.84   -99324.808 
   27330   0.97835417    2.0232688   -99326.746   -99324.722 
   27340   0.97371174    2.0136681   -99326.626   -99324.613 
   27350   0.97625702    2.0189318   -99326.498   -99324.479 
   27360   0.97744876    2.0213963   -99326.362   -99324.341 
   27370   0.98098822    2.0287161   -99326.228     -99324.2 
   27380   0.97808767    2.0227176   -99326.069   -99324.047 
   27390   0.98854752     2.044349   -99325.906   -99323.862 
   27400    1.0069512    2.0824083   -99325.766   -99323.684 
   27410    1.0301874    2.1304615   -99325.655   -99323.525 
   27420    1.0441899    2.1594192   -99325.558   -99323.399 
   27430    1.0681426    2.2089543   -99325.488   -99323.279 
   27440    1.0765188    2.2262764   -99325.364   -99323.138 
   27450    1.0809278    2.2353944   -99325.206   -99322.971 
   27460    1.0853076     2.244452   -99325.061   -99322.817 
   27470    1.0880936    2.2502134   -99324.923   -99322.673 
   27480    1.0958663    2.2662876   -99324.778   -99322.512 
   27490    1.0949499    2.2643926   -99324.566   -99322.302 
   27500    1.0995789    2.2739654   -99324.307   -99322.033 
   27510    1.1051285    2.2854422   -99324.043   -99321.758 
   27520    1.1017859    2.2785297   -99323.815   -99321.537 
   27530    1.1027942    2.2806149   -99323.639   -99321.358 
   27540    1.0929798    2.2603184   -99323.454   -99321.194 
   27550    1.0963285    2.2672436   -99323.286   -99321.019 
   27560     1.089918    2.2539865   -99323.135   -99320.881 
   27570    1.1006219    2.2761224   -99323.056    -99320.78 
   27580     1.100311    2.2754795   -99322.962   -99320.687 
   27590    1.1049817    2.2851386   -99322.838   -99320.553 
   27600    1.1201729    2.3165546   -99322.702   -99320.386 
   27610    1.1170184     2.310031   -99322.516   -99320.206 
   27620    1.1344131    2.3460038   -99322.375   -99320.029 
   27630    1.1440613    2.3659566   -99322.226    -99319.86 
   27640    1.1540898    2.3866959   -99322.045   -99319.658 
   27650    1.1668674    2.4131204   -99321.843   -99319.429 
   27660     1.175976    2.4319572   -99321.644   -99319.212 
   27670    1.1833157    2.4471359   -99321.484   -99319.037 
   27680    1.1858594    2.4523965   -99321.351   -99318.898 
   27690    1.1742738    2.4284371   -99321.199    -99318.77 
   27700    1.1651391    2.4095461   -99321.058   -99318.648 
   27710     1.154814    2.3881935   -99320.932   -99318.544 
   27720    1.1277447    2.3322132   -99320.793   -99318.461 
   27730     1.107689    2.2907375   -99320.658   -99318.367 
   27740    1.0932812    2.2609417   -99320.513   -99318.252 
   27750     1.085722    2.2453091    -99320.35   -99318.104 
   27760    1.0778904    2.2291131   -99320.165   -99317.936 
   27770    1.0793616    2.2321554   -99319.978   -99317.746 
   27780    1.0929693    2.2602967   -99319.756   -99317.496 
   27790    1.0944607     2.263381   -99319.469   -99317.205 
   27800    1.0953053    2.2651277   -99319.187   -99316.922 
   27810    1.0906622    2.2555254   -99318.903   -99316.648 
   27820    1.0920458    2.2583869    -99318.64   -99316.381 
   27830    1.0948128     2.264109   -99318.362   -99316.098 
   27840    1.0975376     2.269744   -99318.057   -99315.788 
   27850    1.1011355    2.2771846   -99317.805   -99315.528 
   27860     1.107117    2.2895546   -99317.611   -99315.321 
   27870    1.1143189    2.3044483   -99317.399   -99315.095 
   27880    1.1189189    2.3139613   -99317.126   -99314.812 
   27890    1.1251162    2.3267774   -99316.837    -99314.51 
   27900    1.1204182    2.3170618    -99316.58   -99314.263 
   27910    1.1151061    2.3060762   -99316.372   -99314.066 
   27920    1.1108265     2.297226   -99316.124   -99313.827 
   27930    1.1114631    2.2985425   -99315.821   -99313.522 
   27940    1.1136776    2.3031222   -99315.518   -99313.215 
   27950    1.1217931    2.3199053   -99315.228   -99312.908 
   27960    1.1288415    2.3344815   -99314.924    -99312.59 
   27970    1.1330354    2.3431547   -99314.615   -99312.272 
   27980    1.1512438    2.3808102   -99314.324   -99311.943 
   27990    1.1597521    2.3984056   -99314.014   -99311.616 
   28000    1.1840192    2.4485908   -99313.789   -99311.341 
   28010    1.2113114    2.5050319   -99313.567   -99311.062 
   28020    1.2369506    2.5580548   -99313.303   -99310.745 
   28030    1.2590096    2.6036735   -99312.987   -99310.383 
   28040    1.2781483    2.6432529   -99312.631   -99309.987 
   28050    1.3010538    2.6906224   -99312.264   -99309.574 
   28060     1.314395    2.7182123   -99311.877   -99309.158 
   28070    1.3217766    2.7334778   -99311.448   -99308.715 
   28080    1.3428061    2.7769674   -99310.995   -99308.218 
   28090    1.3746052     2.842729   -99310.528   -99307.686 
   28100    1.4183093    2.9331105   -99310.055   -99307.122 
   28110     1.460785    3.0209517    -99309.55   -99306.529 
   28120    1.4989843    3.0999492   -99309.028   -99305.928 
   28130    1.5347478    3.1739092   -99308.503   -99305.329 
   28140    1.5738251    3.2547224   -99307.971   -99304.716 
   28150    1.6010044    3.3109301    -99307.36   -99304.049 
   28160    1.6369414    3.3852488   -99306.706   -99303.321 
   28170    1.6770072    3.4681062   -99306.049   -99302.581 
   28180    1.7121395    3.5407611   -99305.419   -99301.878 
   28190    1.7550863    3.6295764   -99304.851   -99301.222 
   28200    1.7957062    3.7135799   -99304.257   -99300.544 
   28210    1.8189131    3.7615724   -99303.549   -99299.788 
   28220    1.8344326    3.7936672   -99302.791   -99298.997 
   28230    1.8636825    3.8541571   -99302.082   -99298.228 
   28240    1.8954464    3.9198458   -99301.404   -99297.484 
   28250    1.9385122    4.0089073   -99300.758   -99296.749 
   28260    1.9909439    4.1173378   -99300.115   -99295.998 
   28270    2.0533962    4.2464911   -99299.443   -99295.197 
   28280     2.123822    4.3921341   -99298.765   -99294.373 
   28290    2.1927157    4.5346086   -99298.079   -99293.544 
   28300    2.2615575    4.6769757   -99297.388   -99292.711 
   28310    2.3284062    4.8152209   -99296.654   -99291.838 
   28320    2.3826053    4.9273065   -99295.833   -99290.905 
   28330    2.4169877    4.9984105   -99294.958    -99289.96 
   28340    2.4448724     5.056077   -99294.063   -99289.006 
   28350    2.4845805    5.1381947   -99293.168   -99288.029 
   28360     2.532305    5.2368905   -99292.291   -99287.054 
   28370    2.5950411    5.3666308   -99291.446   -99286.079 
   28380    2.6553237    5.4912972   -99290.594   -99285.102 
   28390    2.7091228    5.6025555   -99289.749   -99284.146 
   28400    2.7495113    5.6860803   -99288.883   -99283.197 
   28410    2.7804327    5.7500267   -99288.003   -99282.253 
   28420     2.814896    5.8212979   -99287.138   -99281.317 
   28430    2.8616727    5.9180337   -99286.295   -99280.377 
   28440    2.9226191     6.044073   -99285.452   -99279.408 
   28450    2.9884819    6.1802794   -99284.571   -99278.391 
   28460    3.0527648    6.3132184   -99283.636   -99277.322 
   28470    3.1280508    6.4689124   -99282.685   -99276.216 
   28480    3.2202666    6.6596178   -99281.746   -99275.086 
   28490    3.3400307    6.9072938   -99280.815   -99273.908 
   28500    3.4828638    7.2026774   -99279.879   -99272.676 
   28510    3.6437379    7.5353704   -99278.934   -99271.398 
   28520    3.8359221    7.9328137   -99278.014   -99270.081 
   28530    4.0587294    8.3935866   -99277.135   -99268.742 
   28540    4.3169973    8.9276932   -99276.322   -99267.395 
   28550    4.5824086    9.4765725   -99275.534   -99266.057 
   28560    4.8080248    9.9431543   -99274.676   -99264.733 
   28570    4.9949569    10.329736   -99273.754   -99263.424 
   28580    5.1660356    10.683532   -99272.849   -99262.165 
   28590    5.3478109     11.05945   -99272.042   -99260.982 
   28600    5.5437476    11.464653   -99271.366   -99259.901 
   28610    5.7463594    11.883661   -99270.818   -99258.935 
   28620    5.9731083    12.352585   -99270.432    -99258.08 
   28630    6.2392478    12.902971   -99270.271   -99257.368 
   28640    6.5129195    13.468933   -99270.271   -99256.802 
   28650    6.7746849    14.010272   -99270.388   -99256.378 
   28660    7.0370855    14.552926   -99270.685   -99256.132 
   28670    7.2730813    15.040973   -99271.115   -99256.074 
   28680    7.3412504    15.181948   -99271.358   -99256.176 
   28690    7.2560298     15.00571   -99271.391   -99256.386 
   28700     7.073293    14.627804   -99271.323   -99256.695 
   28710    6.8587506    14.184123   -99271.251   -99257.067 
   28720    6.7438074    13.946417   -99271.448   -99257.502 
   28730    6.6122953    13.674445   -99271.652   -99257.978 
   28740     6.511663    13.466334   -99271.904   -99258.437 
   28750    6.4646714    13.369154   -99272.272   -99258.903 
   28760    6.4157479    13.267979   -99272.646   -99259.378 
   28770     6.354449    13.141211   -99272.884   -99259.742 
   28780    6.3593506    13.151347   -99273.088   -99259.937 
   28790      6.42582    13.288808   -99273.288   -99259.999 
   28800    6.5367261    13.518166   -99273.524   -99260.005 
   28810    6.6948086    13.845085   -99273.892   -99260.047 
   28820    6.8566281    14.179734   -99274.317   -99260.137 
   28830    7.0348758    14.548356   -99274.784   -99260.235 
   28840    7.1785419    14.845462   -99275.163   -99260.317 
   28850    7.2190835    14.929303   -99275.348   -99260.419 
   28860    7.1590237    14.805098    -99275.43   -99260.625 
   28870    7.0851619    14.652349   -99275.683   -99261.031 
   28880    6.9963614    14.468707   -99276.162   -99261.693 
   28890    6.8520476    14.170261   -99276.724   -99262.554 
   28900    6.7124426    13.881553   -99277.405   -99263.524 
   28910     6.622144    13.694813   -99278.297   -99264.602 
   28920    6.5825282    13.612886   -99279.418   -99265.806 
   28930    6.5376052    13.519984   -99280.622   -99267.102 
   28940    6.4876905    13.416759   -99281.832   -99268.416 
   28950     6.527111    13.498281   -99283.194   -99269.696 
   28960    6.6338858    13.719095   -99284.671   -99270.952 
   28970    6.8230117    14.110214   -99286.308   -99272.198 
   28980    7.0669012    14.614585   -99288.091   -99273.476 
   28990    7.3782062    15.258374   -99290.124   -99274.865 
   29000    7.6051801    15.727764   -99292.192   -99276.464 
   29010    7.6536252     15.82795   -99294.053   -99278.225 
   29020    7.5887598    15.693806   -99295.853   -99280.159 
   29030    7.4127135    15.329737   -99297.632   -99282.303 
   29040    7.1686154    14.824934   -99299.419   -99284.594 
   29050    6.8151187    14.093891   -99300.981   -99286.887 
   29060    6.6463561    13.744884   -99302.887   -99289.142 
   29070    6.3672357    13.167654   -99304.625   -99291.457 
   29080    5.8716921    12.142853   -99305.779   -99293.636 
   29090    5.5040786    11.382617   -99307.064   -99295.681 
   29100    5.0996942    10.546336   -99308.205   -99297.659 
   29110    4.6550422    9.6267813   -99309.124   -99299.497 
   29120    4.2131725      8.71298   -99309.887   -99301.174 
   29130    3.7720851    7.8007966   -99310.499   -99302.698 
   29140    3.4092797    7.0505032   -99311.131    -99304.08 
   29150    3.0934333    6.3973224   -99311.799   -99305.402 
   29160    2.7874976    5.7646371   -99312.454    -99306.69 
   29170    2.5394812    5.2517311   -99313.207   -99307.955 
   29180    2.2940886     4.744251   -99313.926   -99309.182 
   29190    2.1003127    4.3435161   -99314.699   -99310.355 
   29200    1.9304098    3.9921512   -99315.461   -99311.468 
   29210    1.7641543    3.6483294   -99316.122   -99312.474 
   29220     1.632701    3.3764797   -99316.706   -99313.329 
   29230     1.528867    3.1617474   -99317.195   -99314.034 
   29240    1.4275867    2.9522966   -99317.532    -99314.58 
   29250    1.3508016    2.7935024   -99317.768   -99314.974 
   29260    1.2888248    2.6653324   -99317.932   -99315.266 
   29270    1.2212997    2.5256882   -99317.996    -99315.47 
   29280    1.1791811    2.4385855   -99318.036   -99315.597 
   29290    1.1401502    2.3578683    -99318.02   -99315.662 
   29300    1.1058518    2.2869382   -99317.981   -99315.694 
   29310    1.0773895    2.2280771    -99317.96   -99315.732 
   29320    1.0452493    2.1616101   -99317.953   -99315.791 
   29330    1.0244333     2.118562   -99317.992   -99315.873 
   29340    1.0171982    2.1035995   -99318.058   -99315.954 
   29350    1.0116588    2.0921438   -99318.121   -99316.029 
   29360    1.0109337    2.0906443   -99318.206   -99316.115 
   29370    1.0047542    2.0778649   -99318.308   -99316.231 
   29380   0.99780929    2.0635026   -99318.438   -99316.374 
   29390    1.0021006    2.0723771   -99318.585   -99316.513 
   29400    1.0112697    2.0913391   -99318.711    -99316.62 
   29410    1.0138565    2.0966887   -99318.776    -99316.68 
   29420    1.0175542    2.1043358   -99318.804     -99316.7 
   29430    1.0151894    2.0994452   -99318.781   -99316.682 
   29440    1.0153607    2.0997995   -99318.734   -99316.634 
   29450    1.0111515    2.0910947   -99318.655   -99316.564 
   29460    1.0056913    2.0798028   -99318.538   -99316.458 
   29470    0.9924917    2.0525056   -99318.404   -99316.351 
   29480   0.97784206    2.0222097   -99318.275   -99316.253 
   29490   0.96155492    1.9885274   -99318.136   -99316.147 
   29500   0.94732953    1.9591088   -99318.011   -99316.052 
   29510   0.92662335    1.9162877   -99317.884   -99315.967 
   29520   0.91544676    1.8931742   -99317.772   -99315.879 
   29530   0.90418459    1.8698836   -99317.657   -99315.787 
   29540   0.89675468    1.8545183   -99317.588   -99315.733 
   29550   0.89574118    1.8524224   -99317.554   -99315.701 
   29560   0.90129012    1.8638978   -99317.532   -99315.668 
   29570   0.91299138    1.8880964    -99317.48   -99315.592 
   29580   0.92095402    1.9045634    -99317.35   -99315.445 
   29590    0.9362435    1.9361825     -99317.2   -99315.264 
   29600   0.95248864     1.969778   -99317.003   -99315.033 
   29610   0.96808875    2.0020395   -99316.767   -99314.765 
   29620   0.97920867    2.0250359   -99316.512   -99314.487 
   29630   0.98926802     2.045839   -99316.258   -99314.213 
   29640   0.99912536    2.0662243   -99316.026   -99313.959 
   29650    1.0176458    2.1045252   -99315.806   -99313.701 
   29660    1.0211783    2.1118306   -99315.566   -99313.454 
   29670    1.0237153     2.117077   -99315.341   -99313.224 
   29680    1.0222494    2.1140455   -99315.099   -99312.985 
   29690    1.0046645    2.0776794   -99314.837   -99312.759 
   29700   0.99095606    2.0493299    -99314.57   -99312.521 
   29710   0.99382622    2.0552655   -99314.327   -99312.272 
   29720   0.99694429    2.0617137   -99314.088   -99312.027 
   29730   0.97756335    2.0216333   -99313.843   -99311.821 
   29740   0.95941739    1.9841069   -99313.607   -99311.623 
   29750   0.95524887    1.9754862   -99313.424   -99311.448 
   29760   0.94710458    1.9586436   -99313.245   -99311.286 
   29770   0.93823293    1.9402967   -99313.041     -99311.1 
   29780   0.93200666    1.9274206   -99312.835   -99310.908 
   29790   0.91501514    1.8922816   -99312.625   -99310.733 
   29800   0.91821489    1.8988988    -99312.43   -99310.531 
   29810   0.94130538    1.9466507   -99312.216   -99310.269 
   29820   0.94129951    1.9466385   -99311.934   -99309.988 
   29830   0.94019927    1.9443632   -99311.673   -99309.729 
   29840   0.95300438    1.9708446   -99311.445   -99309.474 
   29850   0.97146517    2.0090221   -99311.219    -99309.21 
   29860   0.97890362     2.024405   -99310.956   -99308.932 
   29870   0.98664534    2.0404152   -99310.702   -99308.661 
   29880    1.0010212    2.0701449   -99310.478   -99308.408 
   29890    1.0032852    2.0748271   -99310.258   -99308.183 
   29900    1.0281977    2.1263468   -99310.085   -99307.959 
   29910    1.0459548    2.1630691   -99309.874   -99307.711 
   29920    1.0711347    2.2151421   -99309.659   -99307.444 
   29930    1.0950909    2.2646842   -99309.456   -99307.191 
   29940    1.1030555    2.2811552   -99309.246   -99306.965 
   29950    1.1228364    2.3220628   -99309.092    -99306.77 
   29960    1.1317345    2.3404643   -99308.935   -99306.595 
   29970    1.1365035    2.3503268   -99308.807   -99306.457 
   29980    1.1460896    2.3701513   -99308.759   -99306.388 
   29990    1.1514215    2.3811778   -99308.773   -99306.392 
   30000    1.1499101    2.3780521   -99308.829   -99306.451 
   30010    1.1608719    2.4007214   -99308.932   -99306.532 
   30020    1.1546928    2.3879429   -99308.988     -99306.6 
   30030     1.130776    2.3384821   -99309.003   -99306.664 
   30040    1.1269278    2.3305239   -99309.083   -99306.753 
   30050    1.1150404    2.3059404   -99309.143   -99306.837 
   30060    1.0962456    2.2670722   -99309.161   -99306.894 
   30070    1.0875354    2.2490592   -99309.201   -99306.952 
   30080    1.0841803    2.2421206   -99309.277   -99307.035 
   30090    1.0767362    2.2267261   -99309.393   -99307.167 
   30100    1.0690714    2.2108751   -99309.609   -99307.399 
   30110    1.0586452    2.1893133   -99309.888   -99307.699 
   30120    1.0558937    2.1836232   -99310.211   -99308.027 
   30130    1.0386632    2.1479899   -99310.538    -99308.39 
   30140    1.0179623    2.1051796   -99310.889   -99308.784 
   30150   0.99771926    2.0633164   -99311.218   -99309.154 
   30160   0.97691727    2.0202972   -99311.513   -99309.493 
   30170   0.98018709    2.0270593   -99311.799   -99309.772 
   30180   0.97222672     2.010597   -99311.999   -99309.989 
   30190   0.96484261    1.9953264   -99312.162   -99310.166 
   30200   0.96552596    1.9967396   -99312.316   -99310.319 
   30210    0.9682242    2.0023197   -99312.439   -99310.436 
   30220   0.97609035    2.0185871   -99312.551   -99310.533 
   30230   0.96872886    2.0033633   -99312.634    -99310.63 
   30240   0.95755584    1.9802571   -99312.655   -99310.674 
   30250   0.95171511    1.9681783   -99312.665   -99310.697 
   30260   0.95243043    1.9696576   -99312.723   -99310.753 
   30270   0.95277818    1.9703768   -99312.824   -99310.853 
   30280   0.95816743    1.9815219   -99313.001   -99311.019 
   30290    0.9601158    1.9855512   -99313.206    -99311.22 
   30300     0.956087    1.9772195   -99313.385   -99311.408 
   30310   0.96173589    1.9889016    -99313.55   -99311.561 
   30320   0.96921187    2.0043622   -99313.693   -99311.689 
   30330    0.9768946    2.0202503   -99313.804   -99311.784 
   30340   0.98238989    2.0316148   -99313.891   -99311.859 
   30350   0.98612479    2.0393387   -99313.967   -99311.928 
   30360   0.98318266    2.0332543   -99314.036   -99312.002 
   30370   0.98802238    2.0432629   -99314.131   -99312.088 
   30380   0.99061614    2.0486269   -99314.206   -99312.158 
   30390   0.98638474    2.0398763   -99314.229   -99312.189 
   30400   0.99889626    2.0657505   -99314.244   -99312.178 
   30410   0.98974913    2.0468339    -99314.21   -99312.163 
   30420   0.98273691    2.0323324   -99314.225   -99312.193 
   30430   0.97745207    2.0214032   -99314.242   -99312.221 
   30440   0.97807494    2.0226913   -99314.311   -99312.288 
   30450   0.96404879    1.9936848    -99314.37   -99312.376 
   30460   0.95084544    1.9663798   -99314.429   -99312.462 
   30470   0.94441921    1.9530901   -99314.488   -99312.535 
   30480   0.94142428    1.9468965   -99314.517    -99312.57 
   30490   0.94570245    1.9557439    -99314.52   -99312.564 
   30500   0.93932799    1.9425613   -99314.491   -99312.548 
   30510   0.93747233    1.9387238   -99314.485   -99312.547 
   30520   0.96102284     1.987427   -99314.495   -99312.507 
   30530   0.97281538    2.0118144   -99314.429   -99312.417 
   30540   0.97747302    2.0214465   -99314.334   -99312.313 
   30550   0.99026977    2.0479106   -99314.249   -99312.201 
   30560   0.99074424    2.0488918   -99314.118   -99312.069 
   30570    1.0079274    2.0844271   -99314.022   -99311.937 
   30580     1.041115    2.1530603   -99313.935   -99311.782 
   30590     1.051989    2.1755481    -99313.82   -99311.644 
   30600    1.0479354     2.167165   -99313.761   -99311.594 
   30610    1.0583907     2.188787   -99313.771   -99311.582 
   30620    1.0532543    2.1781648   -99313.747   -99311.569 
   30630    1.0616127    2.1954501    -99313.75   -99311.555 
   30640    1.0629861    2.1982903    -99313.73   -99311.532 
   30650     1.055121    2.1820251   -99313.632    -99311.45 
   30660    1.0530303    2.1777016   -99313.583   -99311.405 
   30670    1.0423401    2.1555938   -99313.524   -99311.368 
   30680    1.0485897    2.1685182   -99313.505   -99311.336 
   30690    1.0422551     2.155418   -99313.502   -99311.347 
   30700    1.0405701    2.1519334   -99313.517   -99311.366 
   30710    1.0518669    2.1752955   -99313.579   -99311.404 
   30720    1.0468289    2.1648767   -99313.614   -99311.449 
   30730    1.0380433    2.1467078   -99313.618   -99311.472 
   30740    1.0451098    2.1613217   -99313.624   -99311.463 
   30750    1.0573238    2.1865805   -99313.622   -99311.436 
   30760    1.0516689    2.1748861   -99313.625    -99311.45 
   30770    1.0392641    2.1492326   -99313.684   -99311.534 
   30780     1.044606    2.1602798   -99313.822   -99311.662 
   30790    1.0367685    2.1440715   -99313.932   -99311.788 
   30800    1.0412125    2.1532618   -99314.039   -99311.886 
   30810    1.0387131    2.1480931   -99314.091   -99311.943 
   30820    1.0276392    2.1251919   -99314.071   -99311.946 
   30830    1.0291385    2.1282925   -99314.044   -99311.916 
   30840    1.0255089    2.1207863   -99314.009   -99311.888 
   30850     1.020211    2.1098302   -99313.958   -99311.848 
   30860    1.0125661    2.0940202   -99313.909   -99311.815 
   30870     1.012116    2.0930893   -99313.831   -99311.738 
   30880    1.0152193    2.0995071   -99313.748   -99311.648 
   30890    1.0034423    2.0751518   -99313.646   -99311.571 
   30900   0.99791768    2.0637267   -99313.554   -99311.491 
   30910   0.99528981    2.0582922   -99313.475   -99311.417 
   30920   0.98607967    2.0392454   -99313.433   -99311.393 
   30930   0.98997941    2.0473102   -99313.452   -99311.405 
   30940   0.97438113    2.0150524   -99313.466   -99311.451 
   30950   0.96968492    2.0053405   -99313.495    -99311.49 
   30960   0.95322198    1.9712946   -99313.452    -99311.48 
   30970    0.9550684     1.975113   -99313.393   -99311.418 
   30980   0.95369286    1.9722684   -99313.285   -99311.313 
   30990   0.94615785    1.9566857   -99313.151   -99311.194 
   31000   0.94422432    1.9526871   -99313.006   -99311.053 
   31010   0.95737061    1.9798741   -99312.884   -99310.905 
   31020   0.96453332    1.9946868   -99312.759   -99310.764 
   31030   0.97543336    2.0172284   -99312.646   -99310.629 
   31040   0.98013136    2.0269441   -99312.509   -99310.482 
   31050   0.97930575    2.0252367   -99312.362   -99310.337 
   31060   0.99248159    2.0524847   -99312.233    -99310.18 
   31070   0.98945173    2.0462189    -99312.06   -99310.014 
   31080    0.9927824    2.0531068   -99311.876   -99309.823 
   31090    1.0021109    2.0723985   -99311.689   -99309.617 
   31100    1.0073396    2.0832115   -99311.526   -99309.443 
   31110   0.99342558    2.0544369   -99311.365   -99309.311 
   31120   0.99769565    2.0632676   -99311.268   -99309.205 
   31130   0.99583084    2.0594111   -99311.171   -99309.112 
   31140   0.98993818    2.0472249   -99311.018    -99308.97 
   31150   0.98909625    2.0454837   -99310.838   -99308.792 
   31160    0.9790229    2.0246517   -99310.617   -99308.592 
   31170   0.96766631    2.0011659   -99310.383   -99308.382 
   31180   0.96094552    1.9872671   -99310.158    -99308.17 
   31190     0.968508    2.0029066   -99309.931   -99307.928 
   31200   0.97165477    2.0094142   -99309.646   -99307.636 
   31210   0.96988767    2.0057598   -99309.329   -99307.324 
   31220   0.97078495    2.0076154   -99309.025   -99307.017 
   31230   0.97939902    2.0254296   -99308.779   -99306.754 
   31240   0.99222399     2.051952   -99308.526   -99306.474 
   31250   0.99382581    2.0552646   -99308.266    -99306.21 
   31260   0.98601254    2.0391065   -99308.035   -99305.996 
   31270   0.99494698    2.0575833   -99307.861   -99305.803 
   31280   0.99089531    2.0492043    -99307.65   -99305.601 
   31290    1.0049236    2.0782152    -99307.44   -99305.362 
   31300    1.0063193    2.0811017    -99307.21   -99305.129 
   31310    1.0219575    2.1134419   -99307.023   -99304.909 
   31320    1.0329612     2.136198   -99306.816    -99304.68 
   31330    1.0225104    2.1145854   -99306.615   -99304.501 
   31340    1.0208377     2.111126   -99306.445   -99304.333 
   31350    1.0232127    2.1160376   -99306.298   -99304.182 
   31360    1.0316236    2.1334318   -99306.159   -99304.025 
   31370    1.0401075    2.1509767   -99305.991    -99303.84 
   31380    1.0403276    2.1514319   -99305.871    -99303.72 
   31390    1.0413598    2.1535664   -99305.777   -99303.624 
   31400    1.0412214    2.1532803   -99305.684   -99303.531 
   31410    1.0589812    2.1900082   -99305.578   -99303.388 
   31420    1.0568403    2.1855806   -99305.426    -99303.24 
   31430    1.0447277    2.1605315   -99305.246   -99303.086 
   31440    1.0466777    2.1645641   -99305.109   -99302.944 
   31450    1.0477065    2.1666918    -99304.96   -99302.793 
   31460    1.0444471    2.1599511   -99304.765   -99302.605 
   31470    1.0500887    2.1716181   -99304.624   -99302.452 
   31480    1.0417414    2.1543556   -99304.472   -99302.317 
   31490     1.043948    2.1589189   -99304.385   -99302.226 
   31500    1.0292935     2.128613   -99304.334   -99302.205 
   31510     1.023459    2.1165471   -99304.315   -99302.198 
   31520    1.0148088    2.0986582   -99304.328   -99302.229 
   31530    1.0003608    2.0687792   -99304.377   -99302.308 
   31540   0.99315991    2.0538875   -99304.461   -99302.407 
   31550   0.98543051    2.0379029   -99304.534   -99302.496 
   31560   0.98066697    2.0280517   -99304.663   -99302.635 
   31570   0.97678833    2.0200306   -99304.815   -99302.795 
   31580   0.98330222    2.0335015   -99305.013   -99302.979 
   31590   0.97481534    2.0159504   -99305.178   -99303.162 
   31600   0.98187239    2.0305446   -99305.334   -99303.304 
   31610   0.96870745     2.003319   -99305.448   -99303.444 
   31620   0.96540421    1.9964878   -99305.614   -99303.618 
   31630   0.96647682     1.998706   -99305.814   -99303.816 
   31640   0.96319074    1.9919103   -99305.944   -99303.952 
   31650   0.95522603     1.975439   -99306.001   -99304.026 
   31660   0.95659592     1.978272   -99306.062   -99304.083 
   31670   0.97130238    2.0086854   -99306.144   -99304.135 
   31680   0.98587178    2.0388154   -99306.215   -99304.177 
   31690   0.99519342    2.0580929    -99306.27   -99304.212 
   31700   0.99501513    2.0577242   -99306.329   -99304.272 
   31710     1.003488    2.0752463   -99306.413   -99304.338 
   31720    1.0161051    2.1013389   -99306.502     -99304.4 
   31730    1.0107155     2.090193   -99306.582   -99304.492 
   31740    1.0247109     2.119136   -99306.802   -99304.683 
   31750    1.0192398    2.1078215   -99306.996   -99304.888 
   31760     1.027096    2.1240686   -99307.156   -99305.032 
   31770    1.0356373    2.1417322   -99307.266   -99305.124 
   31780    1.0389678    2.1486197    -99307.36   -99305.212 
   31790    1.0195375    2.1084372   -99307.467   -99305.359 
   31800   0.99870975    2.0653648   -99307.595   -99305.529 
   31810    1.0010825    2.0702717   -99307.768   -99305.697 
   31820   0.97261678    2.0114037   -99307.855   -99305.844 
   31830   0.96510506    1.9958692   -99307.953   -99305.957 
   31840    0.9610781    1.9875413   -99308.027   -99306.039 
   31850    0.9533609    1.9715819   -99308.079   -99306.107 
   31860   0.94872118    1.9619868   -99308.159   -99306.197 
   31870   0.94754668    1.9595579   -99308.248   -99306.288 
   31880   0.94231856    1.9487459   -99308.316   -99306.368 
   31890   0.95013665     1.964914   -99308.428   -99306.464 
   31900   0.95589962     1.976832   -99308.529   -99306.552 
   31910   0.95761331     1.980376   -99308.581   -99306.601 
   31920   0.96416197    1.9939188   -99308.628   -99306.634 
   31930   0.97140428    2.0088962   -99308.639    -99306.63 
   31940   0.98124412    2.0292453   -99308.606   -99306.576 
   31950   0.98745569     2.042091   -99308.557   -99306.515 
   31960   0.99042342    2.0482284   -99308.504   -99306.456 
   31970   0.99509957    2.0578988    -99308.44   -99306.382 
   31980   0.99510442    2.0579088   -99308.384   -99306.326 
   31990    1.0179693    2.1051941   -99308.409   -99306.303 
   32000    1.0261268    2.1220642    -99308.38   -99306.258 
   32010    1.0351401     2.140704   -99308.352   -99306.211 
   32020    1.0574383    2.1868174   -99308.329   -99306.143 
   32030     1.065642    2.2037829   -99308.285   -99306.081 
   32040    1.0702045    2.2132182    -99308.21   -99305.997 
   32050    1.0667031    2.2059772   -99308.124   -99305.918 
   32060     1.080262    2.2340176   -99308.073   -99305.839 
   32070    1.0596617    2.1914153   -99307.969   -99305.778 
   32080     1.049804    2.1710294   -99307.906   -99305.735 
   32090    1.0382363    2.1471069   -99307.833   -99305.686 
   32100    1.0351873    2.1408016   -99307.812   -99305.671 
   32110    1.0471114    2.1654611   -99307.824   -99305.658 
   32120    1.0421954    2.1552945   -99307.834   -99305.678 
   32130    1.0282795     2.126516   -99307.851   -99305.724 
   32140    1.0263905    2.1226095   -99307.914   -99305.792 
   32150    1.0256881    2.1211569   -99307.937   -99305.815 
   32160    1.0049755    2.0783225   -99307.937   -99305.859 
   32170      0.99906    2.0660891   -99308.024   -99305.958 
   32180    0.9857012    2.0384627   -99308.104   -99306.066 
   32190   0.97403236    2.0143311   -99308.148   -99306.134 
   32200   0.97678851    2.0200309   -99308.153   -99306.133 
   32210   0.97038832    2.0067951   -99308.066    -99306.06 
   32220   0.97273362    2.0116453   -99308.012   -99306.001 
   32230   0.96611695    1.9979618   -99307.979   -99305.981 
   32240   0.96719536     2.000192    -99307.96    -99305.96 
   32250   0.96790253    2.0016544   -99307.952    -99305.95 
   32260   0.96912795    2.0041886   -99307.923   -99305.919 
   32270   0.97564654    2.0176693   -99307.848    -99305.83 
   32280   0.98436097     2.035691    -99307.72   -99305.684 
   32290   0.99236277     2.052239    -99307.57   -99305.518 
   32300    1.0026179     2.073447   -99307.419   -99305.346 
   32310    1.0015533    2.0712453   -99307.245   -99305.174 
   32320    1.0243607    2.1184117   -99307.143   -99305.024 
   32330    1.0267771    2.1234089   -99307.059   -99304.935 
   32340    1.0317276    2.1336468   -99307.036   -99304.903 
   32350    1.0289841    2.1279732   -99307.012   -99304.884 
   32360    1.0235039      2.11664   -99306.946    -99304.83 
   32370    1.0266224     2.123089   -99306.841   -99304.718 
   32380    1.0303111    2.1307175   -99306.736   -99304.605 
   32390     1.015796    2.1006997   -99306.623   -99304.522 
   32400   0.99915945    2.0662948   -99306.544   -99304.478 
   32410     1.004679    2.0777095   -99306.519   -99304.441 
   32420   0.99624917    2.0602762   -99306.464   -99304.404 
   32430     1.003218    2.0746881   -99306.378   -99304.304 
   32440   0.97844636    2.0234594   -99306.106   -99304.082 
   32450   0.98318772    2.0332647   -99305.835   -99303.802 
   32460   0.97666569    2.0197769   -99305.563   -99303.543 
   32470    0.9666331    1.9990292   -99305.355   -99303.356 
   32480   0.95445026    1.9738347   -99305.179   -99303.205 
   32490   0.95095006    1.9665962   -99305.022   -99303.055 
   32500   0.94942703    1.9634465   -99304.863     -99302.9 
   32510   0.94967171    1.9639525   -99304.697   -99302.733 
   32520   0.94607513    1.9565146   -99304.521   -99302.565 
   32530   0.94685623      1.95813   -99304.319   -99302.361 
   32540   0.94159021    1.9472397   -99304.066   -99302.118 
   32550   0.95841228    1.9820283   -99303.844   -99301.862 
   32560   0.95173081    1.9682108   -99303.601   -99301.633 
   32570    0.9542654    1.9734524   -99303.358   -99301.384 
   32580     0.972214    2.0105707   -99303.098   -99301.087 
   32590    0.9784874    2.0235443   -99302.789   -99300.765 
   32600   0.98917327     2.045643   -99302.484   -99300.439 
   32610     1.001676    2.0714992   -99302.193   -99300.121 
   32620    1.0091675    2.0869918   -99301.893   -99299.806 
   32630    1.0210494     2.111564   -99301.605   -99299.494 
   32640    1.0339054    2.1381506   -99301.325   -99299.187 
   32650     1.031075    2.1322972   -99301.004   -99298.872 
   32660    1.0499704    2.1713735   -99300.706   -99298.535 
   32670    1.0558602    2.1835538   -99300.391   -99298.208 
   32680    1.0574275     2.186795   -99300.089   -99297.902 
   32690    1.0635659    2.1994894   -99299.834   -99297.634 
   32700    1.0489987    2.1693639   -99299.563   -99297.394 
   32710    1.0614108    2.1950326   -99299.329   -99297.134 
   32720    1.0515932    2.1747295   -99299.014    -99296.84 
   32730    1.0425279    2.1559822   -99298.703   -99296.547 
   32740    1.0519238    2.1754133    -99298.43   -99296.254 
   32750      1.03729    2.1451501   -99298.107   -99295.962 
   32760    1.0223806     2.114317   -99297.797   -99295.683 
   32770    1.0086808    2.0859853   -99297.506    -99295.42 
   32780    1.0075323    2.0836102   -99297.242   -99295.158 
   32790    1.0030257    2.0742903   -99296.947   -99294.873 
   32800   0.98826246    2.0437594   -99296.619   -99294.575 
   32810   0.98100021    2.0287409   -99296.293   -99294.264 
   32820    0.9800433     2.026762   -99295.988   -99293.961 
   32830   0.98333145    2.0335619   -99295.704    -99293.67 
   32840   0.97699443    2.0204568   -99295.432   -99293.411 
   32850   0.96693335    1.9996501   -99295.162   -99293.163 
   32860    0.9689518    2.0038244   -99294.911   -99292.907 
   32870   0.97212904     2.010395   -99294.658   -99292.647 
   32880   0.98098391    2.0287072   -99294.422   -99292.393 
   32890   0.98497554     2.036962   -99294.187    -99292.15 
   32900   0.99848392    2.0648977   -99293.943   -99291.878 
   32910   0.99036687    2.0481114   -99293.609   -99291.561 
   32920   0.99710913    2.0620546   -99293.299   -99291.237 
   32930    1.0036687      2.07562   -99292.983   -99290.907 
   32940    1.0228564    2.1153008   -99292.679   -99290.564 
   32950    1.0183975    2.1060796   -99292.331   -99290.225 
   32960    1.0275599    2.1250278   -99292.029   -99289.904 
   32970    1.0159773    2.1010747   -99291.673   -99289.572 
   32980     1.021429     2.112349   -99291.361   -99289.249 
   32990    1.0370135    2.1445781    -99291.02   -99288.876 
   33000    1.0355295    2.1415092   -99290.587   -99288.445 
   33010     1.038053     2.146728   -99290.081   -99287.934 
   33020    1.0342422    2.1388471   -99289.522   -99287.383 
   33030    1.0394969    2.1497139   -99288.916   -99286.766 
   33040    1.0383423    2.1473262   -99288.217    -99286.07 
   33050    1.0393255    2.1493595    -99287.45     -99285.3 
   33060    1.0234849    2.1166006   -99286.602   -99284.485 
   33070    1.0252326    2.1202149   -99285.713   -99283.593 
   33080    1.0274325    2.1247643   -99284.696   -99282.572 
   33090     1.025479    2.1207245   -99283.569   -99281.448 
   33100    1.0206076    2.1106502   -99282.246   -99280.135 
   33110    1.0278138    2.1255528   -99280.693   -99278.567 
   33120    1.0473021    2.1658554   -99278.864   -99276.698 
   33130    1.0837416    2.2412135   -99276.649   -99274.408 
   33140    1.1277432    2.3322101   -99273.911   -99271.579 
   33150    1.2429289    2.5704181   -99270.546   -99267.975 
   33160     1.444504     2.987282   -99266.307    -99263.32 
   33170    1.8435383    3.8124981   -99261.025   -99257.213 
   33180    2.6376602    5.4547685   -99254.581   -99249.126 
   33190    4.1895919    8.6642146   -99247.338   -99238.674 
   33200    7.0888225    14.659919   -99240.787   -99226.127 
   33210    11.744405    24.287818   -99237.737    -99213.45 
   33220    17.733952    36.674399     -99241.5   -99204.825 
   33230    22.999471    47.563667   -99252.067   -99204.503 
   33240    24.770027    51.225236    -99262.72   -99211.495 
   33250    24.194673    50.035384    -99273.31   -99223.275 
   33260    23.000514    47.565823   -99289.666   -99242.101 
   33270    20.957194    43.340171   -99307.196   -99263.856 
   33280    18.654244    38.577592   -99322.241   -99283.663 
   33290    15.771642    32.616276   -99333.261   -99300.645 
   33300    12.313676    25.465089   -99340.081   -99314.616 
   33310    8.7430613     18.08094   -99342.701    -99324.62 
   33320    5.8927075    12.186314   -99342.745   -99330.559 
   33330    4.4527804    9.2084971   -99343.553   -99334.345 
   33340     4.415672    9.1317557   -99347.127   -99337.995 
   33350    4.7489054    9.8208934   -99351.913   -99342.092 
   33360    4.4752585    9.2549826   -99355.454   -99346.199 
   33370    3.6571493    7.5631056    -99357.25   -99349.687 
   33380    2.8474827    5.8886883   -99358.083   -99352.194 
   33390    2.4654379    5.0986071   -99359.026   -99353.928 
   33400     2.423213    5.0112845   -99360.468   -99355.457 
   33410    2.3763916    4.9144564   -99362.061   -99357.147 
   33420    2.1735938    4.4950637   -99363.326   -99358.831 
   33430    1.9167178    3.9638357   -99364.153   -99360.189 
   33440    1.7446257    3.6079436   -99364.665   -99361.058 
   33450     1.692344    3.4998234   -99364.892   -99361.392 
   33460    1.6657913    3.4449115   -99364.862   -99361.417 
   33470    1.5847566    3.2773291   -99364.893   -99361.616 
   33480    1.4688216    3.0375716     -99365.3   -99362.262 
   33490    1.3621782    2.8170295   -99365.969   -99363.152 
   33500     1.273071    2.6327529   -99366.575   -99363.942 
   33510    1.2199084    2.5228108   -99366.974   -99364.451 
   33520    1.1650166    2.4092929    -99367.09    -99364.68 
   33530    1.1104818    2.2965132   -99366.972   -99364.676 
   33540     1.057338      2.18661   -99366.835   -99364.648 
   33550    1.0424232    2.1557657    -99367.02   -99364.865 
   33560    1.0606697    2.1934999   -99367.568   -99365.375 
   33570    1.0638805      2.20014   -99368.251   -99366.051 
   33580    1.0282556    2.1264665   -99368.826     -99366.7 
   33590   0.98618131    2.0394556   -99369.159    -99367.12 
   33600   0.95994891    1.9852061   -99369.184   -99367.199 
   33610   0.96506788    1.9957923   -99369.081   -99367.085 
   33620   0.98958251    2.0464893   -99369.064   -99367.018 
   33630    1.0220066    2.1135435    -99369.17   -99367.057 
   33640    1.0438735    2.1587649   -99369.288    -99367.13 
   33650     1.043023     2.157006   -99369.391   -99367.234 
   33660    1.0569254    2.1857566   -99369.521   -99367.335 
   33670    1.0539362    2.1795748   -99369.637   -99367.457 
   33680    1.0594944    2.1910695   -99369.821    -99367.63 
   33690    1.0630402    2.1984023   -99370.029   -99367.831 
   33700    1.0711217    2.2151151   -99370.208   -99367.993 
   33710    1.0687726    2.2102571   -99370.316   -99368.106 
   33720     1.058477    2.1889654   -99370.477   -99368.288 
   33730    1.0480176     2.167335   -99370.733   -99368.566 
   33740    1.0478669    2.1670234   -99370.988   -99368.821 
   33750    1.0380078    2.1466344   -99371.218   -99369.072 
   33760    1.0438546    2.1587259   -99371.494   -99369.336 
   33770    1.0429246    2.1568026   -99371.765   -99369.609 
   33780    1.0342981    2.1389626   -99371.949    -99369.81 
   33790    1.0267649    2.1233837   -99372.057   -99369.934 
   33800     1.017331    2.1038741   -99372.141   -99370.037 
   33810    1.0188795    2.1070765    -99372.21   -99370.103 
   33820    1.0177761    2.1047947   -99372.313   -99370.208 
   33830    1.0205342    2.1104985   -99372.502   -99370.392 
   33840    1.0222319    2.1140094   -99372.668   -99370.554 
   33850    1.0100462    2.0888088   -99372.736   -99370.647 
   33860    1.0228391     2.115265   -99372.805    -99370.69 
   33870    1.0068416    2.0821818   -99372.903   -99370.821 
   33880    1.0055509    2.0795125   -99373.008   -99370.929 
   33890    1.0180928    2.1054495   -99373.162   -99371.056 
   33900    1.0220499    2.1136329   -99373.351   -99371.238 
   33910    1.0236908    2.1170265   -99373.588   -99371.471 
   33920    1.0218458     2.113211   -99373.844   -99371.731 
   33930    1.0321517    2.1345239    -99374.03   -99371.895 
   33940    1.0290498     2.128109   -99374.126   -99371.998 
   33950    1.0063931    2.0812543   -99374.147   -99372.065 
   33960    1.0074053    2.0833474   -99374.167   -99372.083 
   33970    1.0158749    2.1008629   -99374.218   -99372.117 
   33980    1.0024844    2.0731708   -99374.319   -99372.246 
   33990   0.99896629    2.0658953   -99374.479   -99372.413 
   34000   0.99019301    2.0477519   -99374.555   -99372.508 
   34010    1.0750739    2.2232883   -99374.688   -99372.464 
   34020    1.0972029    2.2690518   -99374.605   -99372.336 
   34030     1.073452    2.2199343   -99374.545   -99372.325 
   34040    1.0579126    2.1877982   -99374.633   -99372.445 
   34050    1.0553883    2.1825779   -99374.816   -99372.633 
   34060     1.046133    2.1634377   -99374.934    -99372.77 
   34070    1.0306909    2.1315029   -99375.057   -99372.926 
   34080     1.001525    2.0711867   -99375.178   -99373.107 
   34090    0.9751357    2.0166129    -99375.24   -99373.224 
   34100    0.9774986    2.0214994   -99375.255   -99373.234 
   34110   0.96958031    2.0051241   -99375.264   -99373.259 
   34120   0.97630053    2.0190218   -99375.392   -99373.373 
   34130   0.99429699    2.0562391    -99375.46   -99373.404 
   34140   0.98126195    2.0292822   -99375.366   -99373.337 
   34150   0.99012694    2.0476152   -99375.415   -99373.367 
   34160   0.99063872    2.0486736   -99375.516   -99373.467 
   34170   0.97463577     2.015579   -99375.539   -99373.523 
   34180    0.9643506    1.9943089   -99375.622   -99373.627 
   34190    0.9633137    1.9921646   -99375.761   -99373.768 
   34200    0.9507344    1.9661502   -99375.838   -99373.872 
   34210   0.94438543    1.9530203   -99375.876   -99373.923 
   34220   0.95075736    1.9661977   -99375.873   -99373.907 
   34230   0.95685178    1.9788011   -99375.895   -99373.916 
   34240   0.98224427    2.0313136   -99375.951    -99373.92 
   34250   0.99286443    2.0532765   -99375.962   -99373.909 
   34260    1.0075902    2.0837298   -99376.034    -99373.95 
   34270    1.0040278    2.0763627    -99376.11   -99374.034 
   34280    1.0098128    2.0883263   -99376.207   -99374.118 
   34290   0.99556993    2.0588715   -99376.226   -99374.167 
   34300   0.98562837    2.0383121   -99376.201   -99374.163 
   34310   0.96743983    2.0006975   -99376.109   -99374.108 
   34320   0.97785517    2.0222368   -99376.066   -99374.043 
   34330   0.97318725    2.0125834    -99376.08   -99374.067 
   34340   0.99330108    2.0541795   -99376.204    -99374.15 
   34350   0.98525492    2.0375398   -99376.277    -99374.24 
   34360   0.98719731    2.0415567   -99376.346   -99374.304 
   34370   0.99703369    2.0618986   -99376.361   -99374.299 
   34380   0.99880631    2.0655645   -99376.322   -99374.256 
   34390    1.0021333    2.0724448   -99376.299   -99374.227 
   34400   0.99718763     2.062217   -99376.341   -99374.279 
   34410    1.0100665    2.0888509    -99376.45   -99374.361 
   34420    1.0081564    2.0849008    -99376.51   -99374.426 
   34430    1.0026216    2.0734545    -99376.54   -99374.466 
   34440   0.98800513    2.0432273   -99376.566   -99374.523 
   34450    0.9972594    2.0623654   -99376.613    -99374.55 
   34460   0.98312548     2.033136   -99376.567   -99374.534 
   34470    1.0038196    2.0759322   -99376.568   -99374.492 
   34480    1.0099421    2.0885937   -99376.493   -99374.405 
   34490    1.0040082    2.0763222   -99376.476     -99374.4 
   34500    1.0136523    2.0962664   -99376.555   -99374.458 
   34510   0.99422933    2.0560991   -99376.536    -99374.48 
   34520    1.0052467    2.0788834   -99376.537   -99374.458 
   34530    1.0083299    2.0852596   -99376.444   -99374.358 
   34540     1.004547    2.0774363    -99376.41   -99374.332 
   34550    1.0070983    2.0827126   -99376.459   -99374.376 
   34560    1.0154774    2.1000409   -99376.446   -99374.346 
   34570    1.0081851    2.0849602   -99376.403   -99374.318 
   34580    1.0042027    2.0767244    -99376.45   -99374.373 
   34590    1.0069582    2.0824228   -99376.491   -99374.408 
   34600   0.99657968    2.0609597   -99376.524   -99374.463 
   34610   0.99983381    2.0676894   -99376.533   -99374.466 
   34620    1.0132085    2.0953487   -99376.564   -99374.469 
   34630    1.0331322    2.1365516   -99376.512   -99374.375 
   34640    1.0402179     2.151205   -99376.425   -99374.273 
   34650     1.079143    2.2317033   -99376.379   -99374.147 
   34660     1.060767    2.1937012   -99376.242   -99374.048 
   34670    1.0743153    2.2217195   -99376.226   -99374.004 
   34680    1.0718588    2.2166395   -99376.252   -99374.035 
   34690      1.04659    2.1643828    -99376.26   -99374.095 
   34700     1.045456    2.1620377   -99376.287   -99374.125 
   34710    1.0223491    2.1142518   -99376.226   -99374.112 
   34720    1.0168604     2.102901   -99376.202   -99374.099 
   34730    1.0313615    2.1328898   -99376.173    -99374.04 
   34740    1.0094749    2.0876274   -99376.154   -99374.066 
   34750     1.051053    2.1736124   -99376.206   -99374.032 
   34760    1.0449937    2.1610815   -99376.146   -99373.985 
   34770    1.0627514     2.197805   -99376.192   -99373.995 
   34780    1.0094057    2.0874843   -99376.153   -99374.065 
   34790    1.0697229    2.2122223   -99376.281   -99374.069 
   34800    1.0079927    2.0845622   -99376.185     -99374.1 
   34810    1.0188529    2.1070214   -99376.294   -99374.187 
   34820   0.98699739    2.0411432   -99376.248   -99374.207 
   34830   0.96979202     2.005562   -99376.209   -99374.203 
   34840   0.97060816    2.0072498   -99376.225   -99374.217 
   34850   0.98249562    2.0318334   -99376.226   -99374.194 
   34860   0.98033011    2.0273551    -99376.27   -99374.242 
   34870   0.98475966    2.0365155     -99376.4   -99374.363 
   34880   0.98003085    2.0267362   -99376.438   -99374.412 
   34890   0.96837269    2.0026267   -99376.449   -99374.446 
   34900   0.96311008    1.9917435   -99376.509   -99374.517 
   34910   0.95812939    1.9814433    -99376.55   -99374.568 
   34920   0.97372482    2.0136951   -99376.638   -99374.624 
   34930   0.96837207    2.0026255    -99376.64   -99374.638 
   34940   0.94720117    1.9588433   -99376.574   -99374.615 
   34950   0.96031432    1.9859618   -99376.619   -99374.633 
   34960     1.001057    2.0702189   -99376.658   -99374.588 
   34970    0.9959281    2.0596122   -99376.576   -99374.516 
   34980      1.01797    2.1051956   -99376.591   -99374.486 
   34990    1.0414341    2.1537202   -99376.504    -99374.35 
   35000    1.0601708    2.1924682   -99376.396   -99374.204 
   35010    1.1034996    2.2820737    -99376.39   -99374.107 
   35020     1.084459     2.242697     -99376.4   -99374.157 
   35030    1.1294762    2.3357941   -99376.549   -99374.213 
   35040    1.0817859    2.2371691   -99376.358   -99374.121 
   35050    1.1016713    2.2782926    -99376.37   -99374.091 
   35060     1.068074    2.2088123    -99376.48   -99374.272 
   35070      1.06591    2.2043372   -99376.656   -99374.451 
   35080    1.0152356    2.0995408    -99376.55    -99374.45 
   35090    1.0053932    2.0791864   -99376.536   -99374.456 
   35100   0.98176151    2.0303153   -99376.561   -99374.531 
   35110   0.96727166    2.0003498   -99376.636   -99374.636 
   35120   0.97312553    2.0124558   -99376.686   -99374.673 
   35130    0.9338421    1.9312163     -99376.6   -99374.669 
   35140   0.92609572    1.9151966   -99376.641   -99374.726 
   35150   0.92219197    1.9071235   -99376.698   -99374.791 
   35160   0.93133495    1.9260315   -99376.731   -99374.805 
   35170     0.929448    1.9221292   -99376.711   -99374.789 
   35180   0.95819113    1.9815709    -99376.75   -99374.768 
   35190   0.93562411    1.9349016   -99376.692   -99374.757 
   35200   0.96734724    2.0005061   -99376.745   -99374.745 
   35210   0.94996433    1.9645576   -99376.691   -99374.726 
   35220   0.97472248    2.0157583   -99376.719   -99374.704 
   35230   0.96101059    1.9874017   -99376.641   -99374.654 
   35240   0.97393239    2.0141244   -99376.676   -99374.662 
   35250   0.99498802    2.0576681   -99376.717   -99374.659 
   35260   0.99875659    2.0654617   -99376.604   -99374.538 
   35270    1.0223635    2.1142815   -99376.484   -99374.369 
   35280    1.0245228    2.1187471   -99376.397   -99374.279 
   35290    1.0685085     2.209711   -99376.441   -99374.231 
   35300    1.0649248    2.2022997   -99376.405   -99374.203 
   35310    1.1057191    2.2866637   -99376.428   -99374.141 
   35320    1.1016869    2.2783249   -99376.329   -99374.051 
   35330    1.0882833    2.2506059   -99376.312   -99374.062 
   35340    1.1191899    2.3145218   -99376.308   -99373.993 
   35350     1.046749    2.1647116   -99376.072   -99373.907 
   35360    1.1030071    2.2810551   -99376.193   -99373.912 
   35370    1.0391271    2.1489493   -99376.206   -99374.057 
   35380     1.041476    2.1538067   -99376.391   -99374.238 
   35390    1.0204694    2.1103644   -99376.411   -99374.301 
   35400   0.98176794    2.0303285    -99376.38    -99374.35 
   35410    1.0072481    2.0830225   -99376.502   -99374.419 
   35420   0.93432565    1.9322163   -99376.418   -99374.485 
   35430   0.97017081    2.0063453   -99376.453   -99374.447 
   35440   0.92028527    1.9031804   -99376.361   -99374.458 
   35450   0.93172441    1.9268369   -99376.467    -99374.54 
   35460   0.92220539    1.9071512   -99376.538   -99374.631 
   35470   0.91461274    1.8914494   -99376.565   -99374.674 
   35480   0.95048287      1.96563   -99376.568   -99374.602 
   35490   0.90603541    1.8737112   -99376.383   -99374.509 
   35500   0.96168176    1.9887897   -99376.418   -99374.429 
   35510   0.92575648     1.914495   -99376.266   -99374.352 
   35520   0.97673533     2.019921   -99376.379   -99374.359 
   35530     0.999035    2.0660374     -99376.4   -99374.334 
   35540   0.99136735    2.0501805   -99376.274   -99374.224 
   35550    1.0253908    2.1205422   -99376.287   -99374.166 
   35560    1.0106572    2.0900726   -99376.225   -99374.135 
   35570    1.0604053    2.1929532   -99376.234   -99374.041 
   35580    1.0406827    2.1521662   -99376.124   -99373.972 
   35590    1.0890404    2.2521716   -99376.181   -99373.929 
   35600    1.0780221    2.2293853   -99376.115   -99373.886 
   35610    1.0825379    2.2387241   -99376.075   -99373.836 
   35620    1.1060998    2.2874509   -99376.022   -99373.734 
   35630    1.0583336    2.1886688   -99375.913   -99373.724 
   35640    1.0594735    2.1910262   -99376.039   -99373.848 
   35650    1.0644821    2.2013841   -99376.191    -99373.99 
   35660    1.0402757    2.1513246   -99376.141   -99373.989 
   35670    1.0570561    2.1860269   -99376.163   -99373.977 
   35680    1.0206568     2.110752   -99376.084   -99373.973 
   35690    1.0299883    2.1300498   -99376.159   -99374.029 
   35700    1.0031036    2.0744514   -99376.147   -99374.073 
   35710    1.0148106    2.0986619    -99376.18   -99374.081 
   35720   0.98397411     2.034891   -99376.146   -99374.111 
   35730   0.96894917    2.0038189   -99376.245   -99374.241 
   35740   0.96486702    1.9953769   -99376.393   -99374.398 
   35750   0.94933569    1.9632576   -99376.314   -99374.351 
   35760   0.96145966    1.9883304   -99376.218    -99374.23 
   35770    0.9505157    1.9656979   -99376.132   -99374.166 
   35780    0.9538177    1.9725265   -99376.194   -99374.222 
   35790   0.95279353    1.9704085   -99376.199   -99374.229 
   35800   0.95824382    1.9816799   -99376.217   -99374.235 
   35810    0.9582584    1.9817101    -99376.25   -99374.268 
   35820   0.94458928    1.9534419   -99376.238   -99374.285 
   35830   0.94989942    1.9644234   -99376.222   -99374.257 
   35840   0.93399731    1.9315373   -99376.189   -99374.258 
   35850   0.95090212     1.966497   -99376.189   -99374.222 
   35860    0.9570754    1.9792636   -99376.085   -99374.106 
   35870   0.96415171    1.9938976   -99376.044    -99374.05 
   35880   0.98217745    2.0311754   -99376.171    -99374.14 
   35890   0.95904596    1.9833388   -99376.176   -99374.193 
   35900   0.99899147    2.0659474   -99376.147   -99374.081 
   35910    1.0164789    2.1021119   -99376.054   -99373.952 
   35920     1.035943    2.1423644   -99376.022    -99373.88 
   35930    1.0421771    2.1552566   -99375.996   -99373.841 
   35940    1.0411119    2.1530538   -99375.937   -99373.784 
   35950    1.0973397    2.2693348   -99375.978   -99373.709 
   35960    1.0481107    2.1675276   -99375.873   -99373.706 
   35970    1.0847721    2.2433445   -99376.009   -99373.766 
   35980    1.0695672    2.2119004   -99376.011   -99373.799 
   35990    1.0773924     2.228083   -99375.966   -99373.738 
   36000    1.0884641    2.2509797   -99375.856   -99373.605 
   36010    1.0878272    2.2496626   -99375.809   -99373.559 
   36020    1.0749597    2.2230522   -99375.859   -99373.636 
   36030    1.0262767    2.1223741   -99375.902    -99373.78 
   36040    1.0725509    2.2180707    -99376.04   -99373.822 
   36050    1.0268946    2.1236519   -99376.016   -99373.893 
   36060    1.0199702     2.109332   -99376.124   -99374.014 
   36070   0.99422906    2.0560986    -99376.13   -99374.073 
   36080   0.98806897    2.0433593   -99376.114   -99374.071 
   36090   0.98064018    2.0279963   -99376.127   -99374.099 
   36100   0.96745084    2.0007203   -99376.125   -99374.124 
   36110   0.94692197    1.9582659   -99376.118    -99374.16 
   36120   0.96296218    1.9914376   -99376.205   -99374.213 
   36130   0.92824699    1.9196455   -99376.209    -99374.29 
   36140   0.93294271    1.9293564   -99376.237   -99374.308 
   36150   0.93294656    1.9293643   -99376.236   -99374.307 
   36160   0.91948675     1.901529   -99376.209   -99374.308 
   36170    0.9287492     1.920684   -99376.211    -99374.29 
   36180   0.92208552    1.9069033   -99376.168   -99374.261 
   36190   0.94693895    1.9583011    -99376.18   -99374.221 
   36200   0.94286699    1.9498801   -99376.219   -99374.269 
   36210   0.97229222    2.0107325   -99376.284   -99374.273 
   36220    0.9753057    2.0169644   -99376.183   -99374.166 
   36230    1.0223294     2.114211   -99376.192   -99374.078 
   36240    1.0079307    2.0844341    -99376.14   -99374.056 
   36250    1.0181047    2.1054743   -99376.146    -99374.04 
   36260    1.0574666    2.1868759   -99376.115   -99373.928 
   36270    1.0399078    2.1505637   -99376.033   -99373.883 
   36280    1.0742652    2.2216159   -99376.067   -99373.845 
   36290    1.0562546    2.1843695   -99375.978   -99373.793 
   36300    1.0763585    2.2259449   -99375.993   -99373.767 
   36310    1.0799094    2.2332884   -99376.021   -99373.788 
   36320    1.0571407    2.1862018   -99375.973   -99373.787 
   36330    1.0720758    2.2170882   -99375.994   -99373.777 
   36340    1.0950282    2.2645546   -99376.083   -99373.818 
   36350    1.0681242    2.2089161   -99375.995   -99373.786 
   36360    1.0927767    2.2598984   -99375.988   -99373.728 
   36370    1.0411283    2.1530878   -99375.874   -99373.721 
   36380    1.0385628    2.1477821    -99376.03   -99373.882 
   36390    1.0184281     2.106143    -99376.11   -99374.003 
   36400    1.0156872    2.1004748   -99376.173   -99374.073 
   36410    0.9924165    2.0523501    -99376.19   -99374.138 
   36420   0.96709057    1.9999753   -99376.183   -99374.183 
   36430    0.9232035    1.9092154   -99376.128   -99374.219 
   36440   0.95620432    1.9774621   -99376.251   -99374.273 
   36450   0.91745216    1.8973214    -99376.25   -99374.353 
   36460   0.89805072    1.8571986   -99376.279   -99374.422 
   36470   0.94013043    1.9442208   -99376.352   -99374.408 
   36480   0.93339717    1.9302962   -99376.297   -99374.367 
   36490   0.94373638     1.951678   -99376.317   -99374.365 
   36500   0.97373571    2.0137176    -99376.27   -99374.256 
   36510   0.95963271    1.9845522   -99376.085     -99374.1 
   36520    1.0251841    2.1201146   -99376.157   -99374.037 
   36530    1.0218635    2.1132475   -99376.158   -99374.044 
   36540    1.0149079     2.098863    -99376.15   -99374.052 
   36550    1.0241892    2.1180571   -99376.143   -99374.025 
   36560    1.0111771    2.0911477   -99376.144   -99374.053 
   36570    1.0272364    2.1243588   -99376.161   -99374.037 
   36580    1.0483781    2.1680806   -99376.111   -99373.943 
   36590    1.0200497    2.1094964   -99375.988   -99373.878 
   36600    1.0447325    2.1605414   -99375.979   -99373.818 
   36610    1.0390951     2.148883   -99375.932   -99373.783 
   36620     1.054403    2.1805402   -99376.033   -99373.853 
   36630     1.081015    2.2355748   -99376.207   -99373.972 
   36640    1.0675398    2.2077076   -99376.125   -99373.917 
   36650    1.0479009    2.1670937   -99376.021   -99373.854 
   36660    1.0761519    2.2255177   -99376.105    -99373.88 
   36670    1.0574468    2.1868349   -99376.102   -99373.915 
   36680    1.0417736    2.1544223    -99376.14   -99373.985 
   36690   0.97805797    2.0226562   -99376.087   -99374.064 
   36700   0.98518019    2.0373852   -99376.174   -99374.137 
   36710   0.99042281    2.0482271   -99376.293   -99374.245 
   36720   0.97230192    2.0107525    -99376.29   -99374.279 
   36730   0.97582126    2.0180306   -99376.339   -99374.321 
   36740   0.95255123    1.9699074   -99376.352   -99374.382 
   36750   0.95437184    1.9736725   -99376.356   -99374.382 
   36760   0.96111345    1.9876144   -99376.339   -99374.352 
   36770   0.94653025    1.9574559   -99376.254   -99374.297 
   36780   0.95600629    1.9770526   -99376.277   -99374.299 
   36790   0.96109715    1.9875807   -99376.297    -99374.31 
   36800   0.96759565    2.0010198   -99376.285   -99374.284 
   36810   0.99120191    2.0498383   -99376.301   -99374.251 
   36820   0.98560861    2.0382712   -99376.242   -99374.204 
   36830   0.98257183     2.031991   -99376.231   -99374.199 
   36840   0.99193397    2.0513522   -99376.288   -99374.236 
   36850   0.99615862     2.060089   -99376.272   -99374.212 
   36860   0.98561806    2.0382907   -99376.203   -99374.165 
   36870   0.98743959    2.0420577   -99376.222    -99374.18 
   36880    1.0020873    2.0723497   -99376.314   -99374.241 
   36890     1.005634    2.0796844   -99376.278   -99374.199 
   36900    1.0199948     2.109383   -99376.198   -99374.088 
   36910     1.033116     2.136518   -99376.234   -99374.097 
   36920    1.0431266    2.1572202   -99376.287    -99374.13 
   36930    1.0410863    2.1530009   -99376.202   -99374.049 
   36940    1.0325628     2.135374   -99376.152   -99374.016 
   36950    1.0637683    2.1999079   -99376.238   -99374.039 
   36960    1.0262521    2.1223234   -99376.178   -99374.056 
   36970    1.0527763    2.1771763   -99376.214   -99374.037 
   36980    1.0323355    2.1349039   -99376.204   -99374.069 
   36990    1.0430685    2.1571002   -99376.235   -99374.078 
   37000    1.0421014       2.1551     -99376.2   -99374.045 
   37010    1.0706174    2.2140721   -99376.209   -99373.994 
   37020    1.0637935    2.1999601   -99376.209   -99374.009 
   37030    1.0673373    2.2072889    -99376.29   -99374.083 
   37040    1.0340155    2.1383783   -99376.317   -99374.178 
   37050    1.0007388     2.069561   -99376.303   -99374.234 
   37060    1.0053041    2.0790022   -99376.302   -99374.223 
   37070    1.0063613    2.0811884   -99376.333   -99374.251 
   37080   0.98709195    2.0413388   -99376.374   -99374.332 
   37090   0.96433317    1.9942729   -99376.378   -99374.384 
   37100   0.96029481    1.9859214   -99376.373   -99374.387 
   37110    0.9437918    1.9517926   -99376.308   -99374.357 
   37120   0.99131535    2.0500729   -99376.349   -99374.299 
   37130   0.98571948    2.0385005   -99376.384   -99374.346 
   37140   0.97125927    2.0085963   -99376.397   -99374.388 
   37150   0.99167049    2.0508074    -99376.41   -99374.359 
   37160   0.99972798    2.0674705   -99376.379   -99374.312 
   37170    1.0082347    2.0850627    -99376.43   -99374.345 
   37180   0.97025997    2.0065297   -99376.414   -99374.408 
   37190   0.96811566    2.0020952   -99376.392    -99374.39 
   37200   0.97302239    2.0122425   -99376.423   -99374.411 
   37210    1.0079373    2.0844476    -99376.47   -99374.386 
   37220    0.9674251    2.0006671   -99376.354   -99374.354 
   37230    1.0072274    2.0829796   -99376.439   -99374.356 
   37240   0.96626124    1.9982602   -99376.399     -99374.4 
   37250   0.99981976    2.0676603   -99376.456   -99374.388 
   37260    1.0086902    2.0860046   -99376.387   -99374.301 
   37270    1.0355371    2.1415249   -99376.384   -99374.243 
   37280    1.0490984    2.1695702   -99376.435   -99374.265 
   37290    1.0540228     2.179754   -99376.398   -99374.218 
   37300    1.0725575    2.2180844   -99376.368    -99374.15 
   37310    1.0851432    2.2441121   -99376.414    -99374.17 
   37320    1.0516647    2.1748773     -99376.4   -99374.225 
   37330    1.0410086    2.1528401    -99376.34   -99374.187 
   37340     1.008646    2.0859132   -99376.284   -99374.198 
   37350    1.0355502    2.1415521   -99376.472   -99374.331 
   37360   0.99282681    2.0531987   -99376.466   -99374.412 
   37370    1.0012973     2.070716   -99376.435   -99374.364 
   37380   0.99474333    2.0571621   -99376.394   -99374.337 
   37390    1.0105415    2.0898332   -99376.443   -99374.353 
   37400   0.99910307    2.0661782   -99376.422   -99374.356 
   37410   0.99078333    2.0489727   -99376.394   -99374.345 
   37420    1.0020577    2.0722884   -99376.448   -99374.375 
   37430   0.97516836    2.0166804   -99376.449   -99374.432 
   37440   0.99676265    2.0613381   -99376.415   -99374.354 
   37450   0.96914181    2.0042173    -99376.26   -99374.256 
   37460   0.98589217    2.0388576   -99376.357   -99374.318 
   37470   0.97779377    2.0221098   -99376.436   -99374.414 
   37480   0.96281972     1.991143   -99376.371    -99374.38 
   37490   0.97422689    2.0147334    -99376.39   -99374.375 
   37500   0.96515821    1.9959791    -99376.43   -99374.434 
   37510   0.98568892    2.0384373   -99376.456   -99374.417 
   37520   0.98467598    2.0363425   -99376.364   -99374.327 
   37530   0.97277025     2.011721   -99376.286   -99374.274 
   37540   0.98787934    2.0429671   -99376.361   -99374.318 
   37550    1.0320364    2.1342854   -99376.477   -99374.343 
   37560     1.054458     2.180654   -99376.455   -99374.275 
   37570    1.0144699    2.0979573    -99376.35   -99374.252 
   37580    1.0161013     2.101331   -99376.343   -99374.241 
   37590    1.0343874    2.1391473   -99376.364   -99374.225 
   37600     1.023328    2.1162761   -99376.353   -99374.236 
   37610    1.0105344    2.0898186   -99376.287   -99374.197 
   37620    1.0119815    2.0928112    -99376.25   -99374.157 
   37630    1.0448541    2.1607928   -99376.277   -99374.116 
   37640    1.0178697    2.1049881    -99376.21   -99374.105 
   37650    1.0304944    2.1310964   -99376.241    -99374.11 
   37660    1.0036181    2.0755155   -99376.182   -99374.106 
   37670    1.0097093    2.0881122   -99376.283   -99374.195 
   37680    1.0053296    2.0790549   -99376.405   -99374.326 
   37690   0.97380059    2.0138518   -99376.404    -99374.39 
   37700   0.98083088    2.0283907   -99376.426   -99374.397 
   37710   0.97276382    2.0117077   -99376.385   -99374.373 
   37720   0.95412197    1.9731558   -99376.353    -99374.38 
   37730   0.94167991    1.9474252   -99376.384   -99374.437 
   37740   0.92872299    1.9206298   -99376.394   -99374.474 
   37750   0.93302035    1.9295169   -99376.415   -99374.486 
   37760   0.95068592    1.9660499   -99376.403   -99374.437 
   37770   0.95085047    1.9663902   -99376.372   -99374.405 
   37780   0.96880556    2.0035219   -99376.425   -99374.421 
   37790   0.98983224    2.0470058   -99376.418   -99374.371 
   37800    0.9874739    2.0421287   -99376.323   -99374.281 
   37810   0.98914049    2.0455752   -99376.279   -99374.233 
   37820    1.0016045    2.0713511   -99376.349   -99374.277 
   37830    1.0199377    2.1092649   -99376.426   -99374.316 
   37840    1.0310171    2.1321775   -99376.384   -99374.252 
   37850     1.023815    2.1172833   -99376.305   -99374.188 
   37860    1.0101981     2.089123   -99376.297   -99374.207 
   37870    1.0478044    2.1668942   -99376.401   -99374.235 
   37880    1.0342679    2.1389002   -99376.342   -99374.203 
   37890    1.0364896    2.1434947     -99376.3   -99374.157 
   37900    1.0282024    2.1263565   -99376.328   -99374.202 
   37910    1.0121029    2.0930622   -99376.419   -99374.326 
   37920    1.0312362    2.1326306   -99376.515   -99374.382 
   37930    1.0094779    2.0876336   -99376.453   -99374.365 
   37940    1.0378764    2.1463626   -99376.442   -99374.295 
   37950    1.0198204    2.1090223   -99376.403   -99374.294 
   37960    1.0332078    2.1367079   -99376.479   -99374.342 
   37970    1.0110731    2.0909325   -99376.464   -99374.373 
   37980    1.0174276    2.1040738   -99376.487   -99374.383 
   37990    1.0459762    2.1631134   -99376.515   -99374.351 
   38000    1.0271473    2.1241745   -99376.518   -99374.393 
   38010    1.0364602    2.1434339   -99376.656   -99374.512 
   38020     1.004057    2.0764231   -99376.637   -99374.561 
   38030    1.0284155    2.1267973   -99376.705   -99374.578 
   38040     1.037435    2.1454499   -99376.652   -99374.507 
   38050    1.0279026    2.1257365   -99376.647   -99374.521 
   38060    1.0239132    2.1174864   -99376.643   -99374.526 
   38070   0.97580128    2.0179893   -99376.553   -99374.535 
   38080   0.98452537     2.036031   -99376.649   -99374.613 
   38090   0.98419797    2.0353539   -99376.695    -99374.66 
   38100   0.97560646    2.0175864    -99376.69   -99374.673 
   38110   0.97979356    2.0262455   -99376.672   -99374.645 
   38120   0.95327732     1.971409    -99376.58   -99374.608 
   38130   0.96500282    1.9956577   -99376.635   -99374.639 
   38140   0.97217528    2.0104906    -99376.68   -99374.669 
   38150   0.96610189    1.9979306   -99376.634   -99374.636 
   38160   0.96515228    1.9959668   -99376.613   -99374.617 
   38170   0.95657493    1.9782286   -99376.675   -99374.697 
   38180   0.97706942    2.0206119   -99376.781    -99374.76 
   38190    0.9802901    2.0272723    -99376.79   -99374.762 
   38200    1.0144919    2.0980027   -99376.712   -99374.614 
   38210    1.0232908    2.1161991   -99376.636    -99374.52 
   38220     1.040343    2.1514638   -99376.706   -99374.555 
   38230    1.0246062    2.1189196   -99376.683   -99374.564 
   38240    1.0196566    2.1086835   -99376.657   -99374.549 
   38250    1.0237101    2.1170664   -99376.663   -99374.546 
   38260     1.019295    2.1079357   -99376.668   -99374.561 
   38270    1.0424806    2.1558844   -99376.725   -99374.569 
   38280    1.0050605    2.0784982   -99376.656   -99374.577 
   38290    1.0174998    2.1042233   -99376.685    -99374.58 
   38300    1.0148163    2.0986737   -99376.674   -99374.576 
   38310    1.0547095    2.1811741   -99376.715   -99374.534 
   38320    1.0378911    2.1463931   -99376.637    -99374.49 
   38330    1.0373696    2.1453147   -99376.659   -99374.514 
   38340    1.0276374    2.1251882   -99376.663   -99374.537 
   38350    1.0517474    2.1750483   -99376.756   -99374.581 
   38360    1.0424613    2.1558445    -99376.76   -99374.604 
   38370    1.0257626     2.121311   -99376.778   -99374.656 
   38380     1.009754    2.0882046   -99376.845   -99374.757 
   38390   0.98491642    2.0368397   -99376.812   -99374.775 
   38400   0.97696984    2.0204059   -99376.764   -99374.744 
   38410   0.98223828    2.0313012   -99376.774   -99374.743 
   38420   0.98494472    2.0368982     -99376.8   -99374.763 
   38430   0.98852397    2.0443003   -99376.867   -99374.823 
   38440     1.000884    2.0698611   -99376.928   -99374.858 
   38450   0.98199199    2.0307919   -99376.857   -99374.826 
   38460   0.98523231     2.037493   -99376.855   -99374.817 
   38470   0.96905347    2.0040346   -99376.878   -99374.874 
   38480   0.95955728    1.9843962   -99376.919   -99374.934 
   38490   0.96071262    1.9867855   -99376.984   -99374.997 
   38500   0.98448165    2.0359406    -99377.02   -99374.984 
   38510   0.96858409    2.0030639    -99376.94   -99374.937 
   38520   0.99902212    2.0660108   -99376.952   -99374.886 
   38530   0.99142777    2.0503054   -99376.925   -99374.875 
   38540    0.9943247    2.0562964   -99376.983   -99374.926 
   38550    1.0106081    2.0899709   -99377.051   -99374.961 
   38560    1.0023193    2.0728294   -99377.016   -99374.943 
   38570    1.0253617     2.120482   -99377.008   -99374.888 
   38580    1.0111312    2.0910528   -99376.952   -99374.861 
   38590     1.001366    2.0708581   -99376.961    -99374.89 
   38600    1.0108902    2.0905543   -99376.995   -99374.904 
   38610     1.016858    2.1028959   -99377.024   -99374.921 
   38620     1.015999    2.1011195   -99377.119   -99375.018 
   38630    1.0127474    2.0943951   -99377.172   -99375.077 
   38640    1.0147342     2.098504   -99377.203   -99375.105 
   38650    1.0168195    2.1028164   -99377.221   -99375.118 
   38660    1.0407692    2.1523451   -99377.224   -99375.072 
   38670    1.0259893    2.1217797   -99377.155   -99375.033 
   38680    1.0337855    2.1379027   -99377.169   -99375.031 
   38690    1.0455146    2.1621588   -99377.157   -99374.995 
   38700    1.0241439    2.1179635   -99377.127   -99375.009 
   38710    1.0182755    2.1058275   -99377.212   -99375.106 
   38720    1.0154305    2.0999438   -99377.327   -99375.228 
   38730    1.0178877    2.1050253   -99377.308   -99375.203 
   38740   0.98316545    2.0332186   -99377.158   -99375.124 
   38750    1.0036881    2.0756601    -99377.25   -99375.174 
   38760   0.98923872    2.0457784   -99377.321   -99375.275 
   38770    0.9836857    2.0342945   -99377.383   -99375.349 
   38780   0.95699217    1.9790915   -99377.365   -99375.385 
   38790   0.96211917    1.9896943   -99377.432   -99375.443 
   38800   0.97843931    2.0234448     -99377.5   -99375.476 
   38810   0.96911117    2.0041539   -99377.427   -99375.423 
   38820   0.97901555    2.0246365   -99377.398   -99375.373 
   38830    0.9817552    2.0303022   -99377.384   -99375.354 
   38840    1.0116973    2.0922235   -99377.467   -99375.375 
   38850    1.0225153    2.1145954   -99377.482   -99375.368 
   38860    1.0394893    2.1496981   -99377.458   -99375.309 
   38870    1.0494558    2.1703093   -99377.431    -99375.26 
   38880    1.0209225    2.1113016   -99377.407   -99375.295 
   38890    1.0118143    2.0924654   -99377.463   -99375.371 
   38900    1.0131351    2.0951968   -99377.495     -99375.4 
   38910   0.99017603    2.0477168   -99377.446   -99375.399 
   38920    1.0022868    2.0727622   -99377.488   -99375.415 
   38930   0.98141653    2.0296018   -99377.531   -99375.501 
   38940   0.99883215    2.0656179   -99377.638   -99375.572 
   38950   0.96004894    1.9854129   -99377.588   -99375.602 
   38960   0.96945709    2.0048693   -99377.608   -99375.603 
   38970   0.95442215    1.9737766   -99377.619   -99375.645 
   38980   0.97233282    2.0108164   -99377.759   -99375.748 
   38990    0.9518011    1.9683561   -99377.791   -99375.823 
   39000   0.95977738    1.9848513   -99377.803   -99375.818 
   39010    0.9546861    1.9743224   -99377.777   -99375.803 
   39020   0.98284842     2.032563   -99377.846   -99375.813 
   39030   0.97805922    2.0226588   -99377.882   -99375.859 
   39040   0.99882534    2.0656038   -99377.914   -99375.848 
   39050    1.0003502    2.0687573   -99377.839    -99375.77 
   39060    1.0158302    2.1007705   -99377.856   -99375.755 
   39070    1.0266093    2.1230619   -99377.954   -99375.831 
   39080    1.0250103    2.1197552   -99378.044   -99375.925 
   39090    1.0278129    2.1255512   -99378.065   -99375.939 
   39100    1.0376783    2.1459531   -99378.002   -99375.856 
   39110    1.0379704    2.1465572   -99377.993   -99375.846 
   39120     1.033893    2.1381249   -99378.107   -99375.969 
   39130      1.03137    2.1329072   -99378.209   -99376.076 
   39140    1.0307737    2.1316742   -99378.216   -99376.084 
   39150    1.0325942    2.1354388   -99378.189   -99376.053 
   39160    1.0199128    2.1092135   -99378.238   -99376.129 
   39170    1.0139853    2.0969552    -99378.34   -99376.243 
   39180    1.0038281    2.0759497   -99378.352   -99376.276 
   39190     1.009446    2.0875676   -99378.369   -99376.281 
   39200     1.005792     2.080011   -99378.408   -99376.328 
   39210   0.99581176    2.0593716   -99378.497   -99376.438 
   39220    1.0011329    2.0703759   -99378.626   -99376.555 
   39230    1.0000718    2.0681815   -99378.675   -99376.607 
   39240    1.0092687    2.0872011   -99378.674   -99376.587 
   39250    1.0000637    2.0681647   -99378.677   -99376.609 
   39260    1.0200902    2.1095802   -99378.781   -99376.672 
   39270    1.0221387    2.1138165   -99378.845   -99376.731 
   39280     1.005316    2.0790266   -99378.878   -99376.799 
   39290    1.0093288    2.0873253   -99378.963   -99376.876 
   39300   0.98650447    2.0401239   -99379.016   -99376.976 
   39310   0.99626688    2.0603128   -99379.118   -99377.058 
   39320   0.98689938    2.0409406    -99379.14   -99377.099 
   39330   0.99304914    2.0536584   -99379.164    -99377.11 
   39340    1.0066154     2.081714   -99379.206   -99377.125 
   39350    1.0041235    2.0765606   -99379.258   -99377.182 
   39360    1.0165006    2.1021568   -99379.376   -99377.274 
   39370    1.0142131    2.0974263   -99379.424   -99377.327 
   39380    1.0227606    2.1151028   -99379.471   -99377.356 
   39390    1.0271512    2.1241827   -99379.547   -99377.423 
   39400    1.0152213    2.0995113   -99379.641   -99377.541 
   39410    1.0153578    2.0997935   -99379.728   -99377.628 
   39420    1.0104222    2.0895864   -99379.735   -99377.645 
   39430    1.0208837    2.1112213   -99379.733   -99377.622 
   39440    1.0177675    2.1047769   -99379.798   -99377.694 
   39450    1.0255122    2.1207931   -99379.906   -99377.785 
   39460     1.013675    2.0963133   -99379.931   -99377.834 
   39470    1.0015451    2.0712284   -99379.961    -99377.89 
   39480    1.0069551    2.0824165   -99380.073   -99377.991 
   39490     1.024266     2.118216   -99380.117   -99377.998 
   39500    1.0151975    2.0994621   -99380.096   -99377.996 
   39510    1.0079548    2.0844837   -99380.169   -99378.084 
   39520    1.0120671    2.0929881   -99380.268   -99378.175 
   39530    1.0308866    2.1319076     -99380.3   -99378.168 
   39540    1.0330574    2.1363968   -99380.317   -99378.181 
   39550    1.0447659    2.1606105   -99380.481    -99378.32 
   39560    1.0169067    2.1029967   -99380.549   -99378.446 
   39570    1.0238015    2.1172553   -99380.584   -99378.467 
   39580    1.0155186     2.100126   -99380.631    -99378.53 
   39590   0.99367861    2.0549602   -99380.708   -99378.653 
   39600    1.0027703    2.0737621    -99380.79   -99378.717 
   39610   0.98229036    2.0314089   -99380.786   -99378.754 
   39620   0.98581277    2.0386934   -99380.867   -99378.828 
   39630    1.0028629    2.0739536   -99380.863   -99378.789 
   39640   0.97710619    2.0206879   -99380.789   -99378.769 
   39650   0.99358383    2.0547642   -99380.903   -99378.848 
   39660   0.96865288    2.0032062   -99380.983   -99378.979 
   39670   0.97810181    2.0227469   -99381.058   -99379.035 
   39680   0.97544858    2.0172599   -99380.991   -99378.974 
   39690   0.97077714    2.0075992   -99381.032   -99379.024 
   39700    0.9595982    1.9844808    -99381.13   -99379.146 
   39710   0.95255319    1.9699115   -99381.113   -99379.144 
   39720   0.96873717    2.0033805   -99381.078   -99379.074 
   39730   0.95156887    1.9678759   -99380.992   -99379.024 
   39740   0.93847664    1.9408007   -99381.025   -99379.084 
   39750   0.95750109    1.9801439   -99381.162   -99379.182 
   39760   0.93096015    1.9252564   -99381.079   -99379.154 
   39770   0.94781441    1.9601115    -99381.03    -99379.07 
   39780   0.95812949    1.9814435   -99380.995   -99379.013 
   39790    0.9677785    2.0013979   -99381.043   -99379.042 
   39800   0.97776256    2.0220453   -99381.122     -99379.1 
   39810   0.99495204    2.0575937   -99381.109   -99379.052 
   39820    1.0206049    2.1106446   -99381.135   -99379.024 
   39830    1.0244377    2.1185711   -99381.176   -99379.057 
   39840    1.0410689    2.1529649   -99381.216   -99379.063 
   39850    1.0484112    2.1681491   -99381.185   -99379.017 
   39860    1.0543959    2.1805255   -99381.122   -99378.941 
   39870    1.0498824    2.1711915   -99381.095   -99378.923 
   39880    1.0365796     2.143681   -99381.115   -99378.971 
   39890    1.0251845    2.1201155   -99381.121   -99379.001 
   39900    1.0062102     2.080876   -99381.107   -99379.026 
   39910   0.98809942    2.0434223   -99381.064   -99379.021 
   39920   0.98235977    2.0315525   -99381.057   -99379.025 
   39930   0.96905791    2.0040438   -99381.076   -99379.072 
   39940   0.98117535    2.0291031   -99381.133   -99379.104 
   39950   0.97721577    2.0209145    -99381.13   -99379.109 
   39960   0.98662602    2.0403752   -99381.105   -99379.064 
   39970   0.99398544    2.0555948   -99381.113   -99379.057 
   39980    1.0224951    2.1145537   -99381.174   -99379.059 
   39990    1.0131931    2.0953168   -99381.135   -99379.039 
   40000    1.0188282    2.1069705   -99381.169   -99379.062 
   40010     1.104382    2.2838985   -99381.217   -99378.933 
   40020    1.0918807    2.2580454   -99381.018    -99378.76 
   40030    1.0914785    2.2572135   -99381.072   -99378.815 
   40040    1.0572637    2.1864562   -99381.145   -99378.959 
   40050    1.0495129    2.1704273   -99381.123   -99378.953 
   40060    1.0432039    2.1573802   -99380.941   -99378.783 
   40070     1.003707    2.0756992   -99380.874   -99378.798 
   40080   0.99842829    2.0647827   -99381.093   -99379.029 
   40090   0.95561147    1.9762361   -99381.145   -99379.169 
   40100   0.93961022     1.943145   -99381.094   -99379.151 
   40110    0.9276428     1.918396    -99381.04   -99379.122 
   40120   0.92760185    1.9183113   -99381.088    -99379.17 
   40130   0.93703417    1.9378176   -99381.173   -99379.235 
   40140   0.93350812    1.9305256   -99381.124   -99379.193 
   40150   0.94735141     1.959154   -99381.056   -99379.096 
   40160    0.9497142    1.9640404   -99381.081   -99379.117 
   40170   0.98680358    2.0407424   -99381.256   -99379.216 
   40180   0.98438728    2.0357454   -99381.321   -99379.285 
   40190    1.0042143    2.0767483   -99381.227    -99379.15 
   40200    1.0054865    2.0793793   -99381.015   -99378.936 
   40210    1.0034104    2.0750859   -99380.937   -99378.862 
   40220    1.0210891    2.1116461    -99381.01   -99378.898 
   40230    1.0206499    2.1107377   -99381.035   -99378.924 
   40240    1.0371332    2.1448258   -99380.988   -99378.843 
   40250    1.0321671    2.1345557   -99380.889   -99378.755 
   40260    1.0621317    2.1965234   -99380.932   -99378.736 
   40270    1.0886952    2.2514576   -99380.981    -99378.73 
   40280    1.0784228     2.230214   -99380.924   -99378.694 
   40290    1.0776188    2.2285514   -99380.947   -99378.719 
   40300    1.0764162    2.2260644   -99380.981   -99378.755 
   40310    1.0876684    2.2493342   -99381.019    -99378.77 
   40320    1.0782916    2.2299427   -99381.035   -99378.805 
   40330    1.0776011    2.2285148    -99381.04   -99378.812 
   40340    1.0537537    2.1791975   -99380.996   -99378.817 
   40350    1.0474907    2.1662453    -99381.06   -99378.893 
   40360    1.0266368    2.1231188   -99381.156   -99379.033 
   40370    1.0155897    2.1002731   -99381.283   -99379.182 
   40380    0.9957446    2.0592327   -99381.281   -99379.221 
   40390   0.98784122    2.0428883   -99381.295   -99379.252 
   40400   0.96889472    2.0037063   -99381.385   -99379.382 
   40410   0.94807081    1.9606418   -99381.449   -99379.488 
   40420   0.93922364    1.9423455   -99381.471   -99379.529 
   40430   0.94411416    1.9524593   -99381.533    -99379.58 
   40440   0.95929729    1.9838585   -99381.638   -99379.654 
   40450   0.95488579    1.9747354    -99381.69   -99379.715 
   40460   0.96351789    1.9925868    -99381.67   -99379.677 
   40470   0.98350737    2.0339258   -99381.709   -99379.675 
   40480    1.0171925    2.1035877   -99381.768   -99379.665 
   40490    1.0211362    2.1117434   -99381.692    -99379.58 
   40500    1.0381852    2.1470012   -99381.734   -99379.587 
   40510    1.0367184    2.1439679   -99381.808   -99379.664 
   40520    1.0379451    2.1465047   -99381.873   -99379.727 
   40530    1.0477282    2.1667365   -99381.964   -99379.797 
   40540    1.0410974    2.1530239   -99381.908   -99379.755 
   40550    1.0230192    2.1156375   -99381.874   -99379.758 
   40560    1.0075246    2.0835941   -99381.855   -99379.771 
   40570    1.0042727    2.0768691   -99381.901   -99379.824 
   40580    1.0176296    2.1044916   -99381.943   -99379.838 
   40590   0.98250441    2.0318516   -99381.874   -99379.842 
   40600   0.99838743    2.0646982   -99381.925    -99379.86 
   40610   0.99020503    2.0477767    -99381.96   -99379.912 
   40620   0.99034388    2.0480639   -99381.986   -99379.938 
   40630    1.0080782    2.0847391   -99381.928   -99379.843 
   40640    0.9919108    2.0513043   -99381.863   -99379.811 
   40650    1.0334282    2.1371637   -99381.999   -99379.862 
   40660     1.000826    2.0697413   -99382.046   -99379.977 
   40670    1.0189621    2.1072474   -99382.031   -99379.924 
   40680   0.99725338     2.062353   -99381.918   -99379.856 
   40690    0.9925177    2.0525594   -99381.989   -99379.937 
   40700   0.96024691    1.9858224   -99382.014   -99380.028 
   40710   0.93815038     1.940126   -99382.037   -99380.097 
   40720   0.92117256    1.9050153   -99381.941   -99380.036 
   40730    0.9081602    1.8781053   -99381.883   -99380.004 
   40740    0.9151071    1.8924717   -99381.969   -99380.077 
   40750   0.90392259    1.8693418   -99381.995   -99380.125 
   40760   0.93466464    1.9329174   -99381.994   -99380.061 
   40770   0.92892959    1.9210571   -99381.895   -99379.973 
   40780   0.94877962    1.9621076    -99381.91   -99379.948 
   40790   0.95195049    1.9686651    -99381.92   -99379.951 
   40800   0.97003906    2.0060728   -99381.917   -99379.911 
   40810   0.98478041    2.0365584   -99381.841   -99379.805 
   40820    1.0049874    2.0783472   -99381.799   -99379.721 
   40830    1.0006925    2.0694653   -99381.762   -99379.693 
   40840    1.0339186    2.1381779   -99381.785   -99379.646 
   40850    1.0217369    2.1129858   -99381.699   -99379.586 
   40860    1.0689997    2.2107268   -99381.736   -99379.525 
   40870     1.063299    2.1989375   -99381.698   -99379.499 
   40880    1.0684837    2.2096595   -99381.706   -99379.496 
   40890    1.0784353    2.2302398   -99381.704   -99379.474 
   40900    1.0799579    2.2333886   -99381.643    -99379.41 
   40910    1.0626348     2.197564   -99381.558    -99379.36 
   40920    1.0681184    2.2089041   -99381.596   -99379.387 
   40930     1.050569    2.1726114   -99381.611   -99379.438 
   40940    1.0441726    2.1593834   -99381.662   -99379.502 
   40950    1.0584461    2.1889014   -99381.731   -99379.542 
   40960    1.0289254    2.1278517   -99381.714   -99379.586 
   40970    1.0374869    2.1455572   -99381.764   -99379.618 
   40980    1.0335834    2.1374846   -99381.708    -99379.57 
   40990    1.0199503    2.1092908    -99381.68   -99379.571 
   41000   0.99389174     2.055401   -99381.671   -99379.616 
   41010    1.0324893     2.135222   -99381.757   -99379.622 
   41020    1.0341772    2.1387127   -99381.608   -99379.469 
   41030    1.0087707    2.0861712   -99381.546    -99379.46 
   41040    1.0045494    2.0774414   -99381.671   -99379.594 
   41050   0.99791781     2.063727   -99381.724    -99379.66 
   41060   0.97821455      2.02298   -99381.629   -99379.606 
   41070   0.98315316    2.0331932   -99381.627   -99379.594 
   41080   0.95237277    1.9695384    -99381.68    -99379.71 
   41090   0.95197648    1.9687188   -99381.736   -99379.767 
   41100   0.92104977    1.9047614   -99381.656   -99379.752 
   41110   0.92669584    1.9164376   -99381.637    -99379.72 
   41120   0.90991499    1.8817343   -99381.583   -99379.702 
   41130   0.90450859    1.8705537   -99381.622   -99379.752 
   41140   0.95066192    1.9660003    -99381.71   -99379.744 
   41150   0.92882343    1.9208376   -99381.553   -99379.632 
   41160   0.95767538    1.9805044   -99381.569   -99379.588 
   41170   0.93726159     1.938288   -99381.498   -99379.559 
   41180   0.95816677    1.9815206   -99381.532   -99379.551 
   41190   0.98860678    2.0444715   -99381.546   -99379.502 
   41200   0.98733729    2.0418462   -99381.429   -99379.387 
   41210    1.0093797    2.0874306   -99381.432   -99379.345 
   41220    1.0402484    2.1512681   -99381.439   -99379.288 
   41230    1.0128669    2.0946422   -99381.335    -99379.24 
   41240    1.0732529    2.2195225   -99381.372   -99379.153 
   41250    1.0415706    2.1540024   -99381.233   -99379.079 
   41260    1.0983018    2.2713244   -99381.292    -99379.02 
   41270    1.0824846     2.238614   -99381.238   -99378.999 
   41280    1.0689394     2.210602   -99381.207   -99378.996 
   41290    1.0975271    2.2697223   -99381.286   -99379.017 
   41300    1.0706381    2.2141149   -99381.237   -99379.023 
   41310    1.0782111    2.2297761   -99381.243   -99379.013 
   41320    1.0629099    2.1981328   -99381.248    -99379.05 
   41330    1.0424663    2.1558547   -99381.262   -99379.106 
   41340     1.029565    2.1291744    -99381.28   -99379.151 
   41350    1.0152393    2.0995484   -99381.305   -99379.205 
   41360    1.0006757    2.0694305   -99381.389   -99379.319 
   41370   0.98781823    2.0428408   -99381.504   -99379.461 
   41380   0.96759438    2.0010172   -99381.492   -99379.491 
   41390   0.94525934    1.9548276    -99381.44   -99379.485 
   41400   0.95167126    1.9680876   -99381.527   -99379.559 
   41410   0.92595878    1.9149134   -99381.534   -99379.619 
   41420   0.93586955    1.9354092   -99381.599   -99379.664 
   41430   0.92634878    1.9157199   -99381.543   -99379.628 
   41440   0.92525293    1.9134536   -99381.562   -99379.648 
   41450   0.94272062    1.9495774   -99381.635   -99379.685 
   41460   0.94798518    1.9604647   -99381.535   -99379.574 
   41470   0.94599705    1.9563532   -99381.434   -99379.478 
   41480   0.97150999    2.0091148   -99381.432   -99379.423 
   41490   0.96585244    1.9974148   -99381.476   -99379.478 
   41500   0.99715798    2.0621557     -99381.5   -99379.438 
   41510   0.99848835    2.0649069   -99381.385    -99379.32 
   41520    1.0092671    2.0871978   -99381.294   -99379.206 
   41530    1.0357688    2.1420042   -99381.361   -99379.219 
   41540    1.0326681    2.1355918   -99381.406    -99379.27 
   41550    1.0734017    2.2198301   -99381.378   -99379.158 
   41560    1.0655115     2.203513   -99381.226   -99379.022 
   41570    1.0821916    2.2380081   -99381.203   -99378.965 
   41580    1.0717941    2.2165055   -99381.334   -99379.117 
   41590    1.0905569    2.2553078   -99381.414   -99379.159 
   41600    1.0774235    2.2281475   -99381.252   -99379.024 
   41610    1.0703785    2.2135782   -99381.141   -99378.928 
   41620    1.0894601    2.2530395   -99381.301   -99379.048 
   41630    1.0345152    2.1394116   -99381.391   -99379.252 
   41640    1.0867981    2.2475344   -99381.465   -99379.217 
   41650    1.0283483    2.1266583   -99381.208   -99379.081 
   41660    1.0435238    2.1580418   -99381.366   -99379.208 
   41670    1.0191799    2.1076978   -99381.606   -99379.499 
   41680   0.96680659     1.999388   -99381.569    -99379.57 
   41690    1.0154316    2.0999462   -99381.634   -99379.534 
   41700   0.97231247    2.0107743   -99381.568   -99379.558 
   41710   0.97641512    2.0192587   -99381.665   -99379.646 
   41720   0.92029085    1.9031919   -99381.718   -99379.815 
   41730   0.94009762     1.944153   -99381.789   -99379.845 
   41740   0.94911594    1.9628031   -99381.751   -99379.788 
   41750   0.92442409    1.9117396    -99381.69   -99379.778 
   41760   0.95406758    1.9730433   -99381.785   -99379.812 
   41770   0.90986664    1.8816343   -99381.819   -99379.937 
   41780   0.98032047    2.0273351   -99381.907    -99379.88 
   41790   0.94458426    1.9534315   -99381.677   -99379.723 
   41800   0.99855144    2.0650374    -99381.74   -99379.675 
   41810   0.98607053    2.0392265   -99381.841   -99379.802 
   41820   0.96700268    1.9997935   -99381.853   -99379.853 
   41830    1.0592903    2.1906474    -99381.98    -99379.79 
   41840   0.98605267    2.0391895   -99381.794   -99379.755 
   41850    1.0191274    2.1075891   -99381.901   -99379.793 
   41860    1.0315025    2.1331813   -99381.883    -99379.75 
   41870    1.0285791    2.1271357   -99381.867    -99379.74 
   41880    1.0681231    2.2089139   -99381.996   -99379.788 
   41890    1.0264484    2.1227292   -99381.954   -99379.831 
   41900    1.0410719    2.1529712   -99382.017   -99379.864 
   41910    1.0286186    2.1272173   -99382.009   -99379.882 
   41920    1.0261761    2.1221661   -99382.019   -99379.897 
   41930    1.0224925    2.1145483   -99382.008   -99379.893 
   41940   0.98587399      2.03882   -99381.915   -99379.877 
   41950    1.0136188    2.0961972   -99381.979   -99379.882 
   41960   0.98358278    2.0340817   -99381.972   -99379.938 
   41970   0.98686456    2.0408685   -99382.079   -99380.038 
   41980   0.95876532    1.9827584   -99382.062    -99380.08 
   41990   0.97684778    2.0201535   -99382.061   -99380.041 
   42000   0.96619069    1.9981143   -99381.989   -99379.991 
   42010    1.0098711    2.0884468   -99382.083   -99379.995 
   42020    1.0433237    2.1576279   -99382.139   -99379.981 
   42030   0.99691176    2.0616465   -99382.038   -99379.976 
   42040     1.030069    2.1302168   -99382.085   -99379.955 
   42050   0.98385888    2.0346527   -99382.013   -99379.979 
   42060   0.99635638    2.0604979   -99382.096   -99380.035 
   42070    0.9774764    2.0214535   -99382.071    -99380.05 
   42080   0.93682648    1.9373881   -99381.946   -99380.008 
   42090   0.95914254    1.9835385    -99381.97   -99379.986 
   42100   0.91271296    1.8875206   -99381.943   -99380.055 
   42110    0.9298549    1.9229707   -99382.071   -99380.148 
   42120   0.93823493    1.9403009   -99382.067   -99380.127 
   42130   0.93544184    1.9345247   -99381.911   -99379.976 
   42140   0.96187906    1.9891977   -99381.855   -99379.866 
   42150   0.94435316    1.9529536   -99381.858   -99379.905 
   42160   0.95566386    1.9763445   -99381.967    -99379.99 
   42170   0.97720533    2.0208929   -99381.964   -99379.943 
   42180   0.97793768    2.0224075   -99381.815   -99379.793 
   42190   0.99320759    2.0539861   -99381.787   -99379.733 
   42200   0.99190969     2.051302   -99381.807   -99379.756 
   42210    1.0158602    2.1008325   -99381.792   -99379.691 
   42220    1.0275618    2.1250317   -99381.679   -99379.554 
   42230    1.0389044    2.1484887   -99381.614   -99379.466 
   42240     1.056365    2.1845977   -99381.628   -99379.443 
   42250    1.0603674    2.1928749   -99381.608   -99379.415 
   42260     1.076137    2.2254868   -99381.544   -99379.318 
   42270    1.0915234    2.2573066   -99381.442   -99379.185 
   42280    1.0816101    2.2368054   -99381.357    -99379.12 
   42290    1.0926597    2.2596563   -99381.444   -99379.184 
   42300    1.0714001    2.2156909   -99381.527   -99379.311 
   42310    1.0871438    2.2482493    -99381.56   -99379.311 
   42320    1.0464833    2.1641622    -99381.41   -99379.246 
   42330    1.0556571    2.1831338   -99381.434    -99379.25 
   42340    1.0220573    2.1136482   -99381.424    -99379.31 
   42350     1.030159    2.1304029   -99381.463   -99379.332 
   42360    1.0188317    2.1069777   -99381.472   -99379.365 
   42370   0.98876218    2.0447929    -99381.53   -99379.485 
   42380   0.98508071    2.0371795   -99381.621   -99379.584 
   42390   0.95943125    1.9841355     -99381.6   -99379.616 
   42400   0.93510712    1.9338324   -99381.619   -99379.686 
   42410   0.94156831    1.9471944   -99381.673   -99379.726 
   42420    0.9165338    1.8954222   -99381.546   -99379.651 
   42430   0.93987227    1.9436869   -99381.529   -99379.585 
   42440   0.92800396    1.9191429   -99381.581   -99379.662 
   42450   0.94069323    1.9453847   -99381.707   -99379.762 
   42460   0.94245428    1.9490266   -99381.664   -99379.715 
   42470   0.94809136    1.9606843   -99381.519   -99379.558 
   42480   0.95279366    1.9704088   -99381.434   -99379.464 
   42490   0.95732505    1.9797798    -99381.51    -99379.53 
   42500   0.97117529    2.0084226   -99381.614   -99379.605 
   42510   0.95903258    1.9833111   -99381.501   -99379.518 
   42520   0.98848105    2.0442115   -99381.396   -99379.352 
   42530   0.97078843    2.0076226   -99381.266   -99379.258 
   42540    1.0202218    2.1098524   -99381.362   -99379.252 
   42550    1.0117574    2.0923478    -99381.29   -99379.198 
   42560    1.0405782      2.15195   -99381.204   -99379.052 
   42570    1.0540642    2.1798397   -99381.186   -99379.006 
   42580    1.0409152    2.1526471    -99381.29   -99379.137 
   42590    1.0790099    2.2314282   -99381.454   -99379.223 
   42600    1.0590375    2.1901246   -99381.223   -99379.032 
   42610    1.0797207     2.232898   -99381.043    -99378.81 
   42620    1.0559311    2.1837004   -99381.008   -99378.824 
   42630    1.0692139    2.2111698    -99381.23   -99379.019 
   42640    1.0597572     2.191613   -99381.338   -99379.146 
   42650    1.0428392    2.1566259   -99381.292   -99379.135 
   42660    1.0589261    2.1898941   -99381.244   -99379.054 
   42670    1.0199859    2.1093646   -99381.074   -99378.965 
   42680    1.0458943     2.162944   -99381.161   -99378.998 
   42690    1.0241891     2.118057   -99381.236   -99379.118 
   42700    1.0372265    2.1450188   -99381.302   -99379.157 
   42710    1.0103662    2.0894706   -99381.242   -99379.153 
   42720     0.989081    2.0454522   -99381.311   -99379.265 
   42730   0.99314408    2.0538548   -99381.522   -99379.469 
   42740   0.95532045    1.9756343   -99381.498   -99379.522 
   42750   0.95973472    1.9847631   -99381.378   -99379.393 
   42760   0.92136188    1.9054068   -99381.251   -99379.346 
   42770   0.91757776    1.8975811   -99381.375   -99379.478 
   42780   0.92079283      1.90423   -99381.504   -99379.599 
   42790   0.91214284    1.8863415   -99381.462   -99379.576 
   42800   0.92957942     1.922401   -99381.408   -99379.486 
   42810   0.90602477    1.8736892   -99381.325   -99379.452 
   42820   0.94359375    1.9513831   -99381.461    -99379.51 
   42830   0.93209631     1.927606    -99381.46   -99379.532 
   42840    0.9604399    1.9862215   -99381.434   -99379.447 
   42850   0.96650594    1.9987662    -99381.31   -99379.311 
   42860   0.98391472    2.0347682   -99381.203   -99379.168 
   42870    1.0306305     2.131378    -99381.26   -99379.129 
   42880    1.0134767    2.0959033   -99381.225   -99379.129 
   42890    1.0688945    2.2105091   -99381.261   -99379.051 
   42900    1.0365703    2.1436617   -99381.103   -99378.959 
   42910    1.0698294    2.2124425   -99381.124   -99378.912 
   42920    1.0703656    2.2135514   -99381.121   -99378.907 
   42930    1.0579135    2.1878001   -99381.074   -99378.886 
   42940     1.083485    2.2406827   -99381.008   -99378.768 
   42950    1.0654479    2.2033815   -99380.835   -99378.631 
   42960    1.0749122    2.2229539   -99380.813    -99378.59 
   42970    1.0994221    2.2736413   -99380.978   -99378.704 
   42980    1.0849893    2.2437938    -99381.06   -99378.816 
   42990    1.0859838    2.2458504   -99381.018   -99378.772 
   43000    1.0430318    2.1570243   -99380.922   -99378.765 
   43010    1.0613919    2.1949935   -99381.072   -99378.877 
   43020    1.0380053    2.1466292   -99381.068   -99378.922 
   43030    1.0380051    2.1466289   -99381.056    -99378.91 
   43040    1.0023757    2.0729461   -99381.044   -99378.971 
   43050   0.97611935    2.0186471   -99381.124   -99379.105 
   43060   0.98964086      2.04661   -99381.286    -99379.24 
   43070   0.96347704    1.9925024   -99381.392     -99379.4 
   43080   0.96023681    1.9858015   -99381.413   -99379.427 
   43090   0.93651209     1.936738   -99381.233   -99379.296 
   43100   0.91545999    1.8932015   -99381.115   -99379.222 
   43110   0.93239006    1.9282135   -99381.306   -99379.378 
   43120   0.90043639    1.8621322   -99381.437   -99379.575 
   43130   0.89397661    1.8487732   -99381.398   -99379.549 
   43140   0.89742183     1.855898   -99381.306    -99379.45 
   43150   0.90387756    1.8692487   -99381.343   -99379.474 
   43160   0.91967158    1.9019112   -99381.439   -99379.537 
   43170   0.92819757    1.9195433   -99381.372   -99379.452 
   43180   0.94531847    1.9549498   -99381.214   -99379.259 
   43190   0.95729828    1.9797245   -99381.143   -99379.163 
   43200   0.98593436    2.0389449   -99381.182   -99379.143 
   43210   0.99856443    2.0650643   -99381.179   -99379.113 
   43220    1.0270732    2.1240213    -99381.18   -99379.056 
   43230    1.0334426    2.1371935   -99381.068   -99378.931 
   43240    1.0645868    2.2016007   -99380.952    -99378.75 
   43250    1.0819038    2.2374129   -99380.926   -99378.688 
   43260    1.0770234      2.22732   -99380.958    -99378.73 
   43270    1.0998389    2.2745032    -99380.96   -99378.686 
   43280    1.0987204    2.2721902   -99380.758   -99378.486 
   43290    1.0914523    2.2571595   -99380.686   -99378.429 
   43300    1.0878569     2.249724   -99380.887   -99378.637 
   43310    1.0671744     2.206952   -99381.027    -99378.82 
   43320    1.0554333     2.182671   -99380.997   -99378.814 
   43330    1.0577976    2.1875605   -99380.927   -99378.739 
   43340    1.0190166      2.10736    -99380.87   -99378.763 
   43350    1.0093198    2.0873068   -99380.974   -99378.887 
   43360   0.97858816    2.0237527   -99381.002   -99378.978 
   43370   0.96884876    2.0036113   -99381.004       -99379 
   43380   0.96454609    1.9947132   -99380.987   -99378.992 
   43390   0.92473077    1.9123738   -99380.961   -99379.049 
   43400   0.93912919    1.9421502   -99381.153   -99379.211 
   43410    0.9147652    1.8917647   -99381.184   -99379.292 
   43420   0.92208862    1.9069097   -99381.124   -99379.217 
   43430   0.92570679    1.9143922   -99381.066   -99379.151 
   43440    0.9133933    1.8889275   -99381.082   -99379.193 
   43450   0.92680781    1.9166692   -99381.168   -99379.251 
   43460   0.91535604    1.8929866   -99381.084   -99379.191 
   43470   0.93597518    1.9356276   -99381.041   -99379.105 
   43480   0.92986411    1.9229897   -99381.014   -99379.091 
   43490   0.94861238    1.9617618    -99381.03   -99379.068 
   43500   0.96251926    1.9905216   -99380.976   -99378.985 
   43510    0.9822792    2.0313859   -99380.884   -99378.853 
   43520   0.99316507    2.0538982   -99380.762   -99378.708 
   43530    1.0120805    2.0930159   -99380.725   -99378.632 
   43540    1.0386266    2.1479142   -99380.758    -99378.61 
   43550    1.0359377    2.1423534   -99380.703   -99378.561 
   43560    1.0690287    2.2107867   -99380.654   -99378.443 
   43570    1.0639141    2.2002096    -99380.55    -99378.35 
   43580    1.0678932    2.2084384   -99380.606   -99378.398 
   43590    1.0892249    2.2525531    -99380.68   -99378.427 
   43600    1.0738494     2.220756   -99380.549   -99378.328 
   43610    1.0922504    2.2588099   -99380.491   -99378.232 
   43620    1.0867175    2.2473678    -99380.48   -99378.232 
   43630    1.0791872    2.2317947   -99380.539   -99378.307 
   43640    1.0651562    2.2027783   -99380.578   -99378.375 
   43650    1.0500789     2.171598   -99380.603   -99378.431 
   43660    1.0395982    2.1499234   -99380.629   -99378.479 
   43670    1.0182912    2.1058599   -99380.594   -99378.488 
   43680    1.0180223    2.1053037   -99380.626    -99378.52 
   43690   0.98494555       2.0369   -99380.623   -99378.586 
   43700   0.97760834    2.0217264    -99380.64   -99378.618 
   43710   0.96333126    1.9922009   -99380.658   -99378.666 
   43720   0.95424059    1.9734011   -99380.744   -99378.771 
   43730   0.96487487    1.9953931   -99380.863   -99378.868 
   43740   0.94903001    1.9626254   -99380.817   -99378.854 
   43750   0.95137045    1.9674656   -99380.749   -99378.782 
   43760   0.94690176    1.9582242   -99380.759   -99378.801 
   43770   0.94817527    1.9608578   -99380.823   -99378.862 
   43780   0.94759589    1.9596596   -99380.824   -99378.864 
   43790   0.96146587    1.9883432   -99380.792   -99378.803 
   43800   0.95043153    1.9655238   -99380.689   -99378.724 
   43810   0.94457539    1.9534131   -99380.649   -99378.696 
   43820   0.95573667     1.976495   -99380.681   -99378.704 
   43830   0.96092319    1.9872209    -99380.72   -99378.733 
   43840   0.98207294    2.0309593   -99380.756   -99378.725 
   43850   0.98812658    2.0434784    -99380.68   -99378.637 
   43860    1.0074267    2.0833917   -99380.642   -99378.559 
   43870    1.0090468    2.0867421   -99380.593   -99378.506 
   43880    1.0209818    2.1114242   -99380.534   -99378.423 
   43890     1.037553     2.145694   -99380.502   -99378.356 
   43900    1.0269604    2.1237881   -99380.488   -99378.365 
   43910    1.0522866    2.1761635   -99380.588   -99378.412 
   43920    1.0461195    2.1634097   -99380.575   -99378.411 
   43930    1.0487915    2.1689354   -99380.521   -99378.352 
   43940    1.0413067    2.1534567   -99380.439   -99378.286 
   43950    1.0476767      2.16663   -99380.406    -99378.24 
   43960    1.0482956      2.16791   -99380.414   -99378.246 
   43970     1.035658    2.1417749    -99380.46   -99378.318 
   43980    1.0283853    2.1267348   -99380.531   -99378.404 
   43990    1.0065686    2.0816171   -99380.564   -99378.483 
   44000    1.0115121    2.0918404   -99380.637   -99378.546 
   44010    1.0236345    2.1169099   -99380.654   -99378.537 
   44020    1.0070161    2.0825426   -99380.557   -99378.474 
   44030    1.0114111    2.0916317   -99380.548   -99378.456 
   44040    0.9841215    2.0351958   -99380.545    -99378.51 
   44050   0.99986354    2.0677509   -99380.651   -99378.583 
   44060   0.98893263    2.0451454   -99380.651   -99378.605 
   44070   0.98816599    2.0435599   -99380.664   -99378.621 
   44080   0.96877024    2.0034489   -99380.658   -99378.655 
   44090    0.9626214    1.9907329   -99380.625   -99378.634 
   44100   0.96964788    2.0052639   -99380.586    -99378.58 
   44110   0.95302726    1.9708919   -99380.566   -99378.595 
   44120   0.96881974    2.0035512   -99380.636   -99378.632 
   44130   0.95766921    1.9804916   -99380.611   -99378.631 
   44140   0.97453823    2.0153773   -99380.647   -99378.632 
   44150   0.97697723    2.0204212   -99380.631    -99378.61 
   44160   0.99707905    2.0619924    -99380.58   -99378.518 
   44170   0.99920064      2.06638   -99380.482   -99378.416 
   44180    1.0056193    2.0796539   -99380.542   -99378.462 
   44190    1.0156477     2.100393   -99380.623   -99378.522 
   44200    1.0089552    2.0865526   -99380.509   -99378.423 
   44210    1.0228165    2.1152184   -99380.377   -99378.262 
   44220     1.033516    2.1373453   -99380.343   -99378.206 
   44230    1.0472787    2.1658069    -99380.35   -99378.184 
   44240    1.0365434     2.143606   -99380.251   -99378.108 
   44250    1.0603057    2.1927473   -99380.305   -99378.113 
   44260    1.0439041    2.1588282   -99380.364   -99378.205 
   44270    1.0351689    2.1407635   -99380.411    -99378.27 
   44280    1.0407192    2.1522417   -99380.365   -99378.213 
   44290    1.0216335    2.1127719   -99380.264   -99378.151 
   44300     1.050652    2.1727831   -99380.347   -99378.174 
   44310    1.0210054    2.1114729   -99380.282   -99378.171 
   44320     1.029297    2.1286203   -99380.365   -99378.236 
   44330    1.0184659    2.1062212   -99380.432   -99378.326 
   44340   0.98219129    2.0312041   -99380.416   -99378.385 
   44350    1.0042532    2.0768289   -99380.444   -99378.368 
   44360   0.96367696    1.9929158   -99380.344   -99378.351 
   44370   0.96907217    2.0040733   -99380.419   -99378.415 
   44380   0.94568415    1.9557061   -99380.419   -99378.463 
   44390   0.94837119     1.961263   -99380.444   -99378.483 
   44400   0.94045028    1.9448823   -99380.436   -99378.491 
   44410   0.94932255    1.9632304   -99380.466   -99378.503 
   44420   0.94514928       1.9546   -99380.449   -99378.494 
   44430   0.95888721    1.9830104   -99380.454   -99378.471 
   44440   0.95709404    1.9793021   -99380.446   -99378.467 
   44450   0.95987103     1.985045   -99380.454   -99378.469 
   44460   0.97711795    2.0207122   -99380.469   -99378.449 
   44470   0.96970093    2.0053736   -99380.426   -99378.421 
   44480   0.98810624    2.0434364   -99380.385   -99378.342 
   44490   0.99942038    2.0668344   -99380.306   -99378.239 
   44500    1.0102876    2.0893081   -99380.218   -99378.128 
   44510    1.0152792    2.0996308   -99380.198   -99378.098 
   44520    1.0231414    2.1158903   -99380.283   -99378.167 
   44530    1.0320166    2.1342444   -99380.315   -99378.181 
   44540    1.0507689    2.1730248   -99380.224   -99378.051 
   44550    1.0483657    2.1680548   -99380.081   -99377.913 
   44560    1.0581637    2.1883176   -99380.089     -99377.9 
   44570    1.0544457    2.1806285   -99380.159   -99377.979 
   44580    1.0526495     2.176914   -99380.182   -99378.005 
   44590    1.0686521    2.2100078   -99380.067   -99377.857 
   44600      1.04822    2.1677537   -99379.971   -99377.803 
   44610    1.0602824    2.1926991   -99380.122    -99377.93 
   44620    1.0623885    2.1970545   -99380.214   -99378.017 
   44630    1.0409229    2.1526629   -99380.135   -99377.982 
   44640    1.0403124    2.1514004   -99380.085   -99377.933 
   44650    1.0062556    2.0809697   -99380.093   -99378.012 
   44660   0.99668691    2.0611815   -99380.168   -99378.107 
   44670   0.98271343    2.0322839   -99380.124   -99378.091 
   44680   0.96559145     1.996875    -99380.07   -99378.073 
   44690   0.97723968     2.020964   -99380.124   -99378.103 
   44700   0.96183768    1.9891121    -99380.19     -99378.2 
   44710   0.96450428    1.9946267   -99380.303   -99378.309 
   44720   0.96126376    1.9879252   -99380.303   -99378.315 
   44730   0.95652985    1.9781354   -99380.249   -99378.271 
   44740   0.95728561    1.9796983    -99380.23    -99378.25 
   44750    0.9620223    1.9894939   -99380.268   -99378.279 
   44760   0.95277475    1.9703697   -99380.257   -99378.286 
   44770    0.9414223    1.9468924   -99380.195   -99378.248 
   44780   0.94913325    1.9628389   -99380.209   -99378.246 
   44790   0.96179416    1.9890221   -99380.314   -99378.325 
   44800    0.9539034    1.9727038   -99380.317   -99378.345 
   44810   0.98379404    2.0345186   -99380.258   -99378.224 
   44820   0.96301694    1.9915509   -99380.057   -99378.065 
   44830    0.9729359    2.0120636   -99380.009   -99377.997 
   44840   0.98828471    2.0438055   -99380.028   -99377.984 
   44850    1.0097778    2.0882539   -99380.033   -99377.945 
   44860    1.0107324     2.090228   -99380.041   -99377.951 
   44870    1.0224908    2.1145448   -99380.094   -99377.979 
   44880    1.0444078    2.1598699   -99380.066   -99377.906 
   44890    1.0593145    2.1906975   -99379.965   -99377.774 
   44900    1.0722241     2.217395   -99379.863   -99377.646 
   44910    1.0643909    2.2011956   -99379.791    -99377.59 
   44920    1.0806596    2.2348399   -99379.837   -99377.602 
   44930    1.0676139    2.2078609   -99379.765   -99377.557 
   44940    1.0606508    2.1934608   -99379.748   -99377.554 
   44950    1.0663508    2.2052488   -99379.838   -99377.632 
   44960    1.0688894    2.2104987   -99379.921    -99377.71 
   44970    1.0673106    2.2072335   -99379.857   -99377.649 
   44980    1.0576215    2.1871962   -99379.745   -99377.558 
   44990    1.0229842    2.1155651   -99379.793   -99377.677 
   45000     1.018585    2.1064675   -99380.026   -99377.919 
   45010    1.0150961    2.0992523   -99380.105   -99378.006 
   45020   0.97581312    2.0180138   -99379.937   -99377.919 
   45030   0.98184568    2.0304893   -99379.889   -99377.859 
   45040   0.95737735     1.979888   -99379.926   -99377.946 
   45050   0.95542053    1.9758412   -99380.088   -99378.112 
   45060   0.94434378    1.9529342   -99380.121   -99378.169 
   45070   0.96385781    1.9932898   -99380.087   -99378.093 
   45080   0.95677835    1.9786493   -99380.038    -99378.06 
   45090   0.93800884    1.9398333   -99380.051   -99378.112 
   45100   0.94500148    1.9542943   -99380.088   -99378.133 
   45110    0.9226166    1.9080016   -99379.945   -99378.037 
   45120   0.92562678    1.9142268   -99379.905   -99377.991 
   45130   0.93324058    1.9299724   -99380.009   -99378.079 
   45140   0.93207623    1.9275645   -99380.082   -99378.154 
   45150   0.92709908    1.9172715   -99380.032   -99378.114 
   45160   0.93267025    1.9287929   -99379.872   -99377.943 
   45170   0.94169809    1.9474628   -99379.773   -99377.825 
   45180   0.97140988    2.0089077    -99379.88   -99377.871 
   45190   0.99257735    2.0526828   -99380.017   -99377.964 
   45200    1.0170261    2.1032435   -99380.031   -99377.928 
   45210    1.0172173    2.1036391    -99379.88   -99377.776 
   45220     1.038881    2.1484402   -99379.844   -99377.696 
   45230    1.0460651    2.1632973   -99379.861   -99377.698 
   45240    1.0484224    2.1681723   -99379.825   -99377.657 
   45250    1.0329186    2.1361098   -99379.661   -99377.525 
   45260    1.0387052    2.1480766   -99379.623   -99377.475 
   45270    1.0373777    2.1453313    -99379.73   -99377.584 
   45280    1.0485858    2.1685101   -99379.827   -99377.658 
   45290    1.0536979     2.179082   -99379.773   -99377.594 
   45300    1.0411427    2.1531176   -99379.633    -99377.48 
   45310    1.0544167    2.1805687    -99379.64   -99377.459 
   45320    1.0457964    2.1627416   -99379.671   -99377.509 
   45330     1.026027    2.1218578   -99379.683   -99377.561 
   45340    1.0192525    2.1078479   -99379.713   -99377.605 
   45350    1.0060363    2.0805164   -99379.712   -99377.631 
   45360   0.99969265    2.0673975   -99379.711   -99377.643 
   45370   0.98685244    2.0408435   -99379.667   -99377.626 
   45380   0.98610217    2.0392919    -99379.67   -99377.631 
   45390    0.9765719     2.019583   -99379.665   -99377.646 
   45400   0.98156244    2.0299036   -99379.667   -99377.638 
   45410   0.97652889     2.019494   -99379.693   -99377.673 
   45420   0.97276527    2.0117107   -99379.783   -99377.771 
   45430   0.98555627    2.0381629   -99379.906   -99377.868 
   45440   0.96190812    1.9892578   -99379.832   -99377.843 
   45450   0.96360689    1.9927709   -99379.732   -99377.739 
   45460   0.95783502    1.9808345   -99379.705   -99377.724 
   45470   0.95261172    1.9700325   -99379.759   -99377.789 
   45480   0.96881707    2.0035457   -99379.832   -99377.828 
   45490   0.96215661    1.9897717   -99379.789   -99377.799 
   45500    0.9693051     2.004555    -99379.74   -99377.735 
   45510   0.97847906    2.0235271   -99379.705   -99377.681 
   45520   0.99742851    2.0627151   -99379.711   -99377.649 
   45530    1.0079993     2.084576   -99379.695   -99377.611 
   45540    1.0070665    2.0826469   -99379.615   -99377.532 
   45550     1.018245    2.1057643   -99379.549   -99377.443 
   45560    1.0111315    2.0910533   -99379.521    -99377.43 
   45570    1.0206783    2.1107965   -99379.593   -99377.482 
   45580    1.0242643    2.1182125   -99379.596   -99377.478 
   45590    1.0315924    2.1333672   -99379.504   -99377.371 
   45600    1.0333042    2.1369073   -99379.432   -99377.296 
   45610    1.0509718    2.1734444   -99379.515   -99377.342 
   45620    1.0485516    2.1684395   -99379.566   -99377.398 
   45630    1.0437993    2.1586115   -99379.488   -99377.329 
   45640    1.0406373    2.1520724   -99379.388   -99377.236 
   45650    1.0495912    2.1705893    -99379.42   -99377.249 
   45660    1.0243126    2.1183122    -99379.45   -99377.331 
   45670    1.0187846    2.1068803   -99379.443   -99377.336 
   45680     1.013584    2.0961252   -99379.391   -99377.295 
   45690    1.0042982     2.076922   -99379.403   -99377.326 
   45700    1.0117879    2.0924108   -99379.467   -99377.375 
   45710    1.0328051    2.1358752   -99379.527   -99377.391 
   45720    1.0230541    2.1157096   -99379.512   -99377.396 
   45730    1.0177111    2.1046602   -99379.493   -99377.388 
   45740     1.003637    2.0755545   -99379.445   -99377.369 
   45750   0.99953038    2.0670619   -99379.484   -99377.417 
   45760   0.99237011    2.0522542   -99379.592   -99377.539 
   45770   0.99685786     2.061535   -99379.639   -99377.578 
   45780   0.99160055    2.0506627   -99379.474   -99377.424 
   45790   0.97514443    2.0166309    -99379.37   -99377.353 
   45800   0.97749847    2.0214992   -99379.486   -99377.464 
   45810   0.98975706    2.0468503    -99379.56   -99377.514 
   45820    1.0004813    2.0690283   -99379.493   -99377.424 
   45830    1.0039664    2.0762358   -99379.475   -99377.399 
   45840   0.98464811    2.0362849    -99379.55   -99377.514 
   45850   0.98507648    2.0371707   -99379.589   -99377.551 
   45860   0.97960969    2.0258652   -99379.493   -99377.467 
   45870   0.96787747    2.0016026   -99379.443   -99377.442 
   45880    0.9669809    1.9997485   -99379.447   -99377.448 
   45890   0.95884277    1.9829186   -99379.444   -99377.461 
   45900   0.95875294    1.9827328   -99379.488   -99377.506 
   45910   0.96929151    2.0045269   -99379.523   -99377.519 
   45920   0.96688451    1.9995491     -99379.5   -99377.501 
   45930   0.98502689    2.0370682    -99379.49   -99377.453 
   45940   0.99606138    2.0598879   -99379.495   -99377.435 
   45950   0.98420823    2.0353751   -99379.411   -99377.376 
   45960    1.0198879     2.109162   -99379.379    -99377.27 
   45970   0.98899267    2.0452695   -99379.256   -99377.211 
   45980   0.98959094    2.0465068     -99379.3   -99377.253 
   45990     1.000123    2.0682875   -99379.347   -99377.279 
   46000     0.974565    2.0154326   -99379.275   -99377.259 
   46010    1.0389879    2.1486614   -99379.365   -99377.216 
   46020    1.0211525    2.1117772   -99379.265   -99377.153 
   46030    1.0579623     2.187901    -99379.27   -99377.082 
   46040    1.0518802     2.175323   -99379.212   -99377.036 
   46050    1.0468201    2.1648586    -99379.23   -99377.065 
   46060    1.0565775    2.1850373   -99379.286   -99377.101 
   46070    1.0316768    2.1335417   -99379.248   -99377.115 
   46080    1.0550586    2.1818961   -99379.236   -99377.054 
   46090    1.0340318     2.138412   -99379.162   -99377.024 
   46100    1.0267171    2.1232849   -99379.198   -99377.074 
   46110    1.0188325    2.1069794    -99379.26   -99377.153 
   46120    1.0042332    2.0767875   -99379.298   -99377.221 
   46130    1.0033048    2.0748675    -99379.32   -99377.246 
   46140    0.9980246    2.0639479    -99379.34   -99377.276 
   46150    1.0259459    2.1216901   -99379.375   -99377.253 
   46160   0.99888047    2.0657178   -99379.286   -99377.221 
   46170    1.0165759    2.1023126   -99379.311   -99377.208 
   46180   0.96473693    1.9951079   -99379.257   -99377.262 
   46190   0.99304348    2.0536467    -99379.43   -99377.376 
   46200    0.9749709    2.0162721   -99379.436    -99377.42 
   46210   0.99051403    2.0484158   -99379.389   -99377.341 
   46220   0.98711165    2.0413795   -99379.323   -99377.282 
   46230   0.96685235    1.9994826   -99379.277   -99377.278 
   46240   0.95722861    1.9795804   -99379.229    -99377.25 
   46250   0.94545562    1.9552335   -99379.185    -99377.23 
   46260   0.95517329    1.9753299   -99379.221   -99377.246 
   46270   0.95841559    1.9820351   -99379.281   -99377.299 
   46280   0.99470626    2.0570854   -99379.308   -99377.251 
   46290    1.0114911     2.091797   -99379.197   -99377.105 
   46300    1.0139883    2.0969613   -99379.098   -99377.001 
   46310    1.0143344    2.0976771   -99379.075   -99376.977 
   46320    1.0316411    2.1334678   -99379.151   -99377.018 
   46330    1.0018628    2.0718855   -99379.116   -99377.044 
   46340   0.98989105    2.0471274   -99379.079   -99377.032 
   46350   0.99782548    2.0635361   -99379.061   -99376.998 
   46360    1.0279459    2.1258262    -99379.07   -99376.945 
   46370    1.0134779    2.0959058   -99379.004   -99376.908 
   46380   0.98263958    2.0321311    -99378.92   -99376.888 
   46390    0.9815992    2.0299796   -99378.913   -99376.883 
   46400    1.0099914    2.0886957   -99378.984   -99376.895 
   46410    1.0303822    2.1308644   -99379.026   -99376.895 
   46420    1.0074234    2.0833849   -99378.933    -99376.85 
   46430    1.0135136    2.0959796   -99378.951   -99376.855 
   46440    1.0181263    2.1055188   -99379.029   -99376.924 
   46450     1.017826    2.1048977   -99379.112   -99377.007 
   46460    1.0294559    2.1289489   -99379.102   -99376.973 
   46470    1.0056268    2.0796695    -99379.01   -99376.931 
   46480    1.0047254    2.0778053   -99379.088    -99377.01 
   46490    1.0540322    2.1797734   -99379.186   -99377.006 
   46500    1.0251073    2.1199558   -99379.038   -99376.919 
   46510    1.0355877    2.1416296   -99379.044   -99376.902 
   46520   0.99849454    2.0649197   -99379.016   -99376.951 
   46530    1.0066801    2.0818476   -99379.109   -99377.027 
   46540   0.99988892    2.0678033   -99379.156   -99377.089 
   46550   0.98129999    2.0293608    -99379.15    -99377.12 
   46560   0.98489919    2.0368041   -99379.068   -99377.031 
   46570   0.97000203    2.0059963   -99378.945   -99376.939 
   46580   0.97455274    2.0154073   -99378.934   -99376.918 
   46590   0.98182913    2.0304551   -99378.967   -99376.937 
   46600   0.96991503    2.0058164   -99379.013   -99377.007 
   46610    1.0007461     2.069576   -99379.147   -99377.077 
   46620   0.98243598    2.0317101    -99379.15   -99377.118 
   46630   0.98750157    2.0421859    -99379.13   -99377.088 
   46640   0.96829503    2.0024661   -99379.003   -99377.001 
   46650   0.96427017    1.9941426   -99378.945    -99376.95 
   46660   0.97401017    2.0142852   -99378.975   -99376.961 
   46670   0.93633233    1.9363662   -99378.847    -99376.91 
   46680   0.99004648    2.0474489   -99378.953   -99376.905 
   46690   0.95625385    1.9775646   -99378.989   -99377.012 
   46700   0.96567951    1.9970571    -99379.05   -99377.053 
   46710    0.9835764    2.0340685   -99378.971   -99376.937 
   46720    0.9644228    1.9944582   -99378.818   -99376.823 
   46730    1.0014337    2.0709981   -99378.916   -99376.845 
   46740   0.96710844    2.0000122   -99378.872   -99376.872 
   46750    1.0028875    2.0740044   -99378.897   -99376.823 
   46760   0.99265798    2.0528495   -99378.817   -99376.764 
   46770     1.021763    2.1130396   -99378.784   -99376.671 
   46780    1.0170548    2.1033029   -99378.697   -99376.593 
   46790    1.0197523    2.1088814   -99378.737   -99376.628 
   46800     1.036652    2.1438307   -99378.784    -99376.64 
   46810    1.0450158    2.1611272   -99378.731   -99376.569 
   46820    1.0576769    2.1873108   -99378.735   -99376.548 
   46830    1.0429223    2.1567977   -99378.788   -99376.631 
   46840    1.0445179    2.1600975   -99378.815   -99376.655 
   46850    1.0412329     2.153304   -99378.682   -99376.529 
   46860    1.0336545    2.1376316   -99378.618    -99376.48 
   46870    1.0275632    2.1250348   -99378.724   -99376.599 
   46880    1.0134381    2.0958235    -99378.84   -99376.744 
   46890    1.0151247    2.0993115   -99378.883   -99376.784 
   46900    1.0222343    2.1140144   -99378.851   -99376.737 
   46910    1.0116669    2.0921605   -99378.827   -99376.735 
   46920    1.0047912    2.0779413   -99378.837   -99376.759 
   46930    1.0001065    2.0682532   -99378.809    -99376.74 
   46940   0.98907944     2.045449   -99378.765    -99376.72 
   46950   0.99945298    2.0669018   -99378.786   -99376.719 
   46960   0.97093184    2.0079191   -99378.772   -99376.764 
   46970   0.96327733    1.9920894   -99378.866   -99376.874 
   46980   0.95299344    1.9708219   -99378.935   -99376.964 
   46990   0.94030436    1.9445805   -99378.868   -99376.924 
   47000   0.93816693    1.9401602   -99378.769   -99376.829 
   47010   0.92750966    1.9181206   -99378.736   -99376.818 
   47020   0.95879529    1.9828204   -99378.769   -99376.786 
   47030   0.95652423    1.9781237   -99378.666   -99376.688 
   47040   0.96489387    1.9954324   -99378.641   -99376.646 
   47050   0.94971691     1.964046   -99378.668   -99376.704 
   47060   0.97081362    2.0076747   -99378.729   -99376.722 
   47070   0.97796367    2.0224612   -99378.697   -99376.675 
   47080   0.98439243    2.0357561   -99378.639   -99376.603 
   47090    1.0142688    2.0975415    -99378.58   -99376.483 
   47100   0.99676291    2.0613387    -99378.44   -99376.378 
   47110    1.0248656    2.1194559   -99378.482   -99376.363 
   47120    1.0265108    2.1228582   -99378.519   -99376.396 
   47130    1.0370929    2.1447423   -99378.503   -99376.358 
   47140    1.0435411    2.1580775   -99378.427   -99376.269 
   47150     1.048956    2.1692756   -99378.415   -99376.246 
   47160    1.0619887    2.1962278   -99378.482   -99376.286 
   47170    1.0450814    2.1612629   -99378.475   -99376.314 
   47180    1.0492687    2.1699224   -99378.452   -99376.282 
   47190    1.0417302    2.1543325   -99378.373   -99376.219 
   47200    1.0380395    2.1466999   -99378.358   -99376.212 
   47210    1.0420049    2.1549006   -99378.432   -99376.277 
   47220    1.0434655    2.1579212   -99378.539   -99376.381 
   47230    1.0362652    2.1430306   -99378.533    -99376.39 
   47240    1.0343803    2.1391326   -99378.498   -99376.359 
   47250    1.0186834     2.106671   -99378.513   -99376.406 
   47260    0.9946082    2.0568826   -99378.563   -99376.507 
   47270   0.98364858    2.0342178   -99378.565   -99376.531 
   47280   0.97721872    2.0209206   -99378.507   -99376.486 
   47290   0.96419177    1.9939805     -99378.5   -99376.506 
   47300   0.95084102    1.9663707    -99378.55   -99376.583 
   47310   0.93486917    1.9333404   -99378.544   -99376.611 
   47320   0.93172846    1.9268453    -99378.55   -99376.623 
   47330   0.94139302    1.9468319    -99378.58   -99376.633 
   47340   0.93511874    1.9338565   -99378.518   -99376.584 
   47350   0.95089819    1.9664889     -99378.5   -99376.533 
   47360   0.95884387    1.9829208   -99378.547   -99376.565 
   47370     0.967592    2.0010122    -99378.56   -99376.559 
   47380   0.97793643    2.0224049   -99378.479   -99376.457 
   47390   0.97920504    2.0250284   -99378.406   -99376.381 
   47400   0.99628616    2.0603527   -99378.457   -99376.396 
   47410   0.98314935    2.0331854   -99378.436   -99376.403 
   47420    1.0038842    2.0760657   -99378.392   -99376.316 
   47430    1.0236679     2.116979   -99378.356   -99376.239 
   47440    1.0309231    2.1319831   -99378.318   -99376.186 
   47450    1.0252799    2.1203127   -99378.241   -99376.121 
   47460     1.034585    2.1395559    -99378.24     -99376.1 
   47470    1.0430669    2.1570968   -99378.284   -99376.127 
   47480    1.0566448    2.1851764   -99378.322   -99376.137 
   47490    1.0525251    2.1766566   -99378.278   -99376.101 
   47500    1.0483345    2.1679904   -99378.292   -99376.124 
   47510    1.0509214    2.1733402    -99378.38   -99376.206 
   47520    1.0404858    2.1517591   -99378.364   -99376.212 
   47530    1.0210933    2.1116548    -99378.22   -99376.109 
   47540    1.0245745     2.118854   -99378.202   -99376.083 
   47550    1.0101211    2.0889639   -99378.282   -99376.193 
   47560    1.0142827    2.0975701   -99378.322   -99376.225 
   47570   0.98888729    2.0450516    -99378.25   -99376.205 
   47580   0.98626807     2.039635   -99378.307   -99376.267 
   47590   0.97886694    2.0243292   -99378.399   -99376.375 
   47600   0.98143818    2.0296466   -99378.445   -99376.415 
   47610   0.95834893    1.9818973   -99378.346   -99376.365 
   47620   0.95848817    1.9821852   -99378.327   -99376.344 
   47630    0.9403827    1.9447425   -99378.314   -99376.369 
   47640   0.96254874    1.9905826   -99378.418   -99376.427 
   47650   0.95252373    1.9698506    -99378.45    -99376.48 
   47660   0.95185628    1.9684703   -99378.424   -99376.455 
   47670   0.96513425    1.9959295   -99378.415   -99376.419 
   47680   0.97634632    2.0191165   -99378.434   -99376.415 
   47690   0.99845274    2.0648333   -99378.428   -99376.363 
   47700   0.97478613    2.0158899   -99378.231   -99376.215 
   47710     1.007939    2.0844511   -99378.155   -99376.071 
   47720     1.012111    2.0930791   -99378.097   -99376.004 
   47730    1.0444254    2.1599063   -99378.166   -99376.006 
   47740    1.0322634    2.1347549    -99378.13   -99375.996 
   47750    1.0475502    2.1663684   -99378.167       -99376 
   47760    1.0742278    2.2215385   -99378.199   -99375.978 
   47770    1.0899165    2.2539834   -99378.121   -99375.867 
   47780    1.0737241     2.220497    -99377.96    -99375.74 
   47790    1.0486587    2.1686609   -99377.918    -99375.75 
   47800    1.0564807     2.184837   -99378.037   -99375.852 
   47810    1.0356631    2.1417854   -99378.081   -99375.939 
   47820    1.0531152     2.177877    -99378.14   -99375.962 
   47830    1.0338321    2.1379989   -99378.151   -99376.013 
   47840   0.99979824    2.0676158   -99378.118   -99376.051 
   47850   0.99614206    2.0600547   -99378.062   -99376.002 
   47860   0.99521175    2.0581308   -99378.004   -99375.946 
   47870    1.0033079    2.0748739   -99378.055    -99375.98 
   47880   0.98116247    2.0290764   -99378.094   -99376.065 
   47890   0.99931451    2.0666154   -99378.214   -99376.147 
   47900   0.96742749     2.000672   -99378.248   -99376.247 
   47910   0.99348701     2.054564   -99378.327   -99376.273 
   47920   0.94840592    1.9613348   -99378.181   -99376.219 
   47930   0.96054811    1.9864452   -99378.207    -99376.22 
   47940   0.94965868    1.9639255   -99378.242   -99376.278 
   47950   0.95870043    1.9826242    -99378.25   -99376.267 
   47960   0.98016966    2.0270233   -99378.199   -99376.172 
   47970   0.96340588    1.9923552   -99378.068   -99376.076 
   47980   0.99286196    2.0532713   -99378.134    -99376.08 
   47990   0.97807189     2.022685   -99378.147   -99376.124 
   48000   0.98896018    2.0452023   -99378.063   -99376.018 
   48010   0.98431069     2.035587   -99377.923   -99375.888 
   48020    1.0167621    2.1026976   -99378.018   -99375.915 
   48030    1.0130362    2.0949924   -99378.073   -99375.978 
   48040    1.0177841    2.1048111   -99378.079   -99375.974 
   48050   0.98966284    2.0466555   -99377.972   -99375.926 
   48060    1.0186575    2.1066174   -99377.959   -99375.852 
   48070    1.0225679    2.1147041   -99377.938   -99375.824 
   48080    1.0215506    2.1126005   -99377.942   -99375.829 
   48090    1.0476258    2.1665247   -99377.969   -99375.802 
   48100    1.0097974    2.0882944   -99377.879   -99375.791 
   48110    1.0262056    2.1222271   -99377.968   -99375.846 
   48120    1.0287128    2.1274121   -99377.989   -99375.862 
   48130    1.0114079    2.0916249   -99377.903   -99375.811 
   48140    1.0379657    2.1465474   -99377.916   -99375.769 
   48150   0.99719626    2.0622348   -99377.821   -99375.759 
   48160    1.0019747    2.0721168   -99377.874   -99375.801 
   48170   0.97990474    2.0264754   -99377.949   -99375.923 
   48180    1.0055966    2.0796071    -99378.06   -99375.981 
   48190    1.0088905    2.0864189   -99378.023   -99375.936 
   48200    1.0061871    2.0808283   -99377.926   -99375.846 
   48210   0.99544653    2.0586163   -99377.905   -99375.847 
   48220   0.98711477     2.041386   -99377.973   -99375.932 
   48230     1.011945    2.0927358   -99378.041   -99375.948 
   48240   0.99480523    2.0572901   -99377.997    -99375.94 
   48250   0.99012052     2.047602   -99377.997   -99375.949 
   48260    1.0038348    2.0759636   -99377.951   -99375.875 
   48270   0.97632026    2.0190626   -99377.777   -99375.757 
   48280    0.9889654    2.0452131   -99377.825    -99375.78 
   48290   0.98314686    2.0331802    -99377.89   -99375.857 
   48300    0.9839712     2.034885   -99377.899   -99375.864 
   48310   0.98680196    2.0407391    -99377.91   -99375.869 
   48320   0.98347384    2.0338564    -99377.94   -99375.906 
   48330    1.0112477    2.0912936   -99377.989   -99375.898 
   48340   0.98691056    2.0409637   -99377.817   -99375.776 
   48350    1.0041421     2.076599   -99377.783   -99375.707 
   48360   0.99609661    2.0599607   -99377.812   -99375.752 
   48370   0.98482326    2.0366471    -99377.84   -99375.803 
   48380   0.99257244    2.0526726   -99377.812    -99375.76 
   48390    1.0006315     2.069339   -99377.739   -99375.669 
   48400    1.0238936    2.1174457   -99377.763   -99375.645 
   48410    1.0235197    2.1166726    -99377.77   -99375.653 
   48420   0.99897068    2.0659044   -99377.711   -99375.645 
   48430    1.0230163    2.1156314   -99377.737   -99375.622 
   48440    1.0158808    2.1008751   -99377.631   -99375.531 
   48450    1.0483048    2.1679291   -99377.606   -99375.439 
   48460    1.0036021    2.0754822   -99377.562   -99375.486 
   48470    1.0084757    2.0855611   -99377.697   -99375.612 
   48480     1.013422    2.0957902   -99377.758   -99375.662 
   48490     1.011014    2.0908105   -99377.747   -99375.656 
   48500    1.0040013    2.0763079   -99377.748   -99375.672 
   48510   0.97507103    2.0164791   -99377.673   -99375.657 
   48520   0.97924555    2.0251122   -99377.652   -99375.627 
   48530   0.98633211    2.0397674   -99377.663   -99375.623 
   48540   0.98660859    2.0403392   -99377.691    -99375.65 
   48550    0.9863034     2.039708   -99377.787   -99375.747 
   48560   0.95424028    1.9734004   -99377.806   -99375.833 
   48570   0.98421041    2.0353797   -99377.824   -99375.788 
   48580   0.95261418    1.9700376   -99377.667   -99375.697 
   48590   0.97490495    2.0161357   -99377.674   -99375.658 
   48600   0.96271941    1.9909356    -99377.65   -99375.659 
   48610   0.96615964    1.9980501    -99377.67   -99375.672 
   48620   0.98205021    2.0309123   -99377.726   -99375.695 
   48630   0.98538934    2.0378177   -99377.695   -99375.657 
   48640   0.98883765     2.044949   -99377.654   -99375.609 
   48650   0.99275706    2.0530544   -99377.703    -99375.65 
   48660   0.97714909    2.0207766   -99377.671   -99375.651 
   48670   0.99714927    2.0621376   -99377.566   -99375.504 
   48680    0.9846277    2.0362426   -99377.434   -99375.398 
   48690     1.010944    2.0906655   -99377.542   -99375.452 
   48700    1.0098817    2.0884687   -99377.606   -99375.517 
   48710     1.007005    2.0825197   -99377.575   -99375.493 
   48720    1.0142743    2.0975528   -99377.544   -99375.447 
   48730    1.0277195     2.125358   -99377.537   -99375.412 
   48740    1.0410296    2.1528836   -99377.518   -99375.365 
   48750     1.050251    2.1719539   -99377.498   -99375.326 
   48760    1.0465036     2.164204   -99377.444    -99375.28 
   48770     1.055448    2.1827015   -99377.439   -99375.257 
   48780    1.0371019     2.144761   -99377.418   -99375.273 
   48790    1.0269249    2.1237147    -99377.47   -99375.346 
   48800    1.0264762    2.1227867   -99377.584   -99375.461 
   48810    1.0161002    2.1013288   -99377.587   -99375.486 
   48820    1.0029323    2.0740972    -99377.49   -99375.416 
   48830     0.979646    2.0259403    -99377.44   -99375.414 
   48840   0.97832707    2.0232127   -99377.511   -99375.488 
   48850   0.97696936    2.0204049   -99377.526   -99375.506 
   48860   0.97631677    2.0190553   -99377.474   -99375.455 
   48870   0.98130976     2.029381   -99377.505   -99375.475 
   48880   0.96878566    2.0034808   -99377.528   -99375.525 
   48890   0.95717842    1.9794766   -99377.476   -99375.496 
   48900   0.97359902     2.013435     -99377.5   -99375.487 
   48910   0.96063436    1.9866236   -99377.536    -99375.55 
   48920   0.98863179    2.0445232   -99377.568   -99375.523 
   48930   0.96695689    1.9996988   -99377.433   -99375.433 
   48940   0.99111546    2.0496595    -99377.48   -99375.431 
   48950   0.97418124     2.014639   -99377.467   -99375.453 
   48960   0.99237749    2.0522694   -99377.495   -99375.443 
   48970   0.99801541    2.0639289   -99377.462   -99375.398 
   48980   0.99686263    2.0615449   -99377.412    -99375.35 
   48990   0.99543511    2.0585927   -99377.375   -99375.316 
   49000   0.99187307    2.0512263   -99377.362   -99375.311 
   49010   0.99559315    2.0589195   -99377.329    -99375.27 
   49020    1.0296262    2.1293011   -99377.323   -99375.194 
   49030    1.0500571    2.1715527   -99377.335   -99375.163 
   49040    1.0445525    2.1601692   -99377.324   -99375.164 
   49050    1.0331694    2.1366285   -99377.266   -99375.129 
   49060    1.0515646    2.1746705   -99377.231   -99375.057 
   49070    1.0626132    2.1975193   -99377.193   -99374.995 
   49080    1.0643734    2.2011593   -99377.233   -99375.031 
   49090    1.0421992    2.1553025   -99377.275    -99375.12 
   49100    1.0300241     2.130124   -99377.283   -99375.152 
   49110    1.0120322    2.0929161   -99377.199   -99375.106 
   49120    1.0189636    2.1072503   -99377.146   -99375.039 
   49130    1.0066696     2.081826   -99377.154   -99375.072 
   49140   0.99389657     2.055411   -99377.229   -99375.173 
   49150   0.97321071    2.0126319   -99377.295   -99375.283 
   49160   0.98025579    2.0272014   -99377.392   -99375.365 
   49170   0.98074888    2.0282211     -99377.4   -99375.372 
   49180   0.96057195    1.9864945   -99377.337    -99375.35 
   49190   0.95801053    1.9811975   -99377.317   -99375.336 
   49200   0.94886091    1.9622757   -99377.275   -99375.312 
   49210   0.96286706    1.9912409   -99377.336   -99375.345 
   49220   0.94766003    1.9597923    -99377.42   -99375.461 
   49230   0.95069968    1.9660784   -99377.514   -99375.548 
   49240   0.92813393    1.9194117   -99377.401   -99375.482 
   49250   0.94058441    1.9451597   -99377.308   -99375.362 
   49260   0.93653894    1.9367935   -99377.254   -99375.317 
   49270   0.94873584    1.9620171   -99377.224   -99375.262 
   49280    0.9609933    1.9873659   -99377.171   -99375.183 
   49290   0.96587784    1.9974673   -99377.124   -99375.127 
   49300   0.98015754    2.0269982    -99377.13   -99375.103 
   49310   0.99916997    2.0663165   -99377.174   -99375.108 
   49320    1.0286578    2.1272983   -99377.202   -99375.075 
   49330    1.0348064    2.1400139   -99377.117   -99374.977 
   49340    1.0269247    2.1237142   -99376.968   -99374.844 
   49350    1.0435038    2.1580003   -99376.906   -99374.748 
   49360    1.0532555    2.1781671   -99376.938    -99374.76 
   49370    1.0866557    2.2472399    -99377.05   -99374.803 
   49380    1.0742515    2.2215876   -99377.018   -99374.796 
   49390    1.0860276    2.2459409       -99377   -99374.754 
   49400    1.0638437     2.200064   -99376.991   -99374.791 
   49410    1.0801598    2.2338062   -99377.067   -99374.833 
   49420    1.1093369    2.2941453   -99377.063   -99374.769 
   49430    1.0810694    2.2356873   -99376.936     -99374.7 
   49440    1.0613459    2.1948985    -99376.99   -99374.795 
   49450    1.0197657    2.1089092   -99377.008   -99374.899 
   49460    1.0074011    2.0833388   -99376.977   -99374.894 
   49470    1.0119773    2.0928025   -99377.049   -99374.956 
   49480    1.0115354    2.0918886   -99377.161   -99375.069 
   49490   0.99476559    2.0572081   -99377.151   -99375.094 
   49500   0.95249955    1.9698006   -99377.084   -99375.114 
   49510   0.95648245    1.9780373   -99377.221   -99375.243 
   49520   0.94670141    1.9578098   -99377.282   -99375.324 
   49530   0.93715441    1.9380663   -99377.177   -99375.239 
   49540   0.93358841    1.9306917   -99377.147   -99375.216 
   49550   0.91735859    1.8971279   -99377.156   -99375.259 
   49560   0.90960422    1.8810916   -99377.134   -99375.253 
   49570   0.90932765    1.8805196   -99377.137   -99375.256 
   49580    0.9214949    1.9056819    -99377.19   -99375.285 
   49590   0.93046106    1.9242242   -99377.185    -99375.26 
   49600   0.92944556    1.9221241   -99377.089   -99375.167 
   49610   0.95203604     1.968842   -99377.083   -99375.115 
   49620   0.96899582    2.0039154   -99377.087   -99375.083 
   49630    0.9672585    2.0003225   -99376.981    -99374.98 
   49640    0.9870298    2.0412103   -99376.868   -99374.827 
   49650    1.0008824    2.0698579   -99376.835   -99374.765 
   49660    1.0425758    2.1560811   -99376.915   -99374.759 
   49670    1.0366734    2.1438749   -99376.849   -99374.706 
   49680    1.0705005    2.2138305   -99376.855   -99374.641 
   49690    1.0595936    2.1912746   -99376.777   -99374.585 
   49700    1.0987053    2.2721589    -99376.78   -99374.508 
   49710    1.0938585    2.2621355   -99376.665   -99374.403 
   49720    1.1065223    2.2883247   -99376.631   -99374.342 
   49730    1.1101494    2.2958257   -99376.652   -99374.356 
   49740    1.1077858    2.2909377   -99376.648   -99374.357 
   49750    1.1123199    2.3003144   -99376.687   -99374.386 
   49760     1.079969    2.2334117    -99376.69   -99374.456 
   49770    1.0585474     2.189111   -99376.674   -99374.485 
   49780    1.0521592       2.1759   -99376.643   -99374.467 
   49790    1.0136454    2.0962521    -99376.62   -99374.524 
   49800    1.0073859    2.0833074   -99376.718   -99374.634 
   49810    1.0056892    2.0797985   -99376.792   -99374.712 
   49820     1.008142     2.084871   -99376.887   -99374.802 
   49830   0.97004562    2.0060864   -99376.943   -99374.937 
   49840   0.94728886    1.9590247   -99376.959       -99375 
   49850   0.94653973    1.9574754   -99376.938    -99374.98 
   49860    0.9411273    1.9462824   -99376.918   -99374.972 
   49870   0.95041093    1.9654812   -99376.939   -99374.974 
   49880   0.92383589    1.9105232   -99376.903   -99374.992 
   49890   0.92895298    1.9211055   -99376.991    -99375.07 
   49900   0.92250321    1.9077671   -99377.025   -99375.117 
   49910   0.92130032    1.9052795   -99376.995   -99375.089 
   49920    0.9294142    1.9220593   -99376.894   -99374.972 
   49930   0.90942536    1.8807217   -99376.737   -99374.857 
   49940   0.93942533    1.9427626   -99376.776   -99374.833 
   49950   0.95018222    1.9650083   -99376.794   -99374.829 
   49960   0.96932187    2.0045897   -99376.744   -99374.739 
   49970   0.99353792    2.0546693   -99376.675    -99374.62 
   49980   0.99863643    2.0652132   -99376.674   -99374.609 
   49990    1.0521638    2.1759095   -99376.735   -99374.559 
   50000    1.0176917      2.10462   -99376.507   -99374.402 
   50010    1.0885499    2.2511572   -99376.541   -99374.289 
   50020    1.0536626     2.179009   -99376.353   -99374.174 
   50030    1.1090949    2.2936449     -99376.4   -99374.106 
   50040    1.1046137    2.2843777   -99376.451   -99374.166 
   50050    1.0922748    2.2588603   -99376.511   -99374.252 
   50060    1.0808515    2.2352366   -99376.504   -99374.269 
   50070    1.0811427    2.2358389   -99376.485   -99374.249 
   50080      1.09257     2.259471   -99376.518   -99374.258 
   50090    1.0811078    2.2357666   -99376.488   -99374.252 
   50100    1.0772763     2.227843   -99376.476   -99374.248 
   50110    1.0481476     2.167604   -99376.501   -99374.333 
   50120    1.0376214    2.1458353   -99376.509   -99374.363 
   50130    1.0193353    2.1080191   -99376.557   -99374.449 
   50140    1.0144726    2.0979629    -99376.72   -99374.622 
   50150   0.97646137    2.0193544   -99376.788   -99374.769 
   50160   0.98447485    2.0359265   -99376.799   -99374.763 
   50170   0.94792077    1.9603315    -99376.67    -99374.71 
   50180   0.95629655    1.9776529    -99376.71   -99374.732 
   50190   0.92358197    1.9099981   -99376.693   -99374.783 
   50200   0.92853156     1.920234   -99376.752   -99374.832 
   50210   0.91166441    1.8853521   -99376.793   -99374.908 
   50220   0.91807344    1.8986062   -99376.863   -99374.965 
   50230   0.89705379    1.8551369   -99376.773   -99374.918 
   50240   0.87702511    1.8137169   -99376.693   -99374.879 
   50250   0.90115873     1.863626   -99376.755   -99374.892 
   50260   0.91626109    1.8948582   -99376.787   -99374.893 
   50270   0.94855867    1.9616507   -99376.754   -99374.792 
   50280   0.93482579    1.9332506   -99376.613    -99374.68 
   50290   0.94974285    1.9640996    -99376.58   -99374.616 
   50300   0.97002151    2.0060365   -99376.516    -99374.51 
   50310    0.9852749    2.0375811   -99376.444   -99374.407 
   50320    1.0191444    2.1076243   -99376.515   -99374.407 
   50330    1.0391428    2.1489817   -99376.537   -99374.388 
   50340    1.0571895    2.1863028   -99376.423   -99374.236 
   50350    1.0648119    2.2020663   -99376.286   -99374.083 
   50360    1.0625328    2.1973529   -99376.247    -99374.05 
   50370    1.0869397    2.2478272   -99376.258    -99374.01 
   50380    1.0852683    2.2443706   -99376.104    -99373.86 
   50390     1.088928     2.251939   -99376.105   -99373.853 
   50400    1.0889614    2.2520081   -99376.266   -99374.014 
   50410    1.0876861    2.2493707   -99376.349     -99374.1 
   50420    1.0933504    2.2610849   -99376.364   -99374.103 
   50430    1.0637493    2.1998687   -99376.312   -99374.112 
   50440    1.0679818    2.2086217   -99376.297   -99374.088 
   50450    1.0315076    2.1331918   -99376.184   -99374.051 
   50460    1.0421177    2.1551338   -99376.239   -99374.083 
   50470    1.0061253    2.0807005   -99376.282   -99374.201 
   50480    1.0222533    2.1140537   -99376.403   -99374.289 
   50490   0.97764893    2.0218103   -99376.397   -99374.375 
   50500    0.9801561    2.0269952   -99376.507    -99374.48 
   50510   0.97292161     2.012034   -99376.525   -99374.513 
   50520   0.93218421    1.9277878   -99376.411   -99374.483 
   50530   0.94824499     1.961002   -99376.437   -99374.476 
   50540   0.93880988    1.9414899   -99376.505   -99374.564 
   50550   0.94083465    1.9456772   -99376.561   -99374.615 
   50560   0.91932012    1.9011844   -99376.468   -99374.567 
   50570   0.91757624     1.897578   -99376.462   -99374.565 
   50580    0.9222478    1.9072389   -99376.585   -99374.678 
   50590    0.9277135    1.9185422   -99376.566   -99374.648 
   50600   0.93310876    1.9296998   -99376.387   -99374.457 
   50610   0.97697954     2.020426   -99376.366   -99374.345 
   50620   0.99381149     2.055235   -99376.398   -99374.342 
   50630   0.99270866    2.0529543   -99376.343    -99374.29 
   50640    1.0083499    2.0853008   -99376.224   -99374.138 
   50650    1.0146574     2.098345   -99376.129   -99374.031 
   50660    1.0343124    2.1389922   -99376.165   -99374.026 
   50670    1.0395264    2.1497751   -99376.232   -99374.082 
   50680    1.0258859    2.1215659   -99376.248   -99374.127 
   50690    1.0326625    2.1355802   -99376.218   -99374.083 
   50700    1.0503134    2.1720829    -99376.13   -99373.958 
   50710     1.040747    2.1522992   -99376.061   -99373.909 
   50720    1.0452437    2.1615986   -99376.137   -99373.975 
   50730    1.0166815     2.102531   -99376.082   -99373.979 
   50740    1.0514954    2.1745271   -99376.095   -99373.921 
   50750    1.0390592    2.1488089    -99376.08   -99373.931 
   50760    1.0199664    2.1093242   -99376.133   -99374.024 
   50770    1.0344193    2.1392133   -99376.221   -99374.082 
   50780     1.017973    2.1052019   -99376.148   -99374.043 
   50790    1.0257128     2.121208   -99376.132   -99374.011 
   50800    1.0115101    2.0918364   -99376.109   -99374.017 
   50810   0.99982354    2.0676681   -99376.137   -99374.069 
   50820   0.97663159    2.0197064   -99376.197   -99374.177 
   50830   0.98387649    2.0346891   -99376.315    -99374.28 
   50840   0.96443334      1.99448   -99376.322   -99374.328 
   50850   0.96232276    1.9901153   -99376.307   -99374.317 
   50860   0.95775834    1.9806759   -99376.245   -99374.265 
   50870   0.94711771    1.9586707   -99376.164   -99374.205 
   50880   0.95699253    1.9790922   -99376.168   -99374.189 
   50890   0.95515048    1.9752828   -99376.205    -99374.23 
   50900    0.9674443    2.0007068   -99376.237   -99374.236 
   50910    0.9599301    1.9851672   -99376.171   -99374.186 
   50920   0.95131141    1.9673434   -99376.154   -99374.187 
   50930   0.95298922    1.9708132   -99376.172   -99374.201 
   50940   0.97668498    2.0198168   -99376.124   -99374.104 
   50950   0.98890084    2.0450796   -99376.012   -99373.967 
   50960    1.0121345    2.0931276   -99376.007   -99373.914 
   50970    1.0243068    2.1183003   -99376.057   -99373.938 
   50980    1.0360634    2.1426134   -99375.947   -99373.804 
   50990    1.0324675    2.1351768   -99375.786   -99373.651 
   51000    1.0699864    2.2127672   -99375.875   -99373.662 
Loop time of 70718.2 on 128 procs for 50000 steps with 16000 atoms

Performance: 0.122 ns/day, 196.440 hours/ns, 0.707 timesteps/s
90.5% CPU use with 64 MPI tasks x 2 OpenMP threads

MPI task timing breakdown:
Section |  min time  |  avg time  |  max time  |%varavg| %total
---------------------------------------------------------------
Pair    | 70420      | 70478      | 70554      |  13.9 | 99.66
Neigh   | 23.522     | 24.636     | 25.539     |   8.5 |  0.03
Comm    | 36.179     | 124.23     | 224.87     | 450.5 |  0.18
Output  | 6.9627     | 6.9944     | 8.6273     |   7.8 |  0.01
Modify  | 30.729     | 83.918     | 143.23     | 279.9 |  0.12
Other   |            | 0.9057     |            |       |  0.00

Nlocal:        250.000 ave         270 max         230 min
Histogram: 4 8 8 8 0 8 8 8 4 8
Nghost:        1345.14 ave        1455 max        1226 min
Histogram: 4 0 7 9 9 12 9 5 6 3
Neighs:         0.00000 ave           0 max           0 min
Histogram: 64 0 0 0 0 0 0 0 0 0
FullNghs:      19055.1 ave       20987 max       17198 min
Histogram: 4 10 2 7 9 12 4 3 5 8

Total # of neighbors = 1219528
Ave neighs/atom = 76.220500
Neighbor list builds = 7284
Dangerous builds = 142
======== ”µœº¨¡‹Ÿ®Œˆ ========
Total wall time: 20:01:13
