POSCAR file written by OVITO Basic 3.10.6
1
78.2429003373 0.0 0.0
0.0 78.1957894562 0.0
0.0 0.0 31.2529964487
Al Bi Ga O 
1600 3200 1600 9600 
Direct
0.025672 0.0251524 0.067726
0.076156 0.0253393 0.0665277
0.126239 0.0255917 0.0653758
0.175864 0.025531 0.0660275
0.22624 0.0257722 0.066484
0.27619 0.0256387 0.0674369
0.326488 0.0255104 0.0685207
0.376382 0.0253035 0.0693266
0.426482 0.0253658 0.0701777
0.476329 0.0249072 0.0708833
0.526231 0.0248473 0.0725288
0.575987 0.0247146 0.0729746
0.626025 0.0243204 0.0740475
0.675699 0.0238511 0.0753788
0.725413 0.0236911 0.0748241
0.775745 0.0239926 0.0746224
0.825485 0.0239678 0.0733721
0.875417 0.0244158 0.0717774
0.925584 0.0244178 0.0703121
0.975531 0.0248128 0.0692334
0.0258363 0.0750602 0.0674106
0.0763156 0.0753663 0.066056
0.125982 0.0758731 0.0644024
0.175515 0.0764448 0.0648635
0.22561 0.0759912 0.0657509
0.275729 0.0760139 0.0668689
0.326024 0.0757089 0.0675228
0.375946 0.0757559 0.0686191
0.425908 0.0753821 0.0693057
0.475909 0.0755416 0.0707011
0.525815 0.0750889 0.0714093
0.575775 0.0749206 0.0727679
0.625607 0.0746096 0.0734583
0.675734 0.0741118 0.0741339
0.725516 0.0734834 0.0750024
0.775749 0.0736675 0.0743744
0.825659 0.0741096 0.0728059
0.875827 0.0743147 0.0712654
0.925798 0.0748108 0.0700709
0.976102 0.0746992 0.0688698
0.0263576 0.125187 0.0671542
0.0761853 0.125525 0.0650284
0.125985 0.126273 0.0642066
0.175404 0.126182 0.0642599
0.225547 0.126158 0.065171
0.27556 0.125755 0.0663113
0.325767 0.12583 0.0667894
0.375594 0.125691 0.0679647
0.425784 0.125615 0.0690629
0.475535 0.125237 0.0698943
0.525585 0.125296 0.0708437
0.575304 0.124568 0.0717075
0.625578 0.124157 0.0726879
0.675647 0.123582 0.0736717
0.725635 0.123212 0.0741157
0.775694 0.123466 0.073726
0.825976 0.123857 0.0720842
0.875976 0.124429 0.071085
0.926234 0.124415 0.069393
0.97616 0.124764 0.0682275
0.0262011 0.17531 0.0665921
0.0762981 0.175647 0.0647078
0.125657 0.176154 0.0635853
0.175382 0.17654 0.0638996
0.225389 0.176124 0.0645832
0.275584 0.17608 0.0658921
0.325568 0.175682 0.0664298
0.375476 0.175885 0.0673544
0.425508 0.175307 0.0684177
0.475572 0.175256 0.0694107
0.525264 0.174972 0.0699356
0.575544 0.174773 0.0715365
0.625384 0.174239 0.0721815
0.675385 0.174003 0.0724788
0.725551 0.17323 0.0735769
0.775996 0.173253 0.0735202
0.825769 0.173853 0.0717975
0.876299 0.173978 0.0699663
0.926053 0.174603 0.0691797
0.976479 0.174884 0.0675041
0.0262495 0.225406 0.0657426
0.0761267 0.225569 0.0636949
0.125568 0.226335 0.0628421
0.17529 0.226336 0.0632248
0.225249 0.226452 0.0640908
0.275339 0.226048 0.0650491
0.325551 0.226029 0.0656659
0.375248 0.225463 0.0664833
0.425623 0.225507 0.0676398
0.47518 0.225065 0.0686222
0.525355 0.224827 0.0697272
0.575111 0.224456 0.0708702
0.625359 0.224307 0.0713294
0.675619 0.223539 0.0726304
0.725557 0.222829 0.0730523
0.77593 0.22325 0.0724229
0.826219 0.223541 0.0711196
0.876087 0.22412 0.0697171
0.926298 0.224407 0.0682973
0.976336 0.224852 0.0666992
0.725569 0.27293 0.0724231
0.776068 0.273008 0.0720891
0.0260205 0.275413 0.0653358
0.0761608 0.275718 0.0635757
0.125583 0.276422 0.0626532
0.175237 0.276741 0.0625245
0.225195 0.276267 0.0632757
0.275321 0.276136 0.0642319
0.325368 0.275648 0.0651235
0.375372 0.275554 0.0660212
0.425247 0.275254 0.0668599
0.475398 0.275125 0.0677023
0.525206 0.274564 0.0693466
0.575373 0.274618 0.0699002
0.624976 0.274127 0.0708842
0.675495 0.273801 0.0715141
0.825992 0.273808 0.0704251
0.876135 0.274007 0.068929
0.9262 0.274449 0.0675739
0.976217 0.27494 0.0664324
0.0260854 0.325565 0.0647027
0.0760104 0.325793 0.0626409
0.125664 0.326527 0.0618819
0.175249 0.326442 0.0619586
0.225308 0.326449 0.0626919
0.275294 0.325905 0.0638763
0.3254 0.325821 0.0649844
0.375305 0.325385 0.0658811
0.425551 0.325309 0.0663903
0.475233 0.32507 0.0676446
0.525401 0.324935 0.0681309
0.575209 0.324448 0.0693848
0.625245 0.324145 0.0695235
0.67539 0.323469 0.0710385
0.725715 0.322799 0.0718113
0.77577 0.323151 0.0714515
0.826092 0.323612 0.0699372
0.875945 0.324325 0.0684212
0.926193 0.324525 0.0670515
0.975937 0.324902 0.0657584
0.0259918 0.375476 0.0640131
0.0760166 0.375852 0.0626479
0.125437 0.37658 0.0616215
0.175123 0.376779 0.0614939
0.225238 0.376265 0.0626489
0.27539 0.376034 0.0635888
0.325168 0.375808 0.0637513
0.37548 0.375562 0.0648617
0.425256 0.375088 0.0656863
0.475285 0.37525 0.0667311
0.525154 0.374897 0.0676028
0.575285 0.374612 0.0682051
0.625154 0.374033 0.069326
0.675491 0.373575 0.0702816
0.725507 0.373002 0.0713307
0.775969 0.373177 0.070807
0.825879 0.373744 0.0695175
0.876022 0.374123 0.068013
0.925852 0.374792 0.066728
0.976164 0.374951 0.0652066
0.0260113 0.425439 0.0635043
0.0758527 0.425794 0.0619382
0.125368 0.426536 0.0607049
0.1751 0.426505 0.0607978
0.225285 0.426356 0.0619181
0.275129 0.425886 0.0624668
0.325285 0.425849 0.0631203
0.37541 0.425442 0.0643036
0.425338 0.425407 0.0651306
0.475189 0.425008 0.0663204
0.525244 0.424955 0.0669153
0.575083 0.424438 0.0679736
0.625261 0.424052 0.0686596
0.675305 0.423554 0.0696129
0.725665 0.422837 0.070455
0.775575 0.423125 0.070067
0.825871 0.423486 0.0689402
0.875849 0.424139 0.0669985
0.926179 0.42451 0.0660635
0.975934 0.42499 0.0645012
0.0258531 0.475467 0.0631296
0.0759839 0.475822 0.0615398
0.125411 0.476379 0.0599633
0.175094 0.47662 0.0601128
0.225038 0.476149 0.061247
0.275406 0.476024 0.0616204
0.325086 0.475645 0.0627336
0.375271 0.475581 0.0634463
0.425209 0.475283 0.0644501
0.475325 0.475125 0.0656776
0.525005 0.47482 0.0666567
0.575266 0.474753 0.0675648
0.625032 0.474272 0.0681393
0.675505 0.473571 0.0690987
0.725393 0.472914 0.070097
0.775589 0.473141 0.0695348
0.825583 0.47377 0.0681843
0.875778 0.473984 0.0666399
0.925828 0.47472 0.0652295
0.975871 0.475057 0.0641992
0.0259696 0.525402 0.0625653
0.0759188 0.525709 0.0606469
0.125494 0.526546 0.059784
0.175182 0.526378 0.0597517
0.225056 0.52621 0.0604855
0.275079 0.525845 0.0609695
0.325233 0.525628 0.0621737
0.375124 0.525428 0.0630291
0.425138 0.525396 0.0638682
0.474988 0.525151 0.0650495
0.525197 0.525076 0.0660228
0.575017 0.524585 0.0666964
0.625306 0.524246 0.067593
0.67547 0.523474 0.0688472
0.725405 0.523051 0.0698733
0.775664 0.523397 0.0689408
0.82578 0.523874 0.0679243
0.875758 0.524176 0.0659094
0.925716 0.524614 0.0647873
0.975789 0.525036 0.0634751
0.0258589 0.575555 0.0615975
0.075802 0.575802 0.0600389
0.125295 0.576428 0.0590557
0.175146 0.576537 0.058928
0.22511 0.576033 0.0598139
0.27505 0.575795 0.0606229
0.324934 0.575643 0.0614316
0.375155 0.575722 0.0627717
0.424662 0.575227 0.0638114
0.474951 0.575218 0.064735
0.524937 0.575046 0.065299
0.574952 0.574707 0.0660131
0.624988 0.57443 0.0674293
0.675468 0.573795 0.0679156
0.725515 0.573125 0.0691059
0.775801 0.573333 0.068594
0.825831 0.574047 0.0668604
0.875536 0.574237 0.0653027
0.925724 0.574875 0.0639277
0.975912 0.575124 0.0627072
0.0259083 0.625334 0.0603968
0.0757624 0.625587 0.0592011
0.125242 0.626167 0.058037
0.174918 0.626147 0.0583469
0.225009 0.626191 0.0596113
0.274841 0.625739 0.0599869
0.324965 0.625704 0.0611726
0.374729 0.625381 0.0624752
0.424641 0.625353 0.0631708
0.474747 0.625128 0.0641779
0.524713 0.624947 0.064954
0.574709 0.624845 0.0658238
0.625039 0.624627 0.0669886
0.675565 0.623799 0.0679069
0.725555 0.623241 0.0680367
0.775816 0.62341 0.0678211
0.825842 0.623973 0.0663631
0.875674 0.624536 0.0648189
0.925784 0.62442 0.0637181
0.97578 0.624992 0.062114
0.0260577 0.675367 0.0598646
0.0757044 0.675546 0.0583089
0.125027 0.676053 0.0575752
0.174912 0.676186 0.0578458
0.224687 0.675834 0.058883
0.274724 0.675926 0.0596394
0.324493 0.675651 0.0608553
0.374591 0.675638 0.0620246
0.424437 0.675471 0.0626757
0.474557 0.675419 0.0639935
0.524521 0.675119 0.0646696
0.574587 0.674748 0.0653266
0.624907 0.674601 0.0670835
0.675305 0.674064 0.0677714
0.72573 0.673446 0.0680558
0.775858 0.673969 0.066866
0.826008 0.674351 0.0653122
0.87595 0.674359 0.0640617
0.925978 0.674794 0.0628375
0.975757 0.674953 0.0614413
0.0261904 0.724627 0.0590627
0.0765204 0.724934 0.0567563
0.124997 0.725611 0.0585305
0.175076 0.72572 0.0578321
0.22511 0.725781 0.0593171
0.274732 0.725629 0.0604619
0.324787 0.72545 0.0614188
0.374523 0.725368 0.0619545
0.424655 0.725069 0.0634486
0.474827 0.724781 0.0644833
0.524759 0.724615 0.0650089
0.574779 0.72454 0.0662224
0.625077 0.724478 0.0669062
0.675332 0.724522 0.0689773
0.726586 0.723596 0.067483
0.776501 0.723546 0.0660072
0.82645 0.723946 0.0647183
0.876655 0.724282 0.0632905
0.926619 0.72412 0.0619335
0.97663 0.724443 0.0609066
0.0266036 0.774149 0.0598238
0.0767403 0.774316 0.0584742
0.125198 0.774776 0.0588038
0.175551 0.775298 0.0598313
0.225374 0.775301 0.0608312
0.275344 0.775208 0.0621387
0.325361 0.775083 0.0633992
0.375247 0.774823 0.0637108
0.425336 0.774422 0.064893
0.475449 0.774339 0.0658728
0.525356 0.774259 0.0671552
0.575756 0.773959 0.0677785
0.625667 0.774083 0.0692367
0.676131 0.774289 0.0694697
0.726414 0.773785 0.0689044
0.776583 0.773569 0.0668934
0.826668 0.773515 0.0658368
0.876762 0.773566 0.0641633
0.926779 0.773975 0.0625973
0.976599 0.773985 0.061167
0.0265699 0.824148 0.0613908
0.076326 0.824496 0.0604066
0.125867 0.825163 0.0611834
0.175748 0.825421 0.0624071
0.225545 0.825381 0.0630885
0.275752 0.825221 0.0643013
0.325781 0.825093 0.0650585
0.375745 0.824737 0.0657792
0.425751 0.824629 0.0669843
0.475836 0.824333 0.0680675
0.525646 0.824131 0.0684877
0.575834 0.824132 0.0700757
0.625903 0.824404 0.0710022
0.676158 0.82445 0.071311
0.726108 0.823939 0.0696883
0.776583 0.82348 0.0684697
0.826352 0.823438 0.067158
0.876456 0.823746 0.0658437
0.92621 0.823807 0.0640431
0.976453 0.824281 0.062712
0.0261628 0.874311 0.0629519
0.0764378 0.874517 0.0623624
0.125936 0.875049 0.0633176
0.175997 0.875358 0.063961
0.226102 0.875315 0.0650435
0.276174 0.875123 0.0661332
0.326356 0.874842 0.0667868
0.376226 0.874879 0.0672889
0.426215 0.874319 0.0688666
0.476216 0.874298 0.0696955
0.526003 0.874197 0.0706984
0.576165 0.87414 0.0718925
0.625998 0.87425 0.0726059
0.676121 0.87461 0.0732093
0.72631 0.874179 0.0713359
0.776387 0.873676 0.0702917
0.826215 0.873795 0.0685437
0.876134 0.873617 0.0679337
0.926253 0.874359 0.0661153
0.976295 0.874147 0.0648176
0.0259664 0.924561 0.0650678
0.0760022 0.924854 0.0642208
0.126166 0.925284 0.0645182
0.176364 0.925313 0.0654247
0.226701 0.925296 0.066283
0.276822 0.925337 0.0673805
0.326712 0.925227 0.0683161
0.376907 0.924915 0.0689443
0.426834 0.924822 0.0701415
0.476765 0.924388 0.0711207
0.526474 0.92434 0.0720647
0.57645 0.924276 0.0734938
0.626116 0.924417 0.0739408
0.676445 0.924289 0.0746793
0.726009 0.924031 0.0728107
0.77634 0.92385 0.0722595
0.825852 0.923918 0.0711385
0.87587 0.924324 0.0692093
0.925694 0.924193 0.0681067
0.976114 0.924621 0.066751
0.0252649 0.974631 0.0675779
0.0752363 0.974956 0.0665509
0.126831 0.975453 0.0671205
0.176655 0.975927 0.0669674
0.22695 0.975755 0.0673927
0.277008 0.975599 0.0683017
0.327141 0.975422 0.0690799
0.377123 0.975174 0.0699846
0.427182 0.974955 0.070826
0.476994 0.975046 0.0719664
0.526868 0.974765 0.0727524
0.576668 0.974606 0.0742204
0.626314 0.9745 0.074296
0.676566 0.973911 0.0761586
0.725003 0.974216 0.0738843
0.775665 0.973794 0.0741903
0.825518 0.973829 0.0724763
0.875328 0.974071 0.0710637
0.925162 0.974298 0.0698891
0.975392 0.974433 0.0685343
0.0255801 0.0247505 0.188493
0.0758438 0.0253144 0.187036
0.125895 0.0257715 0.185819
0.176156 0.0255493 0.186552
0.226522 0.0255946 0.187192
0.276388 0.0255311 0.18834
0.326698 0.0253451 0.189101
0.376496 0.0250844 0.190053
0.426655 0.0250098 0.190773
0.476264 0.024641 0.191986
0.526368 0.0247184 0.192715
0.576213 0.0243143 0.194374
0.625956 0.0242525 0.194698
0.67613 0.0237977 0.195162
0.725441 0.0234549 0.196594
0.77526 0.0235372 0.19544
0.825331 0.0239233 0.194291
0.875352 0.0242381 0.192615
0.925315 0.0243013 0.191696
0.97527 0.0245265 0.190162
0.0258577 0.0746869 0.188195
0.0759693 0.0752877 0.187111
0.125849 0.0761753 0.185443
0.175836 0.0762422 0.185387
0.225757 0.0757837 0.186534
0.276179 0.0757439 0.187556
0.326199 0.0754335 0.188829
0.376131 0.0753873 0.189556
0.426207 0.0752147 0.19063
0.476237 0.075145 0.19136
0.525838 0.0746424 0.192185
0.575985 0.0746768 0.19319
0.62569 0.0742707 0.193602
0.675905 0.073667 0.195043
0.725462 0.0731946 0.195928
0.775435 0.0733108 0.195161
0.825671 0.0736992 0.193642
0.875627 0.0741261 0.19225
0.925564 0.0742992 0.191046
0.975758 0.0746578 0.189899
0.0260049 0.124906 0.18811
0.0760474 0.125336 0.186706
0.125743 0.126272 0.185184
0.175653 0.12616 0.185399
0.225707 0.126045 0.186338
0.275591 0.12579 0.187242
0.325868 0.125509 0.188353
0.375915 0.125419 0.189372
0.425931 0.125424 0.190302
0.47585 0.124935 0.190928
0.525889 0.124949 0.192278
0.57557 0.124416 0.192941
0.625718 0.124156 0.193633
0.675982 0.123619 0.194452
0.725507 0.123128 0.19564
0.775558 0.123463 0.194678
0.825769 0.123935 0.193173
0.875613 0.12394 0.191957
0.925869 0.124426 0.190371
0.976051 0.124684 0.18931
0.0261773 0.175156 0.187479
0.0761009 0.175575 0.186069
0.125752 0.17637 0.18448
0.175849 0.176402 0.184482
0.225498 0.176011 0.185726
0.275665 0.175877 0.186493
0.325687 0.175529 0.187751
0.375737 0.175553 0.188729
0.425754 0.175192 0.189828
0.475671 0.174859 0.190768
0.525731 0.174747 0.19149
0.575737 0.174439 0.192161
0.625572 0.174159 0.193003
0.675915 0.173645 0.193743
0.725555 0.172908 0.194919
0.775677 0.173062 0.194091
0.825779 0.173538 0.192795
0.875911 0.173918 0.191271
0.926015 0.174326 0.190222
0.976055 0.174689 0.188742
0.0259829 0.225163 0.187134
0.0760279 0.225525 0.18567
0.125695 0.226405 0.18395
0.175578 0.226447 0.184616
0.225651 0.226004 0.185293
0.275538 0.225836 0.186002
0.325691 0.225576 0.186999
0.375545 0.225397 0.187914
0.425755 0.225166 0.189002
0.475603 0.22492 0.189575
0.525718 0.224773 0.191073
0.575506 0.224398 0.19198
0.625581 0.224118 0.192669
0.675823 0.223579 0.192607
0.725729 0.222852 0.194369
0.775574 0.223081 0.193385
0.82586 0.223548 0.192311
0.875968 0.22387 0.190438
0.92604 0.224456 0.189574
0.976081 0.224605 0.188107
0.725737 0.272767 0.193385
0.775487 0.27303 0.193195
0.825881 0.273493 0.191534
0.0258775 0.275107 0.186457
0.0759348 0.27577 0.185
0.125663 0.276443 0.183421
0.175451 0.276585 0.183631
0.225355 0.275999 0.184764
0.275617 0.276052 0.185223
0.32566 0.27558 0.186585
0.375659 0.275511 0.187371
0.425555 0.274968 0.188171
0.475803 0.274844 0.189205
0.52539 0.274518 0.19016
0.575594 0.274422 0.191064
0.625465 0.273978 0.191662
0.675717 0.273678 0.192605
0.87588 0.273959 0.189865
0.926029 0.274208 0.188822
0.975912 0.274711 0.187376
0.0255925 0.32531 0.185853
0.0759491 0.325598 0.183952
0.125692 0.326649 0.182452
0.175495 0.326555 0.183119
0.225537 0.326183 0.184343
0.275529 0.325845 0.185022
0.325557 0.325673 0.18573
0.375441 0.325171 0.186704
0.425509 0.325261 0.187662
0.475604 0.324796 0.188618
0.525601 0.324615 0.189515
0.575364 0.324355 0.19025
0.625598 0.323939 0.190932
0.675632 0.323363 0.191563
0.725734 0.322733 0.192993
0.775662 0.322866 0.192127
0.825774 0.323596 0.190973
0.876005 0.323766 0.189464
0.925929 0.324284 0.188269
0.975868 0.324799 0.186793
0.0258253 0.375255 0.185121
0.0758807 0.375781 0.18412
0.125606 0.3766 0.182014
0.17541 0.376451 0.182512
0.225467 0.376094 0.183617
0.275579 0.375772 0.184226
0.325595 0.375493 0.185068
0.375588 0.37538 0.186242
0.425396 0.374928 0.187167
0.475415 0.374987 0.188039
0.525496 0.374647 0.188508
0.575632 0.374385 0.189725
0.625467 0.37382 0.19044
0.67569 0.373385 0.191576
0.725476 0.372711 0.192468
0.775617 0.372949 0.19187
0.825706 0.373374 0.190327
0.875738 0.373991 0.188881
0.92594 0.374371 0.187488
0.975724 0.374856 0.186437
0.0255939 0.425317 0.184614
0.0760221 0.425781 0.183085
0.125441 0.426366 0.181617
0.175105 0.426499 0.181718
0.225533 0.426088 0.18267
0.275455 0.42587 0.18367
0.32567 0.425638 0.184615
0.37536 0.425302 0.185614
0.425479 0.425062 0.186772
0.475495 0.424818 0.187532
0.525626 0.424674 0.188392
0.575453 0.424164 0.18915
0.625519 0.423914 0.189838
0.675582 0.423279 0.190177
0.72559 0.422687 0.191727
0.775549 0.423071 0.191086
0.825592 0.42342 0.190001
0.875682 0.423883 0.188179
0.925747 0.424491 0.186979
0.975734 0.424661 0.185858
0.0257633 0.475308 0.183719
0.0757697 0.475861 0.182734
0.125467 0.476515 0.18082
0.175431 0.476439 0.18149
0.22526 0.476027 0.181954
0.275383 0.475819 0.182651
0.32549 0.475575 0.184082
0.375493 0.475362 0.184802
0.425336 0.475034 0.185949
0.475488 0.474901 0.1869
0.525543 0.474676 0.187796
0.575538 0.474388 0.188206
0.62548 0.47395 0.18895
0.675732 0.473534 0.190163
0.725523 0.472808 0.191416
0.775394 0.472866 0.190427
0.825617 0.473428 0.189035
0.875491 0.473879 0.187996
0.925642 0.474308 0.186588
0.975777 0.474997 0.185144
0.02567 0.525422 0.183067
0.0759612 0.525795 0.181818
0.125493 0.526455 0.180209
0.175308 0.526309 0.180709
0.225254 0.526035 0.181635
0.27519 0.52581 0.182127
0.325346 0.525516 0.18318
0.375367 0.52533 0.18404
0.425446 0.525112 0.185293
0.475289 0.524765 0.186247
0.525534 0.524771 0.187388
0.575489 0.524465 0.187871
0.625753 0.524116 0.188543
0.675798 0.523453 0.18898
0.725442 0.522823 0.19052
0.775655 0.523052 0.189826
0.825506 0.523502 0.188567
0.875593 0.523913 0.187051
0.925523 0.52439 0.185725
0.975591 0.524849 0.184151
0.0256998 0.575107 0.182776
0.0756679 0.575772 0.181858
0.125575 0.576408 0.180043
0.175173 0.576417 0.180167
0.22519 0.575936 0.180755
0.275207 0.575586 0.181668
0.325277 0.575347 0.182636
0.37523 0.575194 0.183832
0.425152 0.574869 0.184242
0.475339 0.575046 0.18567
0.52515 0.574718 0.186803
0.575403 0.574447 0.187426
0.625474 0.574308 0.188071
0.675763 0.573733 0.188803
0.725631 0.573124 0.189732
0.775703 0.57318 0.189607
0.825548 0.573698 0.188225
0.875516 0.574154 0.186519
0.925505 0.574444 0.18517
0.975624 0.574895 0.183558
0.0256578 0.625143 0.181886
0.0757095 0.625669 0.180733
0.12524 0.626264 0.179013
0.17522 0.626097 0.179445
0.225254 0.62587 0.180317
0.275079 0.625598 0.181156
0.325133 0.625439 0.182266
0.374864 0.625276 0.183233
0.424925 0.625226 0.184273
0.474882 0.624993 0.185441
0.524945 0.6249 0.18632
0.575063 0.624608 0.186901
0.625279 0.624286 0.187796
0.67569 0.623858 0.188426
0.72592 0.623256 0.18972
0.775764 0.623369 0.188861
0.825525 0.623724 0.18775
0.875685 0.624079 0.185801
0.925527 0.624401 0.184717
0.975667 0.62469 0.183202
0.0257902 0.674988 0.181477
0.0757263 0.675651 0.180256
0.125177 0.676027 0.178571
0.174943 0.675974 0.179046
0.224995 0.675966 0.179871
0.274853 0.675615 0.180629
0.32475 0.675623 0.181872
0.3747 0.675511 0.18282
0.424591 0.675075 0.18349
0.474651 0.674891 0.185053
0.524629 0.674774 0.185676
0.574685 0.674433 0.186863
0.625107 0.674409 0.187242
0.675472 0.673837 0.18829
0.725897 0.67343 0.189431
0.775883 0.673685 0.18793
0.826013 0.674023 0.187062
0.875983 0.67425 0.185642
0.925999 0.674541 0.183926
0.97592 0.674948 0.182234
0.026375 0.724816 0.179766
0.0765309 0.725016 0.179937
0.124914 0.725134 0.178214
0.175123 0.725767 0.1791
0.224954 0.725716 0.180025
0.274846 0.725501 0.181223
0.324804 0.72539 0.182267
0.374472 0.725241 0.183067
0.424647 0.724962 0.183998
0.474721 0.724933 0.185236
0.524705 0.724662 0.186035
0.574864 0.724465 0.186912
0.625033 0.724527 0.187972
0.675305 0.724668 0.188279
0.726773 0.723329 0.188602
0.776518 0.723631 0.187135
0.826619 0.723824 0.185697
0.876611 0.724055 0.184343
0.926597 0.724201 0.182733
0.976408 0.724383 0.181808
0.0263725 0.774415 0.180631
0.0765517 0.774516 0.179972
0.125556 0.775068 0.180683
0.175707 0.775134 0.181571
0.225616 0.775283 0.182216
0.275663 0.775094 0.182996
0.325359 0.775159 0.184267
0.37534 0.774856 0.185187
0.42526 0.774709 0.186334
0.475344 0.774421 0.187271
0.525431 0.774312 0.188253
0.575667 0.774191 0.189167
0.625824 0.774289 0.189628
0.676177 0.77439 0.190492
0.726049 0.77416 0.189021
0.776495 0.773849 0.188286
0.826705 0.77383 0.186802
0.876662 0.773641 0.185087
0.926626 0.774019 0.18343
0.976421 0.774314 0.182216
0.026405 0.824116 0.182
0.0762488 0.824399 0.181369
0.125731 0.82485 0.182765
0.175883 0.825392 0.183454
0.225917 0.825352 0.184067
0.275911 0.825401 0.185242
0.326005 0.825212 0.185901
0.375866 0.824975 0.186801
0.425824 0.824841 0.187848
0.475842 0.824679 0.189016
0.526004 0.824362 0.190299
0.576014 0.824456 0.190824
0.62607 0.824411 0.191972
0.676132 0.824652 0.192643
0.725816 0.824015 0.19107
0.776386 0.823935 0.189286
0.826188 0.823839 0.188167
0.876585 0.824061 0.186697
0.926361 0.824096 0.185019
0.976409 0.824205 0.183618
0.0261457 0.87434 0.184001
0.0761756 0.874494 0.182853
0.126063 0.875244 0.18407
0.176214 0.875512 0.185084
0.22632 0.875556 0.185972
0.276448 0.875323 0.186764
0.326535 0.8753 0.1878
0.376366 0.875035 0.18861
0.426494 0.874676 0.189836
0.476362 0.87455 0.190423
0.526228 0.874512 0.191641
0.576216 0.874199 0.192895
0.626179 0.874446 0.193925
0.676296 0.87467 0.194347
0.725898 0.874243 0.191928
0.776047 0.873847 0.191292
0.826217 0.873962 0.189774
0.875955 0.874015 0.188331
0.926164 0.874216 0.187088
0.976044 0.87412 0.185413
0.025829 0.924828 0.185563
0.0762621 0.924702 0.185314
0.126372 0.925028 0.185901
0.17663 0.925553 0.186175
0.22685 0.925501 0.187186
0.277061 0.925614 0.188196
0.327053 0.92547 0.189147
0.376966 0.925171 0.190401
0.427077 0.924876 0.191062
0.476817 0.924805 0.19208
0.526665 0.924599 0.193261
0.576368 0.924631 0.194324
0.626347 0.924543 0.195275
0.676518 0.924631 0.195338
0.726047 0.924161 0.193805
0.775894 0.924152 0.19265
0.825703 0.924091 0.191269
0.875878 0.924259 0.190407
0.925535 0.924269 0.188552
0.97591 0.92477 0.187459
0.0252073 0.974561 0.188604
0.0753141 0.974863 0.18814
0.126681 0.975728 0.186671
0.177143 0.975753 0.187919
0.227055 0.975643 0.18847
0.277271 0.975431 0.189284
0.327249 0.975231 0.190303
0.377277 0.975184 0.191194
0.427243 0.97493 0.192081
0.477146 0.974874 0.192888
0.526878 0.974773 0.194147
0.57666 0.974454 0.194789
0.62645 0.974414 0.19614
0.676888 0.974046 0.195631
0.725192 0.974057 0.196583
0.775533 0.973681 0.194887
0.825178 0.973873 0.193638
0.875188 0.974121 0.192224
0.924961 0.974276 0.190949
0.975012 0.974543 0.189455
0.0252747 0.024721 0.30962
0.0756252 0.0250693 0.308908
0.125913 0.0256958 0.307033
0.176005 0.0254618 0.307608
0.226351 0.0253794 0.308447
0.276673 0.0252052 0.309137
0.326581 0.0249502 0.310602
0.376648 0.0249828 0.31129
0.426679 0.0246585 0.312511
0.476681 0.0245913 0.313167
0.526461 0.0245549 0.314583
0.576365 0.0243249 0.31507
0.62607 0.0240812 0.315819
0.67599 0.0237632 0.317138
0.725187 0.0232323 0.317844
0.775324 0.0232085 0.317298
0.825042 0.0235564 0.315768
0.875065 0.0239404 0.314223
0.92517 0.0240955 0.312636
0.97522 0.0244223 0.31127
0.0255135 0.0747369 0.309823
0.0759547 0.0752269 0.308143
0.125777 0.0759121 0.306559
0.175946 0.075738 0.306841
0.226145 0.0756286 0.307832
0.276111 0.0754562 0.30874
0.326365 0.07523 0.309735
0.37619 0.0750826 0.310942
0.426321 0.0749527 0.312085
0.476255 0.0747069 0.313071
0.526178 0.0745604 0.31377
0.576157 0.0743613 0.314466
0.626052 0.0741043 0.31539
0.675807 0.0734105 0.315895
0.725367 0.0729101 0.317098
0.775322 0.0731862 0.31681
0.825159 0.0736674 0.315142
0.875451 0.073719 0.313833
0.92549 0.0741456 0.312222
0.975548 0.0743519 0.310767
0.0258368 0.124714 0.309244
0.0760893 0.12557 0.308186
0.125923 0.126099 0.306262
0.175729 0.125923 0.306814
0.225833 0.1257 0.307343
0.276141 0.125548 0.308403
0.325932 0.125191 0.309513
0.376005 0.125188 0.310325
0.426001 0.124963 0.311574
0.476036 0.124829 0.312296
0.526024 0.12457 0.313127
0.575998 0.12441 0.314116
0.626015 0.1241 0.314397
0.676063 0.123665 0.315913
0.725537 0.123041 0.316958
0.775407 0.122914 0.315945
0.825596 0.123369 0.314506
0.875471 0.123804 0.313402
0.925662 0.124175 0.312048
0.975646 0.124462 0.310531
0.0256253 0.174942 0.309133
0.0760161 0.175473 0.307158
0.125856 0.17647 0.306174
0.175784 0.176359 0.30597
0.225808 0.175983 0.306748
0.275904 0.175608 0.307964
0.325822 0.175397 0.308833
0.375831 0.175131 0.309784
0.425888 0.175037 0.310979
0.475758 0.174741 0.311838
0.525919 0.174393 0.312566
0.575793 0.174138 0.313408
0.62595 0.173943 0.314259
0.675943 0.173439 0.314816
0.725582 0.172791 0.316058
0.775563 0.173007 0.315206
0.825475 0.173442 0.314004
0.87565 0.173836 0.312433
0.925632 0.174032 0.311182
0.975829 0.17456 0.310102
0.0258913 0.225026 0.308208
0.0759768 0.225647 0.306994
0.125915 0.226452 0.304805
0.175725 0.226257 0.305657
0.225635 0.225867 0.306235
0.275729 0.225654 0.307199
0.325816 0.225416 0.308477
0.375828 0.225172 0.309403
0.425699 0.224735 0.310715
0.476038 0.224651 0.311406
0.525823 0.224439 0.312035
0.575895 0.224312 0.313001
0.625718 0.223789 0.313313
0.676041 0.223417 0.314224
0.725504 0.222782 0.315079
0.775483 0.222892 0.314385
0.825641 0.223378 0.313336
0.875526 0.223811 0.311909
0.925694 0.224007 0.310581
0.975708 0.2246 0.309548
0.0257011 0.275183 0.308114
0.0760207 0.275652 0.306289
0.125709 0.276498 0.304825
0.175687 0.276362 0.304925
0.225752 0.275971 0.305339
0.275572 0.275584 0.30639
0.325864 0.275409 0.307962
0.375696 0.275098 0.30869
0.425726 0.27489 0.309575
0.475819 0.274558 0.31071
0.525827 0.274486 0.311505
0.575909 0.274213 0.312108
0.625871 0.273885 0.31289
0.675904 0.273206 0.313643
0.725604 0.272627 0.314826
0.775431 0.272913 0.314053
0.82549 0.273336 0.312712
0.875648 0.273823 0.311095
0.925616 0.274032 0.310476
0.975811 0.274405 0.309089
0.0256597 0.325114 0.30719
0.0757242 0.325882 0.305686
0.125565 0.326721 0.304077
0.175489 0.326393 0.304192
0.225587 0.325954 0.305142
0.275839 0.325727 0.30632
0.325777 0.325317 0.30751
0.375793 0.325268 0.308171
0.425764 0.324793 0.308547
0.475764 0.324746 0.309977
0.525624 0.324544 0.31072
0.575746 0.324181 0.311803
0.625822 0.323829 0.312412
0.675854 0.323391 0.313198
0.725637 0.322643 0.314369
0.77555 0.32284 0.31354
0.825709 0.323252 0.312276
0.875574 0.32373 0.310926
0.925756 0.323982 0.309832
0.975625 0.324669 0.308051
0.0253986 0.375184 0.306516
0.0756531 0.375641 0.305295
0.125599 0.376507 0.303605
0.175481 0.376497 0.303429
0.225751 0.376068 0.304643
0.275791 0.37556 0.305588
0.32581 0.375292 0.306545
0.375614 0.375071 0.308065
0.425796 0.374962 0.308315
0.475663 0.374675 0.30937
0.525614 0.374487 0.310014
0.575823 0.374141 0.311178
0.625838 0.373813 0.311995
0.675948 0.373226 0.312414
0.72563 0.372456 0.31369
0.775386 0.372807 0.312939
0.82547 0.373326 0.311291
0.875686 0.373467 0.310498
0.925459 0.374103 0.309296
0.975626 0.374617 0.307443
0.0254513 0.425062 0.305526
0.0756976 0.425818 0.30468
0.125499 0.426445 0.302787
0.175396 0.42631 0.302824
0.22564 0.425937 0.303938
0.275753 0.425726 0.304822
0.32565 0.425337 0.305703
0.375704 0.425167 0.306465
0.425595 0.424915 0.307741
0.475815 0.424813 0.308557
0.525625 0.424502 0.309716
0.575732 0.42426 0.310285
0.625791 0.423812 0.311021
0.675788 0.423514 0.312014
0.725586 0.422514 0.313242
0.775311 0.422826 0.312131
0.82544 0.423265 0.310782
0.87536 0.42378 0.309701
0.925343 0.42419 0.308278
0.97534 0.424628 0.306537
0.0254152 0.47509 0.305416
0.0757092 0.47574 0.303905
0.125551 0.476436 0.302151
0.175432 0.476375 0.302533
0.225699 0.475845 0.303461
0.275574 0.475517 0.304233
0.325771 0.475448 0.30545
0.37563 0.475162 0.305761
0.425632 0.475149 0.307149
0.475696 0.474635 0.307893
0.525793 0.474483 0.308858
0.575861 0.474209 0.309927
0.625784 0.473779 0.310346
0.675761 0.473331 0.311238
0.72546 0.472697 0.312576
0.775371 0.472914 0.31199
0.825203 0.473521 0.31056
0.875399 0.473691 0.308884
0.925291 0.474293 0.307775
0.975546 0.474541 0.306049
0.0255712 0.524991 0.304322
0.0756968 0.525628 0.303667
0.125385 0.526324 0.301667
0.175412 0.526252 0.301933
0.225405 0.525824 0.302766
0.275543 0.52545 0.303474
0.325464 0.525118 0.304591
0.375459 0.525055 0.305797
0.425406 0.524825 0.306673
0.475632 0.524797 0.30781
0.525663 0.524252 0.308085
0.575804 0.524257 0.309013
0.625689 0.524026 0.309262
0.675827 0.523593 0.310416
0.725489 0.52294 0.311941
0.775244 0.52285 0.311071
0.825411 0.523205 0.310049
0.875244 0.523854 0.308244
0.925404 0.524091 0.306799
0.975364 0.524661 0.305635
0.0253739 0.57495 0.30385
0.0756742 0.575375 0.302704
0.125424 0.576306 0.301115
0.17539 0.576284 0.301315
0.225418 0.575965 0.301646
0.275489 0.575473 0.302953
0.32533 0.575165 0.304241
0.375234 0.5749 0.304967
0.425321 0.574979 0.305851
0.475421 0.574662 0.307174
0.525475 0.574452 0.307768
0.575624 0.574223 0.308342
0.625646 0.574108 0.309028
0.67578 0.573738 0.309944
0.725461 0.572958 0.310937
0.775321 0.572988 0.310603
0.825512 0.573369 0.309407
0.875411 0.573942 0.3078
0.925382 0.574321 0.306428
0.97559 0.574401 0.305012
0.0254463 0.625012 0.303428
0.0756893 0.625361 0.302188
0.125328 0.625924 0.300568
0.175391 0.625865 0.300642
0.225435 0.625785 0.301548
0.275258 0.625521 0.302345
0.325084 0.625181 0.303613
0.374898 0.625034 0.304625
0.424937 0.624719 0.305141
0.475152 0.624778 0.306623
0.525266 0.62447 0.307525
0.575321 0.624417 0.30815
0.625442 0.624081 0.308697
0.676038 0.623928 0.309586
0.725676 0.623251 0.310605
0.775635 0.623307 0.31006
0.825853 0.623707 0.308811
0.875579 0.623982 0.307295
0.925603 0.624278 0.305935
0.975349 0.624628 0.304192
0.0256715 0.675029 0.302417
0.0756544 0.675361 0.301404
0.125086 0.67576 0.300146
0.17531 0.675806 0.300114
0.225091 0.675641 0.301268
0.274964 0.675525 0.301922
0.324659 0.675357 0.303269
0.374688 0.67507 0.304258
0.424771 0.675021 0.30534
0.474888 0.674795 0.306376
0.52481 0.674682 0.307033
0.574848 0.674285 0.307737
0.624951 0.674258 0.30869
0.675749 0.673498 0.308861
0.725693 0.673406 0.309994
0.77585 0.673806 0.309381
0.825775 0.673783 0.307896
0.87587 0.674261 0.306461
0.925907 0.674636 0.305279
0.975874 0.674639 0.303799
0.0261074 0.724663 0.301604
0.0764142 0.725225 0.300016
0.124917 0.72536 0.300902
0.175256 0.7255 0.300326
0.225052 0.725635 0.301454
0.274846 0.725548 0.3025
0.324817 0.725394 0.303496
0.374638 0.725059 0.304815
0.424549 0.724614 0.305297
0.47473 0.724723 0.306357
0.524623 0.724583 0.30701
0.574928 0.724404 0.307923
0.624805 0.724616 0.308377
0.675246 0.724677 0.309534
0.726677 0.72345 0.30866
0.776581 0.72343 0.307971
0.826639 0.723793 0.306808
0.876529 0.723989 0.305276
0.926519 0.724308 0.304075
0.976408 0.724472 0.302462
0.0262817 0.774422 0.302008
0.0762035 0.774594 0.301184
0.12577 0.774849 0.302243
0.175726 0.775399 0.302931
0.225762 0.77544 0.303455
0.275453 0.775427 0.304933
0.325544 0.775208 0.305398
0.375319 0.775029 0.307014
0.425446 0.774713 0.307363
0.475228 0.774587 0.308782
0.525537 0.774291 0.309291
0.575464 0.774433 0.310431
0.625654 0.774268 0.311325
0.676132 0.774435 0.311969
0.726172 0.774343 0.310596
0.776346 0.774258 0.308944
0.826806 0.774057 0.307741
0.876584 0.773987 0.306292
0.926565 0.774026 0.304862
0.976445 0.774451 0.303402
0.0263592 0.82437 0.303719
0.0762782 0.824482 0.302354
0.12587 0.825099 0.303701
0.176174 0.825464 0.304406
0.226105 0.825579 0.305424
0.276055 0.825496 0.306281
0.32598 0.825354 0.307317
0.376114 0.825148 0.308277
0.425873 0.825055 0.309461
0.475976 0.824711 0.310134
0.525881 0.824653 0.310917
0.576244 0.824574 0.31225
0.626071 0.824677 0.313453
0.676043 0.824832 0.313473
0.726046 0.824296 0.311959
0.776097 0.824083 0.310586
0.826373 0.824191 0.30927
0.876344 0.824326 0.308191
0.926237 0.824345 0.306241
0.976178 0.824383 0.304904
0.0260765 0.874281 0.30476
0.0762148 0.874425 0.30413
0.126193 0.875053 0.305461
0.176502 0.875785 0.305988
0.226605 0.875643 0.306767
0.276501 0.875653 0.30806
0.326705 0.875502 0.308626
0.376558 0.87546 0.310007
0.426587 0.875123 0.310641
0.476497 0.874856 0.311732
0.526375 0.874677 0.312616
0.576278 0.874534 0.313903
0.626365 0.874799 0.315156
0.676469 0.874651 0.315883
0.725797 0.873989 0.313819
0.775901 0.874122 0.312393
0.825958 0.874091 0.311275
0.875787 0.874242 0.310029
0.926012 0.874448 0.30817
0.976251 0.874497 0.306726
0.0259622 0.924602 0.307015
0.0760966 0.924502 0.305658
0.12637 0.925259 0.306559
0.176881 0.925698 0.307584
0.227134 0.925841 0.308112
0.277083 0.925717 0.309439
0.327137 0.925793 0.310057
0.377089 0.925422 0.311346
0.427156 0.92518 0.312521
0.477045 0.925015 0.313203
0.526941 0.924824 0.314494
0.57662 0.924579 0.315473
0.626553 0.924689 0.31645
0.676391 0.924906 0.316841
0.725754 0.924462 0.31503
0.775702 0.92408 0.31406
0.82566 0.92394 0.312895
0.875491 0.924262 0.311224
0.925631 0.9244 0.309944
0.975671 0.924652 0.308222
0.0252258 0.974426 0.309263
0.0752376 0.974317 0.307652
0.126651 0.975578 0.308866
0.176881 0.976119 0.308419
0.2273 0.975823 0.309546
0.277158 0.97561 0.310491
0.327142 0.975302 0.311606
0.377362 0.975352 0.312095
0.427136 0.974983 0.313143
0.477232 0.974875 0.314145
0.527029 0.974843 0.315446
0.576828 0.974524 0.316081
0.626365 0.974722 0.316817
0.67656 0.973988 0.318645
0.725031 0.974038 0.316979
0.775277 0.973804 0.316474
0.825207 0.973625 0.315271
0.87497 0.97411 0.313762
0.925092 0.974129 0.312414
0.975056 0.974357 0.310336
0.0253279 0.0243529 0.430891
0.0754557 0.024901 0.428537
0.125915 0.025642 0.428132
0.176393 0.0255275 0.428421
0.226391 0.0252482 0.429987
0.276543 0.0250711 0.430589
0.326604 0.0248273 0.431723
0.376538 0.0246908 0.432585
0.426549 0.0247174 0.433517
0.476423 0.0242637 0.43451
0.526389 0.0242151 0.43555
0.576377 0.0240807 0.43672
0.626139 0.0238995 0.437617
0.676374 0.0231823 0.438881
0.725084 0.0232304 0.439499
0.775178 0.0232296 0.437746
0.825158 0.0232514 0.436717
0.874846 0.0235677 0.435119
0.925177 0.0236972 0.433829
0.975137 0.0240791 0.431886
0.0254408 0.0743818 0.4305
0.075733 0.0750334 0.429259
0.125836 0.0758104 0.427563
0.176248 0.0757763 0.427969
0.226053 0.0751837 0.428903
0.276346 0.0752157 0.429775
0.3264 0.0747792 0.430971
0.376493 0.0749772 0.432179
0.426227 0.0746103 0.432913
0.476451 0.0746526 0.433851
0.526407 0.074194 0.43459
0.576372 0.0742016 0.435585
0.626178 0.0739132 0.436453
0.675947 0.0735907 0.437533
0.725436 0.0731821 0.438455
0.775189 0.0729338 0.437654
0.825255 0.0734715 0.436191
0.875429 0.0735519 0.43481
0.925127 0.073922 0.433019
0.975392 0.0740284 0.432048
0.0255503 0.124671 0.430369
0.0757437 0.125283 0.428316
0.125785 0.125987 0.427514
0.176135 0.125911 0.427737
0.226104 0.125697 0.428304
0.276282 0.124941 0.42952
0.326175 0.124947 0.430981
0.376189 0.124708 0.431431
0.426341 0.12462 0.43247
0.47627 0.124294 0.433315
0.526342 0.124364 0.434243
0.576139 0.12395 0.435261
0.626236 0.123712 0.436054
0.676105 0.123516 0.436864
0.725595 0.123115 0.437578
0.775306 0.123004 0.436834
0.825462 0.123191 0.435527
0.875308 0.123593 0.434045
0.925548 0.123864 0.432911
0.975395 0.12426 0.431555
0.0255246 0.174606 0.429646
0.0758921 0.175157 0.427906
0.125857 0.176274 0.426961
0.175957 0.176133 0.427148
0.225935 0.175464 0.427941
0.276176 0.175415 0.429034
0.325937 0.175005 0.430024
0.376134 0.174831 0.431079
0.426044 0.17448 0.432142
0.476103 0.17445 0.43321
0.52594 0.174144 0.433621
0.576311 0.173997 0.434259
0.626133 0.173694 0.435137
0.676173 0.173447 0.436291
0.725544 0.172798 0.436597
0.775354 0.172788 0.43631
0.825387 0.173266 0.435109
0.875439 0.173583 0.434075
0.925384 0.174001 0.432355
0.975642 0.174184 0.431181
0.0257121 0.224896 0.429431
0.0757987 0.225596 0.42722
0.125822 0.226318 0.426081
0.175884 0.226214 0.426436
0.225979 0.225918 0.42727
0.275853 0.225324 0.428347
0.326105 0.225152 0.429589
0.375915 0.224809 0.43073
0.426168 0.224673 0.43145
0.475974 0.224464 0.432254
0.526339 0.224328 0.433089
0.576175 0.223963 0.434203
0.62615 0.223775 0.43442
0.676065 0.223468 0.435663
0.725367 0.222718 0.435734
0.775322 0.222704 0.435464
0.825428 0.223126 0.434399
0.87522 0.223672 0.433388
0.92555 0.22374 0.432012
0.975526 0.224393 0.430574
0.775353 0.272456 0.435078
0.0253673 0.275006 0.42844
0.0758541 0.275396 0.427376
0.125559 0.276405 0.425683
0.175972 0.276298 0.426036
0.225951 0.275658 0.426713
0.275969 0.275425 0.427858
0.326116 0.275126 0.429026
0.376166 0.27499 0.429856
0.426035 0.274462 0.43067
0.475901 0.274613 0.431574
0.525914 0.274064 0.43215
0.576113 0.274111 0.433295
0.626005 0.273593 0.433937
0.676129 0.273301 0.434646
0.725634 0.272655 0.435682
0.825195 0.273074 0.434087
0.875433 0.273453 0.432723
0.925377 0.273996 0.431396
0.975471 0.274283 0.430177
0.0253918 0.325078 0.428069
0.0756062 0.325876 0.426449
0.125629 0.326436 0.425425
0.175849 0.326319 0.425242
0.226027 0.325801 0.426114
0.275906 0.32555 0.427198
0.326175 0.325184 0.428334
0.37602 0.324848 0.429157
0.426158 0.324681 0.430322
0.475817 0.324257 0.430915
0.525844 0.324397 0.431739
0.575982 0.324085 0.432984
0.626239 0.323541 0.433331
0.67616 0.323242 0.434864
0.725619 0.322672 0.435266
0.775302 0.322649 0.434578
0.825346 0.323048 0.433399
0.875224 0.323493 0.432073
0.925522 0.323869 0.430932
0.975296 0.324507 0.429397
0.0251292 0.37501 0.427464
0.0755486 0.375458 0.426275
0.125591 0.37635 0.424318
0.175919 0.376184 0.424555
0.225924 0.375715 0.42534
0.275987 0.37558 0.426763
0.325753 0.375095 0.427539
0.375895 0.374999 0.428774
0.42596 0.374547 0.429404
0.476036 0.374618 0.430445
0.525681 0.374165 0.4312
0.576171 0.374072 0.432245
0.625968 0.373643 0.433136
0.676226 0.373194 0.433632
0.725661 0.372528 0.43465
0.775377 0.3725 0.433688
0.825188 0.37312 0.432609
0.875448 0.373337 0.431569
0.925087 0.373993 0.430342
0.975444 0.374588 0.428476
0.025119 0.424981 0.427075
0.0752721 0.42564 0.425526
0.125421 0.426421 0.424286
0.175661 0.425988 0.423741
0.225949 0.425934 0.424876
0.275886 0.42535 0.426082
0.326086 0.425276 0.42686
0.375832 0.425036 0.427633
0.425968 0.424759 0.428931
0.475841 0.424536 0.429674
0.526115 0.424234 0.430596
0.575731 0.424036 0.431509
0.626058 0.423644 0.432124
0.67604 0.423284 0.43332
0.725649 0.422649 0.434328
0.77512 0.422812 0.432984
0.825289 0.422898 0.432133
0.875271 0.423658 0.431028
0.925177 0.424109 0.429399
0.975138 0.42458 0.427971
0.0250597 0.474959 0.425779
0.0754983 0.475464 0.425209
0.125466 0.476102 0.423418
0.175645 0.47626 0.423286
0.225724 0.475757 0.424306
0.275832 0.475573 0.425191
0.325723 0.475248 0.426743
0.375809 0.47504 0.427266
0.425688 0.474787 0.428315
0.47599 0.47455 0.429039
0.525941 0.474277 0.43026
0.576072 0.474141 0.430876
0.625917 0.473821 0.431295
0.67615 0.473435 0.432455
0.725582 0.472794 0.433656
0.775022 0.472568 0.433132
0.824987 0.473259 0.431595
0.875177 0.47344 0.430245
0.924985 0.474129 0.428745
0.975219 0.474299 0.427116
0.0252506 0.524871 0.425544
0.0755443 0.525459 0.423821
0.125613 0.52643 0.422573
0.175446 0.526042 0.423317
0.225744 0.52571 0.42384
0.275661 0.525404 0.424667
0.32586 0.525094 0.425785
0.375453 0.524637 0.426968
0.425808 0.524705 0.427684
0.475846 0.524358 0.428496
0.525879 0.524292 0.429229
0.575894 0.524041 0.430201
0.626073 0.523813 0.430673
0.676026 0.523569 0.432049
0.725392 0.523075 0.432743
0.774988 0.52291 0.432138
0.825165 0.523086 0.430368
0.875173 0.523521 0.429576
0.925164 0.523918 0.428138
0.974837 0.524482 0.426631
0.0250541 0.574757 0.424732
0.0753701 0.57523 0.423542
0.125289 0.575923 0.422279
0.175743 0.575962 0.422511
0.225448 0.57562 0.423285
0.275774 0.575263 0.42436
0.325347 0.57499 0.424849
0.3756 0.574924 0.426605
0.42545 0.574523 0.427133
0.475708 0.574428 0.427797
0.525805 0.574157 0.428785
0.575898 0.574076 0.42917
0.62591 0.573844 0.430267
0.675924 0.573785 0.431343
0.725476 0.573011 0.431862
0.775253 0.572838 0.431623
0.825173 0.573374 0.430197
0.87526 0.573529 0.428737
0.925106 0.574085 0.427577
0.975272 0.574184 0.425885
0.0252526 0.624704 0.42408
0.0755382 0.625398 0.422978
0.12523 0.625899 0.421731
0.175505 0.625758 0.421883
0.22558 0.625429 0.42239
0.275397 0.625149 0.423632
0.325421 0.625141 0.425021
0.375322 0.624711 0.425591
0.425345 0.62451 0.426457
0.475239 0.624314 0.427624
0.525585 0.624312 0.428315
0.575527 0.624089 0.428837
0.625817 0.624156 0.429444
0.675896 0.623875 0.430538
0.725547 0.62313 0.431448
0.77535 0.623102 0.431173
0.825497 0.623254 0.429375
0.875376 0.62374 0.428391
0.925316 0.623834 0.426775
0.97539 0.624412 0.425431
0.0252669 0.674795 0.422804
0.0759362 0.675327 0.422563
0.125038 0.675654 0.420689
0.175437 0.675617 0.421282
0.22517 0.675406 0.42215
0.275258 0.675257 0.423481
0.324882 0.675025 0.424266
0.375015 0.67501 0.425319
0.42481 0.674553 0.425932
0.474936 0.674571 0.427472
0.524957 0.674184 0.428262
0.575174 0.674127 0.429002
0.625324 0.673988 0.429559
0.675718 0.673953 0.430858
0.725701 0.67358 0.430688
0.775871 0.673437 0.429872
0.82569 0.673654 0.429068
0.876002 0.67402 0.427468
0.925728 0.67421 0.425966
0.975858 0.674551 0.424429
0.0260142 0.724526 0.421918
0.0768133 0.725299 0.422269
0.125101 0.725458 0.420377
0.175274 0.725703 0.422219
0.225085 0.725597 0.42289
0.274877 0.725469 0.424212
0.324879 0.725296 0.424677
0.374685 0.725146 0.425475
0.424726 0.724865 0.426154
0.474697 0.724705 0.427424
0.524861 0.724653 0.428123
0.574878 0.724437 0.428952
0.625192 0.724526 0.429737
0.675114 0.724059 0.429745
0.726691 0.723557 0.43008
0.776667 0.723715 0.428648
0.8264 0.723882 0.427903
0.876622 0.72417 0.426333
0.926544 0.724265 0.424589
0.976403 0.724397 0.423892
0.026057 0.774941 0.422592
0.076348 0.774858 0.422551
0.126135 0.775102 0.422498
0.175711 0.775451 0.423531
0.225801 0.775488 0.424847
0.275406 0.775526 0.425547
0.325564 0.775472 0.426486
0.375436 0.775152 0.426783
0.425546 0.774859 0.428299
0.475322 0.774806 0.429061
0.525745 0.77451 0.430124
0.575677 0.774481 0.430853
0.625948 0.774202 0.431605
0.675872 0.774224 0.432406
0.725754 0.774151 0.431205
0.776254 0.774118 0.429852
0.826363 0.774392 0.428402
0.876591 0.774002 0.427432
0.926422 0.774495 0.42586
0.976192 0.774749 0.424427
0.0260323 0.824591 0.424185
0.0763952 0.824729 0.423874
0.126178 0.825495 0.424702
0.176498 0.825744 0.425194
0.226216 0.825993 0.426377
0.276266 0.825851 0.427699
0.326103 0.825694 0.428153
0.37618 0.825411 0.429219
0.426169 0.825376 0.429916
0.476198 0.824965 0.43087
0.52614 0.824898 0.431873
0.576278 0.824704 0.432992
0.626134 0.824896 0.434254
0.676072 0.824574 0.434432
0.725725 0.824085 0.43322
0.775978 0.824045 0.431621
0.826099 0.824231 0.430462
0.876221 0.824788 0.428717
0.926189 0.824704 0.427649
0.975988 0.824682 0.426018
0.0260061 0.874507 0.425894
0.0764113 0.874753 0.425263
0.126559 0.87524 0.42582
0.176491 0.875853 0.426651
0.226777 0.875903 0.427783
0.276712 0.875955 0.428949
0.326845 0.875617 0.429776
0.376706 0.875556 0.431023
0.426917 0.875241 0.431999
0.476553 0.875118 0.432499
0.526625 0.874726 0.433628
0.576307 0.874809 0.434423
0.626418 0.874926 0.436301
0.67626 0.874769 0.435994
0.725694 0.874322 0.435016
0.775735 0.874135 0.433262
0.825731 0.874304 0.432495
0.876005 0.874419 0.431092
0.925926 0.874781 0.429535
0.975941 0.874649 0.427641
0.026429 0.924991 0.428471
0.0759612 0.924683 0.427003
0.126279 0.925765 0.428113
0.177158 0.926003 0.428141
0.226797 0.925905 0.429513
0.277373 0.925723 0.430328
0.327153 0.925878 0.431217
0.377215 0.92548 0.431805
0.427243 0.925499 0.433256
0.477111 0.925121 0.434213
0.526883 0.924964 0.435212
0.576839 0.924821 0.436389
0.626492 0.924907 0.437646
0.676364 0.924708 0.437933
0.725745 0.924342 0.437006
0.77557 0.924118 0.435246
0.825545 0.924214 0.434404
0.875696 0.924393 0.432804
0.925694 0.92479 0.431596
0.975662 0.92482 0.429876
0.0254823 0.974188 0.429732
0.0753684 0.974678 0.428698
0.126668 0.975408 0.428072
0.176969 0.975787 0.429421
0.226999 0.975865 0.430154
0.277014 0.975614 0.431253
0.327242 0.975286 0.432308
0.377133 0.975228 0.433117
0.427249 0.974902 0.43393
0.477073 0.974876 0.435128
0.527083 0.974722 0.436245
0.576735 0.974684 0.437401
0.626369 0.974435 0.438475
0.676519 0.974341 0.438004
0.725149 0.973926 0.439605
0.775313 0.973431 0.437643
0.825118 0.973866 0.436285
0.875152 0.973791 0.434771
0.925144 0.974183 0.433077
0.975236 0.974374 0.431626
0.147956 0.00326933 0.123235
0.149684 0.00384592 1.00137
0.198969 0.00344081 0.122226
0.249073 0.00359349 1.00092
0.249354 0.00313795 0.122416
0.299195 0.003748 0.00165139
0.348955 0.00326411 0.00214287
0.349574 0.00278544 0.124156
0.39934 0.00321551 0.00345318
0.449004 0.00276873 0.00454974
0.49941 0.00289189 0.00496564
0.498998 0.00241711 0.127455
0.548594 0.00244294 0.00651334
0.598751 0.00246248 0.00715033
0.648394 0.00166783 0.00729298
0.748275 0.0461697 0.0201075
0.0487636 0.0478182 0.0121978
0.0989598 0.0490644 0.00989684
0.148259 0.0538781 0.120047
0.19839 0.0537005 0.12027
0.248455 0.0536017 0.121454
0.298871 0.0535191 0.122038
0.298404 0.0538179 1.00096
0.348793 0.0532688 0.123173
0.398941 0.0533442 0.124368
0.448856 0.0534069 0.00266338
0.498272 0.0531001 0.0047917
0.548384 0.0528907 0.00479667
0.598209 0.0526387 0.00683135
0.648114 0.0522189 0.00715027
0.697686 0.0508714 0.00823296
0.798142 0.0467036 0.0190135
0.848246 0.0467102 0.0175515
0.898083 0.0470574 0.0166464
0.948403 0.0473328 0.0151354
0.998326 0.0474694 0.0133437
0.0487747 0.0978323 0.0122161
0.0998242 0.0985182 0.0103532
0.148053 0.104061 0.120643
0.198262 0.103788 0.119645
0.248132 0.10336 0.120027
0.298506 0.103265 0.121324
0.34837 0.103041 0.121987
0.398173 0.103387 0.00116747
0.398337 0.103051 0.123157
0.4481 0.10308 0.00244447
0.498043 0.103061 0.0032238
0.54776 0.102697 0.00438123
0.597967 0.102431 0.005321
0.64747 0.10145 0.00562678
0.697835 0.101012 0.00755294
0.747998 0.0958399 0.0195695
0.798261 0.0964089 0.0184798
0.848444 0.0968279 0.0170817
0.898504 0.0970819 0.0159298
0.948689 0.0972355 0.0143154
0.999024 0.0976619 0.0132439
0.0489415 0.148051 0.0113781
0.0989799 0.148858 0.00931753
0.148164 0.153904 0.118507
0.19816 0.153632 0.118368
0.2482 0.153519 0.119631
0.298162 0.153245 0.120689
0.34822 0.153207 0.121788
0.348116 0.153391 0.999664
0.397884 0.153035 0.122598
0.39801 0.153245 8.48349e-04
0.447951 0.153171 0.00176483
0.448144 0.152857 0.1238
0.497669 0.152804 0.00214739
0.547866 0.152571 0.00317966
0.59758 0.152203 0.0045792
0.647554 0.151747 0.00609098
0.697556 0.150648 0.00707225
0.748259 0.145948 0.0194721
0.798459 0.146346 0.017851
0.848639 0.146729 0.0161697
0.898699 0.146905 0.0146984
0.948849 0.147251 0.0137857
0.998792 0.147718 0.0126506
0.0489336 0.198089 0.0104851
0.0995985 0.19854 0.00880007
0.148022 0.204125 0.118726
0.198017 0.203994 0.118516
0.247943 0.203433 0.118887
0.298159 0.203401 0.119762
0.347807 0.203131 0.120948
0.347698 0.203328 0.99866
0.39829 0.203178 0.121858
0.397897 0.203276 0.999975
0.448003 0.202514 0.12298
0.447721 0.20287 8.85065e-04
0.497724 0.202563 0.00165343
0.49811 0.20248 0.123386
0.547485 0.202476 0.00269964
0.597719 0.202229 0.00417687
0.647562 0.201268 0.00453971
0.69778 0.201183 0.00627582
0.748188 0.195547 0.0179715
0.798479 0.196198 0.0176761
0.848543 0.196606 0.0159057
0.898919 0.196883 0.0144093
0.948846 0.197313 0.0134305
0.999208 0.197682 0.0113345
0.0487733 0.248277 0.00992068
0.0991974 0.248996 0.0081452
0.148025 0.254013 0.11717
0.197814 0.253771 0.117829
0.247957 0.253567 0.118819
0.298001 0.253349 0.119095
0.348196 0.253128 0.119961
0.397786 0.252794 0.120362
0.448095 0.252797 0.121918
0.447835 0.252834 1.00014
0.497894 0.252171 0.122882
0.497704 0.252615 0.00113476
0.547639 0.25238 0.00275709
0.548097 0.252008 0.124406
0.597468 0.251925 1.0029
0.647312 0.251613 0.00497879
0.647776 0.251259 0.125858
0.697437 0.250471 0.00536611
0.748386 0.245755 0.0184471
0.798595 0.246047 0.0168092
0.848675 0.24647 0.0153472
0.898665 0.24683 0.013716
0.948831 0.247291 0.0128525
0.998835 0.247868 0.011386
0.0488597 0.298356 0.00966748
0.0995595 0.298751 0.00733263
0.148056 0.30436 0.117622
0.198053 0.303851 0.117236
0.247757 0.303619 0.118024
0.298043 0.303427 0.118904
0.347833 0.302784 0.119655
0.398103 0.302875 0.1204
0.447845 0.302425 0.121798
0.447549 0.30281 -6.47591e-04
0.498162 0.302398 0.121886
0.497584 0.302565 1.00009
0.597421 0.302094 0.00253406
0.597882 0.301989 0.124098
0.64725 0.301123 0.00287899
0.69775 0.301025 0.00539736
0.748187 0.295352 0.0172485
0.798513 0.2959 0.0161568
0.848753 0.296605 0.0144737
0.89875 0.296899 0.0135359
0.948554 0.297552 0.0119026
0.999005 0.297706 0.0108628
0.0489215 0.348423 0.00877125
0.0989359 0.349041 0.0065387
0.147968 0.35403 0.115754
0.197688 0.353872 0.116734
0.247905 0.353723 0.117458
0.297962 0.353203 0.118062
0.348055 0.35311 0.118664
0.39784 0.352577 0.120048
0.448047 0.35262 0.120883
0.497735 0.352199 0.121767
0.547903 0.352114 0.122583
0.59767 0.351874 0.123623
0.597312 0.352043 0.00147845
0.647342 0.351666 0.00316426
0.647721 0.351046 0.124522
0.697547 0.35062 0.00421724
0.748242 0.345658 0.01691
0.798398 0.346134 0.0157531
0.848611 0.34657 0.0140487
0.898655 0.347118 0.0133483
0.948759 0.347572 0.0116205
0.998644 0.34785 0.0100378
0.0487341 0.398423 0.00847223
0.0994139 0.398878 0.00643234
0.147809 0.404299 0.116667
0.198031 0.40409 0.115873
0.247857 0.403354 0.116517
0.297838 0.403338 0.11775
0.347911 0.402855 0.118038
0.398164 0.40288 0.119256
0.447733 0.402505 0.12061
0.497895 0.402205 0.121022
0.547712 0.402016 0.121817
0.597709 0.401853 0.1228
0.64732 0.401189 0.00219809
0.697617 0.401084 0.0037856
0.748042 0.395349 0.0159504
0.79856 0.395941 0.015214
0.848374 0.39665 0.0140356
0.898666 0.397083 0.0126943
0.948669 0.397504 0.0109265
0.998969 0.397923 0.00943266
0.04868 0.448439 0.00764851
0.0988064 0.449115 0.00523684
0.147819 0.454124 0.11473
0.197766 0.453707 0.114759
0.247864 0.453608 0.115946
0.297878 0.45315 0.11696
0.348085 0.453003 0.117646
0.397907 0.452822 0.119007
0.447843 0.452649 0.11985
0.497601 0.452335 0.121029
0.547794 0.452054 0.121491
0.597826 0.451806 0.122157
0.597268 0.451893 1.00051
0.647262 0.451792 0.00232186
0.697301 0.450615 0.00295018
0.748106 0.445575 0.0156694
0.798283 0.445981 0.0143669
0.848517 0.446569 0.0129116
0.898429 0.447178 0.0115097
0.948561 0.447617 0.0102497
0.998645 0.448127 0.00937681
0.0485608 0.498474 0.00763436
0.0994034 0.498847 0.00534357
0.09816 0.498759 0.125753
0.747856 0.495477 0.0150819
0.798233 0.496153 0.0140575
0.848223 0.49678 0.0125963
0.898474 0.497045 0.0112145
0.948259 0.49774 0.00957673
0.998677 0.497831 0.00850002
0.147877 0.50421 0.115523
0.197918 0.503665 0.114354
0.247749 0.50347 0.11573
0.297781 0.50319 0.115926
0.347767 0.502768 0.117452
0.397837 0.5028 0.118134
0.447636 0.502487 0.119204
0.497726 0.502604 0.119971
0.547586 0.50211 0.120817
0.597793 0.502047 0.121727
0.597607 0.502242 0.999909
0.647665 0.50142 0.123101
0.697555 0.5011 0.00278535
0.698096 0.500204 0.123888
0.0485361 0.548429 0.00654086
0.098818 0.549016 0.00459039
0.0985201 0.549131 0.126135
0.14789 0.553912 0.113436
0.197637 0.553578 0.114156
0.247801 0.553492 0.114986
0.297748 0.553082 0.115629
0.347721 0.552912 0.116271
0.397452 0.55262 0.117756
0.44772 0.552596 0.118357
0.497518 0.552406 0.119753
0.54753 0.552372 0.120186
0.597445 0.551926 0.121456
0.647606 0.551355 0.122386
0.647304 0.551892 0.00148644
0.697522 0.550669 0.00166997
0.748029 0.545795 0.0148496
0.798274 0.546341 0.0134018
0.848542 0.546512 0.0119309
0.898352 0.547358 0.0104613
0.948693 0.547424 0.00926963
0.998566 0.548076 0.00839947
0.0484961 0.598275 0.0055701
0.0990619 0.598681 0.0037802
0.0979888 0.598804 0.124745
0.147524 0.603965 0.114056
0.197663 0.603613 0.113258
0.247547 0.603246 0.114787
0.297607 0.603201 0.115205
0.347265 0.602812 0.116632
0.397533 0.60298 0.117666
0.447409 0.602608 0.118141
0.49757 0.602508 0.119153
0.547321 0.602339 0.120381
0.597373 0.60205 0.120792
0.597358 0.602532 0.999372
0.646993 0.601399 1.18656e-04
0.697426 0.601032 0.00175181
0.698047 0.60033 0.122904
0.748078 0.59578 0.0135201
0.798349 0.596386 0.0130329
0.848184 0.597015 0.0112606
0.898367 0.597249 0.00993679
0.948367 0.59778 0.0082304
0.998817 0.597896 0.00695992
0.0486425 0.648347 0.00437874
0.0986686 0.648821 1.00305
0.147598 0.653473 0.112076
0.197219 0.653457 0.113367
0.247501 0.653252 0.114157
0.297199 0.652951 0.115082
0.347159 0.652986 0.116042
0.397119 0.652894 0.116788
0.447328 0.652703 0.117521
0.497024 0.652433 0.118873
0.547007 0.652201 0.119726
0.597096 0.652126 0.120682
0.647341 0.651578 0.122071
0.647153 0.652025 0.00114393
0.697774 0.650656 0.123451
0.697611 0.650301 1.00068
0.748532 0.645961 0.0136914
0.798392 0.646589 0.0121126
0.848392 0.647097 0.0104675
0.898383 0.647185 0.00885538
0.948394 0.647412 0.00773931
0.998447 0.647878 0.00677539
0.0487351 0.69892 0.00266149
0.0979431 0.69882 0.124036
0.0992573 0.698774 0.00283418
0.14774 0.703588 0.112476
0.197151 0.703203 0.114008
0.247278 0.703071 0.114155
0.296988 0.702951 0.115874
0.347124 0.702893 0.11595
0.396684 0.702966 0.118046
0.446944 0.702643 0.117826
0.496831 0.702395 0.120101
0.547134 0.702426 0.119499
0.596555 0.701975 0.12215
0.597213 0.702252 0.999037
0.647433 0.702385 0.122237
0.646594 0.701654 1.00095
0.698387 0.699523 0.123732
0.697671 0.699857 0.00355084
0.747839 0.696849 0.0112264
0.798998 0.696851 0.0104461
0.848933 0.697733 0.00929122
0.898912 0.697529 0.00780154
0.948773 0.697947 0.00647207
0.948833 0.697271 0.127574
0.999045 0.697941 0.00454828
0.00399089 0.746978 0.114452
0.054335 0.746908 0.113452
0.103206 0.751155 0.125204
0.152148 0.752202 0.00394764
0.202438 0.75175 0.00455081
0.25202 0.752481 0.00551351
0.302388 0.751888 0.00707454
0.351921 0.751942 0.00740452
0.402535 0.75122 0.00828938
0.45213 0.751501 0.00986357
0.502649 0.750829 0.0106857
0.552274 0.751146 0.0114415
0.602988 0.750567 0.0125937
0.652887 0.751943 0.0140217
0.703704 0.746325 0.123022
0.704339 0.747054 1.00072
0.754211 0.745965 -9.14038e-05
0.754684 0.745858 0.12284
0.804057 0.746126 0.119918
0.85433 0.746285 0.119256
0.904212 0.74652 0.11678
0.954346 0.746706 0.116757
0.00376652 0.796601 0.115189
0.0539497 0.796409 0.114751
0.102494 0.801536 0.00521044
0.103623 0.801696 0.124786
0.152954 0.802429 0.00632277
0.202556 0.802619 0.00709864
0.252797 0.802543 0.00784994
0.302765 0.802569 0.00926443
0.3528 0.802161 0.00964341
0.402844 0.802044 0.0108132
0.452906 0.801601 0.0122619
0.502697 0.801565 0.0127159
0.553055 0.801371 0.0142573
0.603081 0.801389 0.0151049
0.653582 0.802045 0.0158116
0.704184 0.796243 1.00331
0.754278 0.796402 6.12277e-04
0.75404 0.796188 0.122987
0.803895 0.795812 0.121538
0.80414 0.795911 0.999366
0.854206 0.796335 0.119636
0.903914 0.79634 0.118487
0.95405 0.796693 0.11678
0.00382814 0.846721 0.116865
0.0538998 0.84677 0.115671
0.103253 0.851666 0.00669312
0.152936 0.852566 0.00837976
0.203321 0.852484 0.00899579
0.253063 0.852621 0.010335
0.303417 0.85239 0.0109813
0.353178 0.852242 0.0118121
0.403576 0.85183 0.0123353
0.453194 0.85182 0.0138655
0.503491 0.851323 0.0144416
0.553136 0.851474 0.0166451
0.603448 0.851391 0.0169325
0.653484 0.851887 0.0179459
0.704154 0.846823 0.00363646
0.754275 0.845938 0.002863
0.753843 0.846291 0.124063
0.804131 0.846046 0.00122691
0.853544 0.84611 0.121474
0.903882 0.846617 0.119768
0.95376 0.846585 0.118473
0.00347001 0.896739 0.11936
0.0533307 0.896183 0.118475
0.102394 0.902444 0.00932569
0.153367 0.902637 0.0100047
0.203578 0.902905 0.010669
0.253977 0.902687 0.0118608
0.303834 0.902526 0.0128672
0.35386 0.902325 0.0135247
0.404024 0.902214 0.0142672
0.453864 0.901874 0.0155537
0.503643 0.901721 0.0164425
0.553673 0.901389 0.0177299
0.60334 0.901622 0.0185331
0.653812 0.901915 0.019095
0.703738 0.89639 0.00540905
0.754222 0.895952 0.00437586
0.803489 0.896002 0.00249417
0.853911 0.895825 0.00228478
0.853405 0.896379 0.123045
0.903261 0.896272 0.122281
0.903408 0.896107 0.999894
0.953599 0.896653 0.120573
0.953717 0.896308 0.999287
0.00281952 0.947309 0.121293
0.00331139 0.946757 -6.5457e-05
0.0532095 0.946423 0.121926
0.10196 0.952046 0.0135506
0.154297 0.953268 0.0113767
0.204281 0.952913 0.0130163
0.254366 0.953196 0.0130075
0.304349 0.952836 0.0142291
0.354509 0.952849 0.0142211
0.404499 0.952298 0.016047
0.454468 0.952445 0.0163729
0.504022 0.9519 0.0182825
0.55414 0.952064 0.0186936
0.603732 0.951805 0.0193067
0.654042 0.95177 0.0205206
0.703716 0.947021 0.00510587
0.75362 0.946138 0.00688552
0.803306 0.946012 0.00538726
0.85305 0.946219 0.00360762
0.903171 0.946407 0.00252314
0.902658 0.946838 0.123827
0.952819 0.946614 0.122774
0.0479394 0.997496 0.0129355
0.0989793 0.998688 0.0121782
0.697411 1.00077 0.00853643
0.748219 0.996256 0.0201757
0.797906 0.996449 0.0188207
0.848061 0.996699 0.0178393
0.897654 0.996686 0.0159231
0.94787 0.99697 0.0147361
0.997679 0.997244 0.0132106
0.0980817 0.998532 0.133046
0.148639 0.0040315 0.243518
0.199368 0.00335139 0.243096
0.249145 0.00322495 0.243873
0.299223 0.00322388 0.123924
0.299501 0.00296622 0.244197
0.349202 0.00269833 0.245666
0.399346 0.00285321 0.125177
0.399677 0.002791 0.245865
0.449316 0.00248407 0.126233
0.44926 0.00235718 0.247769
0.549426 0.00222495 0.128078
0.549092 0.00224647 0.249677
0.598789 0.0022877 0.129499
0.599212 0.00162375 0.24952
0.648857 0.00150373 0.130171
0.64887 0.00169871 0.25059
0.0482855 0.0474696 0.133047
0.0990078 0.0486493 0.132292
0.148475 0.0542466 0.241771
0.198184 0.0534598 0.241658
0.248655 0.0534238 0.242209
0.298565 0.0530185 0.243787
0.348983 0.0528677 0.244657
0.398765 0.0528313 0.24583
0.448833 0.052864 0.124758
0.448834 0.0527309 0.246098
0.498728 0.0525505 0.125925
0.498632 0.0522457 0.247131
0.548446 0.0524013 0.127122
0.548751 0.0521843 0.248207
0.598536 0.0523187 0.127741
0.648086 0.0515229 0.128598
0.648284 0.0517562 0.250188
0.698198 0.0510628 0.130263
0.698536 0.0504097 0.250974
0.747693 0.0455921 0.140075
0.797972 0.0464495 0.14084
0.847963 0.0464969 0.139034
0.898106 0.0468252 0.13749
0.947988 0.0470306 0.136196
0.998201 0.0470376 0.135051
0.0483898 0.0975984 0.132956
0.0982671 0.0983114 0.130573
0.148073 0.103666 0.240774
0.198191 0.103547 0.240891
0.248311 0.10318 0.241176
0.298464 0.103151 0.242222
0.348456 0.102893 0.243107
0.398652 0.102916 0.244734
0.448164 0.102613 0.124274
0.448464 0.1026 0.245582
0.498345 0.10273 0.124968
0.498572 0.102521 0.246638
0.547793 0.102266 0.126271
0.548179 0.101824 0.24758
0.598152 0.102111 0.126939
0.598223 0.101975 0.248657
0.648149 0.101751 0.128524
0.648131 0.101242 0.249119
0.698408 0.100542 0.129206
0.698067 0.100615 0.251139
0.747865 0.0959259 0.141142
0.798026 0.0961427 0.139989
0.848209 0.0964574 0.138481
0.898251 0.0968475 0.137387
0.948294 0.0969675 0.136326
0.99837 0.0972292 0.134573
0.0485934 0.147683 0.132662
0.0986508 0.148645 0.130626
0.0982796 0.148433 0.251125
0.14802 0.154433 0.240616
0.197938 0.153575 0.240531
0.248173 0.153486 0.241671
0.298066 0.152978 0.241696
0.348357 0.15293 0.242884
0.398387 0.152751 0.243864
0.448487 0.152692 0.244922
0.498095 0.152492 0.124339
0.498417 0.152377 0.245746
0.548118 0.152362 0.125087
0.548283 0.151988 0.246853
0.598035 0.151789 0.126099
0.598228 0.151716 0.247521
0.647739 0.151438 0.127684
0.648294 0.151579 0.248373
0.698014 0.15089 0.128988
0.698209 0.150674 0.249883
0.747853 0.145396 0.139234
0.798224 0.146126 0.139565
0.848222 0.146508 0.137636
0.898362 0.1468 0.136707
0.948387 0.14715 0.135209
0.998588 0.14743 0.134063
0.048467 0.197992 0.13189
0.0984605 0.198651 0.129779
0.147969 0.203805 0.238983
0.198121 0.203753 0.239653
0.24826 0.20339 0.240455
0.298216 0.203218 0.24131
0.348053 0.203021 0.242629
0.398149 0.202794 0.243333
0.448088 0.2025 0.244346
0.498175 0.2023 0.244902
0.547617 0.202063 0.124936
0.548014 0.201796 0.246145
0.59803 0.201907 0.125789
0.598087 0.201794 0.247029
0.647649 0.201543 0.12681
0.648101 0.201124 0.247666
0.698181 0.200267 0.127715
0.747962 0.195544 0.13974
0.79824 0.195804 0.138795
0.848539 0.196201 0.137527
0.898584 0.196766 0.136101
0.948634 0.197102 0.135387
0.998736 0.197319 0.133242
0.0486664 0.247854 0.131707
0.0985607 0.248928 0.129294
0.147975 0.254454 0.239862
0.197803 0.253697 0.23874
0.24805 0.253401 0.239499
0.298204 0.253143 0.240104
0.348111 0.252841 0.241616
0.398079 0.252577 0.242069
0.44821 0.252507 0.243655
0.498111 0.252093 0.244541
0.548285 0.252106 0.245676
0.597619 0.251667 0.125097
0.598232 0.251844 0.246465
0.647978 0.251333 0.247563
0.698076 0.250721 0.127992
0.748032 0.245014 0.138135
0.79847 0.245913 0.138731
0.848276 0.246388 0.136446
0.898517 0.246725 0.135613
0.948524 0.24702 0.134038
0.998601 0.24744 0.132894
0.04841 0.298171 0.131032
0.0983782 0.298709 0.128695
0.147714 0.304169 0.23829
0.197907 0.303909 0.238753
0.248159 0.303353 0.23914
0.298161 0.303077 0.24073
0.34807 0.302803 0.241025
0.398129 0.302494 0.24161
0.44831 0.302273 0.242647
0.498057 0.302101 0.243858
0.547662 0.301767 0.123149
0.547941 0.301952 0.244517
0.598103 0.301885 0.245569
0.647597 0.301295 0.125405
0.647927 0.300975 0.246471
0.698123 0.3003 0.126374
0.748082 0.29532 0.138461
0.798313 0.295753 0.137557
0.848449 0.296444 0.136412
0.898422 0.296639 0.134299
0.948457 0.297119 0.133776
0.998478 0.297597 0.132696
0.0484692 0.34801 0.130425
0.0983383 0.348898 0.128039
0.0979382 0.348602 0.248478
0.147865 0.354298 0.238042
0.197818 0.353713 0.237854
0.248014 0.35349 0.239064
0.298048 0.353141 0.2394
0.348067 0.352741 0.240023
0.397896 0.352706 0.241669
0.448105 0.352384 0.24249
0.498123 0.352172 0.242757
0.547985 0.352102 0.244408
0.597954 0.351691 0.245324
0.647942 0.351257 0.246317
0.697854 0.350481 0.126681
0.698298 0.350186 0.247014
0.74781 0.345137 0.136862
0.798116 0.34578 0.137463
0.848287 0.346101 0.135763
0.89852 0.34655 0.134858
0.948372 0.347141 0.133146
0.998358 0.347637 0.131145
0.0484146 0.398139 0.129907
0.0480786 0.397846 0.250502
0.0983045 0.398699 0.127492
0.0982532 0.398794 0.249533
0.147834 0.403981 0.236944
0.197883 0.403893 0.237023
0.248039 0.403454 0.238199
0.298128 0.403017 0.23834
0.348081 0.402728 0.239948
0.398001 0.402516 0.240444
0.448117 0.402313 0.241665
0.498004 0.402276 0.242776
0.547906 0.401924 0.243836
0.598156 0.401776 0.244667
0.64765 0.401214 0.124048
0.64798 0.401073 0.24507
0.697992 0.400273 0.125107
0.697997 0.400658 0.246975
0.747997 0.395256 0.137595
0.797923 0.395837 0.13668
0.848286 0.396349 0.13594
0.898243 0.396713 0.133539
0.948359 0.397236 0.132438
0.998475 0.397622 0.131064
0.0485024 0.447929 0.128911
0.0477826 0.448159 0.250141
0.0983259 0.448959 0.127356
0.0981558 0.448675 0.24783
0.197752 0.4536 0.236618
0.247925 0.453401 0.237396
0.29805 0.453291 0.237879
0.348034 0.452968 0.239141
0.398033 0.452584 0.240009
0.448047 0.452567 0.241117
0.498276 0.452236 0.242055
0.548304 0.451988 0.243156
0.59789 0.451579 0.243601
0.647624 0.451401 0.123658
0.647986 0.45131 0.244943
0.697815 0.450576 0.125552
0.69813 0.450345 0.245903
0.747594 0.445135 0.13586
0.798056 0.445578 0.136043
0.848205 0.446277 0.134812
0.898244 0.446737 0.133087
0.948326 0.447117 0.13207
0.998299 0.44746 0.130414
0.997848 0.447265 0.251072
0.0476826 0.49796 0.249424
0.0483206 0.498233 0.128609
0.0981482 0.498803 0.248088
0.147654 0.454371 0.237318
0.747862 0.495461 0.136121
0.797944 0.495672 0.135076
0.847939 0.496408 0.133864
0.897998 0.496647 0.132527
0.948146 0.497043 0.131032
0.998217 0.497668 0.130028
0.14786 0.504024 0.235908
0.197991 0.503541 0.236081
0.247767 0.503287 0.236959
0.297782 0.503113 0.23718
0.347917 0.503016 0.238502
0.397863 0.502748 0.239538
0.447867 0.502394 0.240627
0.49775 0.502231 0.24148
0.548218 0.502021 0.241785
0.5982 0.501788 0.242639
0.647894 0.50118 0.243787
0.697864 0.500817 0.246118
0.747957 0.545084 0.135016
0.0484045 0.5481 0.127513
0.0480613 0.547918 0.249053
0.098086 0.548595 0.246802
0.147784 0.554129 0.236022
0.197728 0.553553 0.23529
0.247628 0.553244 0.236426
0.297827 0.552906 0.2368
0.347686 0.552803 0.238222
0.397748 0.552634 0.238867
0.447829 0.552516 0.24008
0.497767 0.552229 0.240787
0.547922 0.552159 0.241693
0.598012 0.551858 0.242229
0.648065 0.551833 0.244037
0.69772 0.550826 0.124012
0.698268 0.550631 0.24442
0.798039 0.545909 0.134851
0.848069 0.546414 0.133208
0.898165 0.546762 0.131909
0.948014 0.547352 0.13067
0.998172 0.54765 0.128802
0.997875 0.547304 0.249508
0.0481059 0.598214 0.127422
0.0477833 0.597735 0.248107
0.0980432 0.598834 0.246735
0.147607 0.603824 0.234765
0.19789 0.603464 0.23499
0.247866 0.603213 0.235552
0.297736 0.602945 0.236593
0.347581 0.602838 0.237845
0.397538 0.602719 0.238444
0.447363 0.602246 0.239199
0.497423 0.60248 0.241089
0.547488 0.602069 0.2414
0.597644 0.601854 0.241822
0.647572 0.601841 0.122224
0.647935 0.601618 0.242971
0.698098 0.600946 0.244752
0.748078 0.595367 0.134619
0.798049 0.595913 0.134126
0.848171 0.596514 0.13331
0.897995 0.596955 0.130859
0.948197 0.597207 0.130285
0.998174 0.597821 0.12857
0.997732 0.597408 0.249371
0.0481696 0.647961 0.125863
0.0479223 0.647648 0.247272
0.0982802 0.648642 0.124871
0.0979227 0.648481 0.245654
0.147718 0.65395 0.23475
0.197752 0.653381 0.23443
0.247555 0.653316 0.235326
0.297388 0.653183 0.235959
0.347353 0.653066 0.237377
0.397089 0.652791 0.238248
0.447198 0.652611 0.23932
0.497275 0.652222 0.240337
0.547429 0.652285 0.241025
0.597459 0.651972 0.24204
0.64764 0.652104 0.243398
0.698656 0.650275 0.242681
0.748341 0.645217 0.13346
0.798048 0.646212 0.133134
0.848389 0.646596 0.131775
0.898242 0.646949 0.130018
0.898186 0.646662 0.251607
0.948336 0.647146 0.129096
0.998294 0.647533 0.127701
0.0486467 0.698018 0.125049
0.048744 0.697734 0.246634
0.0984294 0.699232 0.247915
0.147279 0.703547 0.234864
0.197346 0.703446 0.235057
0.246947 0.703339 0.235764
0.297363 0.703311 0.236277
0.346744 0.703057 0.238456
0.397103 0.702974 0.238779
0.446657 0.702444 0.239667
0.497059 0.702435 0.240195
0.546806 0.702333 0.242107
0.597124 0.702259 0.242113
0.646502 0.702111 0.244622
0.697043 0.699807 0.245651
0.748354 0.695346 0.132532
0.798903 0.696469 0.131937
0.848724 0.696561 0.13022
0.89879 0.697012 0.129103
0.898768 0.696716 0.249855
0.949029 0.697064 0.248762
0.999103 0.697373 0.126305
0.998709 0.69725 0.247329
0.00429483 0.74687 0.235999
0.0537928 0.746827 0.235458
0.103579 0.751316 0.245886
0.152438 0.752754 0.124645
0.152992 0.75285 0.246229
0.20247 0.752949 0.125569
0.202516 0.752921 0.247857
0.252288 0.752524 0.126966
0.252681 0.753083 0.247754
0.302376 0.752587 0.127721
0.352189 0.752357 0.128899
0.352502 0.752848 0.249881
0.402307 0.752309 0.129744
0.452142 0.75209 0.131097
0.502487 0.751874 0.13183
0.552593 0.751854 0.133116
0.60299 0.751781 0.133666
0.654116 0.751751 0.133721
0.704338 0.74706 0.24375
0.754214 0.745992 0.242816
0.804606 0.746072 0.242347
0.854056 0.746164 0.240055
0.904524 0.746459 0.238798
0.953902 0.746652 0.237275
0.00387886 0.796791 0.236617
0.0537716 0.796855 0.23537
0.103199 0.801826 0.247854
0.153372 0.80259 0.127203
0.153319 0.80299 0.248444
0.203084 0.80297 0.128696
0.203417 0.80307 0.249365
0.253204 0.802835 0.129148
0.253204 0.803133 0.250418
0.302962 0.802604 0.130482
0.353239 0.802514 0.130884
0.403166 0.802244 0.132076
0.453142 0.802034 0.133438
0.503254 0.80179 0.134509
0.553353 0.801769 0.13532
0.603324 0.801831 0.136273
0.653823 0.802076 0.136992
0.70353 0.796983 0.123936
0.703764 0.796854 0.246329
0.753878 0.796572 0.243479
0.804009 0.796391 0.24256
0.854197 0.796441 0.240842
0.904023 0.796569 0.239336
0.953938 0.796715 0.238055
0.00392921 0.84677 0.237837
0.0538618 0.846519 0.237791
0.103224 0.851629 0.128519
0.103835 0.852111 0.248249
0.153525 0.852865 0.129582
0.154064 0.852903 0.250507
0.203579 0.852891 0.130969
0.253602 0.852644 0.131703
0.253918 0.853165 0.252209
0.303552 0.852745 0.132801
0.353496 0.852407 0.13331
0.403351 0.852283 0.134384
0.453641 0.851964 0.13515
0.503748 0.851661 0.13577
0.553553 0.851759 0.137404
0.603734 0.851712 0.138517
0.653962 0.852335 0.138097
0.703914 0.846948 0.126269
0.70349 0.847164 0.246879
0.753706 0.84649 0.245569
0.803851 0.846407 0.122843
0.803681 0.846477 0.244103
0.853623 0.846335 0.242259
0.903663 0.84669 0.240975
0.953804 0.846714 0.23947
0.00358444 0.896779 0.239978
0.0540051 0.896771 0.238969
0.103957 0.901865 0.129329
0.153905 0.903097 0.130547
0.203868 0.903115 0.13199
0.254168 0.903028 0.13319
0.304274 0.902987 0.133642
0.354268 0.902811 0.134645
0.404204 0.902422 0.136096
0.454198 0.902177 0.136426
0.503804 0.902139 0.138089
0.553935 0.901902 0.138329
0.603696 0.901863 0.140094
0.65365 0.902162 0.140915
0.70353 0.89723 0.127386
0.753698 0.89626 0.126337
0.753495 0.89646 0.247526
0.803492 0.895984 0.124914
0.80341 0.896404 0.245718
0.853507 0.896461 0.244796
0.903203 0.896457 0.242947
0.953613 0.896752 0.24135
0.00293192 0.946688 0.24328
0.0535735 0.946736 0.242209
0.103723 0.951583 0.131563
0.154224 0.953499 0.133267
0.20498 0.953215 0.132384
0.254587 0.953111 0.134086
0.304916 0.953114 0.134048
0.354566 0.952808 0.135824
0.404875 0.952754 0.13627
0.454398 0.95258 0.137728
0.50471 0.952558 0.137916
0.554053 0.952254 0.139863
0.604272 0.952226 0.13995
0.653679 0.952222 0.140765
0.703749 0.947766 0.127993
0.70319 0.947737 0.248027
0.753112 0.946562 0.127383
0.752745 0.946688 0.248714
0.803007 0.946693 0.126892
0.802789 0.946122 0.248328
0.852966 0.946405 0.126243
0.852539 0.94677 0.246195
0.902689 0.946672 0.246003
0.952473 0.94714 0.242499
0.0472064 0.996992 0.132346
0.698665 2.02073e-04 0.128405
0.747552 0.995811 0.140348
0.797654 0.996306 0.139527
0.847475 0.996382 0.138306
0.897505 0.996662 0.137506
0.94723 0.996736 0.135234
0.997827 0.996745 0.134885
0.0980244 0.998469 0.253696
0.147654 0.00300376 0.364341
0.198838 0.00312984 0.364152
0.249422 0.00299256 0.364504
0.299352 0.00269196 0.366127
0.349758 0.00231997 0.366171
0.399615 0.00255153 0.367599
0.449718 0.00192868 0.368309
0.499573 0.00231708 0.247826
0.49953 0.00216488 0.369707
0.549711 0.00176912 0.370494
0.599225 0.00193178 0.371583
0.649137 0.00124783 0.37235
0.0478055 0.0476471 0.254074
0.097935 0.0481212 0.252155
0.0982893 0.0482068 0.373599
0.148395 0.0533567 0.361584
0.198649 0.0531417 0.3622
0.248748 0.0527546 0.363134
0.298981 0.0528011 0.364102
0.348913 0.052411 0.365323
0.398909 0.0524818 0.366412
0.448815 0.0521548 0.367317
0.498953 0.0519538 0.368134
0.548998 0.0519977 0.369413
0.59842 0.0519295 0.248843
0.599029 0.0515271 0.369768
0.648647 0.0511359 0.371501
0.698361 0.0502937 0.373641
0.747877 0.0456535 0.262287
0.797507 0.0458412 0.261044
0.847474 0.046378 0.260454
0.897595 0.0463678 0.258412
0.947596 0.0468904 0.257273
0.997855 0.0469003 0.255447
0.0480777 0.0972991 0.253741
0.0984135 0.0987068 0.2527
0.0981954 0.0979615 0.372889
0.147835 0.103709 0.362204
0.198401 0.103133 0.361419
0.248378 0.102858 0.362379
0.298593 0.102588 0.362916
0.348668 0.102448 0.364354
0.398716 0.102448 0.365444
0.448703 0.102078 0.366182
0.498841 0.101913 0.367117
0.54865 0.101744 0.368551
0.598701 0.101505 0.369121
0.648515 0.101335 0.370419
0.698469 0.0999951 0.371156
0.747786 0.0951844 0.261124
0.79777 0.095767 0.260613
0.847906 0.0960873 0.25964
0.897866 0.096493 0.258032
0.947935 0.0968238 0.256925
0.997984 0.0972296 0.255543
0.0482027 0.14772 0.253945
0.0478151 0.14754 0.374327
0.0986285 0.148409 0.373391
0.148104 0.153629 0.360455
0.198208 0.153499 0.36114
0.248387 0.153084 0.361816
0.298469 0.152738 0.362995
0.348463 0.152548 0.364013
0.398489 0.152479 0.364966
0.448348 0.152149 0.366217
0.498394 0.151922 0.36653
0.548546 0.151882 0.368002
0.598625 0.151448 0.368248
0.648566 0.150956 0.369522
0.698373 0.150462 0.371812
0.747777 0.145527 0.261295
0.798164 0.145527 0.260269
0.847996 0.146202 0.259525
0.897999 0.146315 0.257324
0.948163 0.146818 0.256339
0.998307 0.147132 0.255142
0.0482427 0.19757 0.252831
0.0984312 0.198871 0.251487
0.0980358 0.198399 0.371864
0.14813 0.204131 0.361008
0.198312 0.203445 0.360235
0.248343 0.203168 0.361719
0.298415 0.202964 0.362565
0.348392 0.202431 0.363877
0.398447 0.202452 0.364405
0.448637 0.202266 0.365695
0.49849 0.201982 0.3666
0.54849 0.201696 0.367252
0.598523 0.201394 0.367884
0.648498 0.201081 0.368796
0.698032 0.200838 0.249579
0.698387 0.20014 0.370447
0.747957 0.194922 0.259835
0.797956 0.195776 0.259534
0.848016 0.196099 0.258231
0.898207 0.196495 0.257355
0.948401 0.196663 0.256012
0.998281 0.197295 0.254608
0.998094 0.197204 0.376019
0.04808 0.247979 0.25283
0.0981338 0.248494 0.25007
0.0981753 0.24886 0.371548
0.14811 0.253931 0.359802
0.198171 0.253434 0.36008
0.248361 0.253054 0.360293
0.298239 0.252803 0.361614
0.348491 0.252602 0.362852
0.398364 0.252403 0.363751
0.448439 0.252126 0.36468
0.498507 0.251928 0.365665
0.548384 0.251685 0.366502
0.598411 0.251552 0.367687
0.648367 0.250747 0.368034
0.698331 0.250618 0.247946
0.698223 0.250348 0.369793
0.747913 0.245446 0.260131
0.798046 0.245679 0.259134
0.848157 0.246177 0.258204
0.898092 0.246487 0.256662
0.948253 0.246796 0.255653
0.9982 0.247253 0.254008
0.0481168 0.297795 0.251965
0.047973 0.297907 0.373769
0.0981898 0.298889 0.250311
0.0980353 0.298645 0.371216
0.147827 0.304239 0.359943
0.198084 0.303463 0.359536
0.248242 0.303137 0.36032
0.298286 0.302805 0.361573
0.348442 0.302454 0.362332
0.398384 0.302515 0.362631
0.448329 0.302157 0.363574
0.498441 0.301901 0.364787
0.548381 0.301701 0.365933
0.598432 0.301517 0.366707
0.648507 0.301011 0.367835
0.698032 0.300753 0.248611
0.69848 0.300111 0.369048
0.747798 0.295082 0.25875
0.79801 0.295707 0.258984
0.848039 0.295995 0.256939
0.898159 0.296556 0.256106
0.948232 0.296705 0.2549
0.998245 0.297335 0.253563
0.047858 0.348059 0.251405
0.0475417 0.34804 0.372499
0.0980308 0.348883 0.370889
0.148161 0.353996 0.35803
0.198037 0.353422 0.358464
0.248358 0.353134 0.3595
0.298391 0.352931 0.361227
0.348374 0.352549 0.361495
0.398475 0.352252 0.362484
0.448278 0.352099 0.363228
0.498153 0.351754 0.364093
0.548416 0.351888 0.365223
0.598464 0.351388 0.365885
0.648398 0.351021 0.36752
0.698274 0.350217 0.368898
0.748049 0.345355 0.258917
0.798016 0.345649 0.257911
0.848097 0.346146 0.256758
0.898112 0.346299 0.255458
0.948095 0.34705 0.254623
0.998187 0.347348 0.252593
0.997779 0.347244 0.374122
0.0475165 0.397915 0.372111
0.0978453 0.39851 0.370019
0.14771 0.40419 0.359062
0.198046 0.403565 0.358208
0.248372 0.403158 0.358722
0.298359 0.40295 0.359368
0.34835 0.402608 0.360601
0.398267 0.402416 0.361908
0.44831 0.402239 0.362881
0.498342 0.402015 0.363926
0.548275 0.401654 0.364302
0.59843 0.401523 0.365605
0.648394 0.401082 0.366366
0.698601 0.400022 0.367393
0.747816 0.394995 0.257664
0.797902 0.395603 0.257553
0.848127 0.395992 0.256623
0.897955 0.396474 0.255072
0.94787 0.3969 0.253639
0.998027 0.397405 0.252029
0.997777 0.397376 0.373377
0.0474315 0.44781 0.370974
0.0978807 0.448726 0.369441
0.147789 0.453942 0.35725
0.197995 0.453589 0.357685
0.248221 0.453149 0.358844
0.298129 0.452998 0.359229
0.348224 0.452632 0.360323
0.398145 0.452418 0.361284
0.448143 0.452184 0.361866
0.498365 0.45208 0.363551
0.548402 0.451843 0.364169
0.598523 0.451398 0.364787
0.648283 0.450947 0.366076
0.698329 0.450335 0.367745
0.747641 0.445416 0.258116
0.797872 0.445461 0.256587
0.847645 0.446201 0.255564
0.897787 0.446512 0.254136
0.94778 0.447122 0.253126
0.947674 0.446875 0.374064
0.997696 0.447115 0.372575
0.0476957 0.497859 0.370705
0.0980556 0.498342 0.368888
0.698448 0.500229 0.366154
0.747674 0.494976 0.256348
0.797892 0.495537 0.255983
0.847861 0.496129 0.254965
0.897833 0.49673 0.253675
0.947923 0.49675 0.251941
0.947782 0.496579 0.373472
0.997974 0.497487 0.251177
0.997655 0.49743 0.371998
0.147635 0.504016 0.357495
0.197993 0.503544 0.35722
0.248012 0.50318 0.358002
0.297986 0.502774 0.358894
0.347971 0.502425 0.359814
0.398118 0.502369 0.360867
0.448268 0.502201 0.361566
0.49837 0.501952 0.362564
0.548449 0.501821 0.362958
0.598663 0.501694 0.36443
0.648523 0.501315 0.365002
0.847661 0.54602 0.375632
0.0476276 0.547603 0.369937
0.0981682 0.548676 0.368813
0.14784 0.553663 0.355534
0.197802 0.553456 0.356504
0.248113 0.553199 0.357321
0.298014 0.552675 0.357738
0.347991 0.552366 0.359357
0.398035 0.552407 0.360382
0.448056 0.552254 0.360938
0.498121 0.551897 0.361835
0.5482 0.551668 0.362636
0.598374 0.551558 0.363186
0.648243 0.551274 0.364843
0.698283 0.550589 0.366142
0.747664 0.545407 0.256211
0.797915 0.545393 0.255684
0.847706 0.546062 0.254008
0.897751 0.546348 0.374351
0.89781 0.546516 0.252852
0.947862 0.546761 0.251443
0.947475 0.546788 0.373002
0.997721 0.547083 0.371487
0.047638 0.597636 0.369259
0.0977907 0.598227 0.366837
0.147695 0.603869 0.356563
0.198047 0.603276 0.355621
0.247992 0.602886 0.356644
0.297853 0.6027 0.357578
0.347784 0.602629 0.358578
0.397695 0.602389 0.359792
0.447742 0.60214 0.360729
0.49784 0.601906 0.361487
0.548015 0.60175 0.361921
0.598213 0.601733 0.362565
0.648268 0.601532 0.363915
0.698462 0.600552 0.365296
0.747941 0.594995 0.255106
0.798059 0.595777 0.255891
0.847939 0.596212 0.254131
0.897876 0.596687 0.252417
0.897691 0.596326 0.373719
0.947803 0.597028 0.251265
0.947985 0.596636 0.372307
0.997732 0.597076 0.370826
0.0480848 0.647305 0.368419
0.0982303 0.648572 0.367138
0.147829 0.653342 0.355064
0.19787 0.653044 0.35544
0.247731 0.653168 0.356522
0.297585 0.652794 0.357486
0.347441 0.652638 0.358277
0.397608 0.652438 0.359109
0.447471 0.652352 0.360323
0.49735 0.652109 0.361271
0.547518 0.651929 0.361668
0.597515 0.651729 0.36336
0.647883 0.651603 0.363602
0.697838 0.650986 0.365965
0.748043 0.645537 0.25488
0.798032 0.645783 0.254219
0.848069 0.646352 0.252424
0.898173 0.646375 0.372483
0.947919 0.646932 0.249843
0.948058 0.646565 0.371323
0.998304 0.646899 0.248625
0.997888 0.646995 0.369735
0.0485111 0.697456 0.36754
0.0981434 0.699162 0.36687
0.147796 0.703569 0.355891
0.197394 0.703289 0.356483
0.247526 0.703188 0.356556
0.29697 0.703151 0.358431
0.347069 0.702743 0.358429
0.396804 0.702456 0.360527
0.447356 0.702243 0.360028
0.496922 0.702459 0.362291
0.547219 0.702291 0.361911
0.596925 0.701824 0.363459
0.647537 0.702337 0.363504
0.697455 0.700705 0.36472
0.748203 0.695724 0.25307
0.798449 0.696039 0.252511
0.799061 0.696189 0.373991
0.848805 0.696386 0.251945
0.84856 0.696188 0.372494
0.898753 0.696885 0.371409
0.948576 0.696782 0.369571
0.998728 0.697277 0.368331
0.00374857 0.747029 0.356777
0.0539768 0.746905 0.356529
0.102969 0.751627 0.368713
0.152807 0.752764 0.367621
0.20282 0.75315 0.368278
0.252418 0.752964 0.36941
0.302334 0.752801 0.249298
0.302612 0.753009 0.369953
0.352246 0.752629 0.371526
0.402184 0.752401 0.251686
0.402406 0.752673 0.371412
0.452461 0.752175 0.25185
0.502323 0.752028 0.253404
0.502347 0.752591 0.373712
0.55276 0.752128 0.253553
0.602499 0.752236 0.254415
0.653045 0.753124 0.254127
0.704446 0.747494 0.364403
0.754822 0.746266 0.364182
0.804049 0.746261 0.361394
0.854307 0.74615 0.361745
0.90389 0.746676 0.359164
0.954264 0.746675 0.358918
0.00378417 0.797058 0.357622
0.0537644 0.796597 0.357127
0.103567 0.802316 0.36828
0.153673 0.803163 0.36928
0.203473 0.803235 0.370874
0.253359 0.803437 0.37182
0.303381 0.803133 0.25099
0.303186 0.803222 0.372795
0.353312 0.802981 0.252584
0.353201 0.803184 0.372927
0.40337 0.802754 0.252752
0.402988 0.803047 0.374402
0.453174 0.802482 0.254655
0.503417 0.80191 0.254981
0.553342 0.802212 0.2561
0.603721 0.802238 0.256895
0.653338 0.802854 0.25715
0.702864 0.797717 0.365882
0.753865 0.796664 0.364872
0.803933 0.796495 0.363253
0.854182 0.796685 0.361941
0.903879 0.796796 0.360399
0.953619 0.796964 0.358944
0.00369446 0.847019 0.359196
0.0539624 0.846889 0.358038
0.103726 0.852158 0.370344
0.154076 0.852947 0.371196
0.203891 0.853062 0.251235
0.203947 0.853456 0.37243
0.253977 0.853366 0.37366
0.303875 0.853116 0.253437
0.353851 0.853043 0.254337
0.403565 0.852633 0.255311
0.453642 0.852489 0.256076
0.503666 0.852272 0.256901
0.553701 0.852088 0.258149
0.603666 0.852141 0.259559
0.654034 0.852502 0.259498
0.703808 0.847303 0.369143
0.753438 0.846699 0.366684
0.803417 0.846603 0.364946
0.853419 0.846831 0.363219
0.903905 0.847077 0.361845
0.95356 0.847083 0.360381
0.00375763 0.897269 0.36094
0.0537005 0.896551 0.360363
0.103537 0.901655 0.251592
0.104247 0.902174 0.3711
0.154214 0.90328 0.251803
0.154374 0.903279 0.372487
0.2044 0.903336 0.252348
0.254514 0.903108 0.253723
0.254316 0.903497 0.3749
0.30454 0.903364 0.253972
0.354373 0.903083 0.255833
0.404357 0.902834 0.256358
0.454269 0.902486 0.257593
0.504155 0.902449 0.258406
0.554015 0.902118 0.259954
0.604088 0.902111 0.260549
0.654238 0.902753 0.260619
0.70393 0.897228 0.249535
0.703249 0.897637 0.37005
0.753167 0.896594 0.368579
0.803195 0.896465 0.367437
0.853241 0.896725 0.365856
0.903341 0.896866 0.364369
0.953473 0.897197 0.362115
0.00278524 0.94723 0.363176
0.0533577 0.946449 0.3629
0.104525 0.951676 0.251842
0.10317 0.950929 0.373783
0.155235 0.953579 0.251841
0.154504 0.953478 0.374466
0.204572 0.953497 0.254076
0.204912 0.953768 0.373598
0.254961 0.953567 0.254374
0.254596 0.953164 0.376917
0.304409 0.953392 0.256055
0.354933 0.953161 0.255924
0.404607 0.952712 0.257841
0.454923 0.952777 0.257496
0.504567 0.952556 0.259662
0.554531 0.952378 0.260186
0.604111 0.95203 0.261356
0.654236 0.952524 0.261472
0.703518 0.947891 0.371205
0.752981 0.946924 0.370655
0.802435 0.946749 0.369027
0.85251 0.946534 0.367863
0.902454 0.946904 0.366257
0.952743 0.947042 0.364765
0.0475172 0.996974 0.253985
0.0470953 0.996977 0.373039
0.0982621 0.997649 0.374264
0.698494 -1.78435e-04 0.372091
0.698043 1.00009 0.251567
0.74785 0.995857 0.262087
0.797392 0.995949 0.260181
0.847346 0.996158 0.259167
0.897133 0.99646 0.257975
0.947423 0.996573 0.256828
0.997019 0.996764 0.254836
0.0978971 0.99959 0.495607
0.149117 0.00312352 0.483486
0.198891 0.00189732 0.485105
0.249573 0.00240675 0.48621
0.29933 0.00186402 0.487145
0.349619 0.0017487 0.488065
0.399541 0.00147471 0.488739
0.449552 0.00147655 0.489425
0.49935 8.63878e-04 0.49087
0.549557 0.00121083 0.492059
0.59923 6.45765e-04 0.492998
0.649515 5.73897e-04 0.492915
0.747648 0.0454586 0.382634
0.0476516 0.0470647 0.374789
0.0476347 0.0473547 0.498125
0.0972525 0.0480019 0.49439
0.148568 0.0535129 0.483035
0.198713 0.0526186 0.483561
0.249132 0.0524819 0.484075
0.299096 0.0524076 0.485347
0.349183 0.0519945 0.486649
0.399154 0.0518917 0.488027
0.449301 0.0517718 0.488251
0.499435 0.0513506 0.489086
0.549052 0.0512859 0.489897
0.599106 0.0513996 0.491491
0.649001 0.0507583 0.492458
0.699255 0.0499696 0.49318
0.79798 0.0459836 0.382663
0.847706 0.0463157 0.381833
0.897627 0.0461974 0.379888
0.94743 0.0466679 0.37831
0.997703 0.0469086 0.376951
0.997744 0.046616 0.498406
0.0478542 0.097558 0.375838
0.0475914 0.0970393 0.49648
0.097721 0.0983161 0.495341
0.148561 0.1034 0.48171
0.198646 0.102812 0.483179
0.24869 0.102532 0.483814
0.298656 0.101983 0.485187
0.349044 0.102017 0.485701
0.398784 0.102053 0.487321
0.448939 0.101823 0.487955
0.498852 0.101406 0.488924
0.54891 0.101355 0.489784
0.598794 0.101038 0.490423
0.648887 0.100855 0.491994
0.698984 0.100158 0.493047
0.747717 0.0956706 0.383323
0.797657 0.0957566 0.382328
0.848044 0.0959698 0.381082
0.897904 0.0963325 0.37928
0.947923 0.0965584 0.377984
0.947772 0.0962823 0.499711
0.997798 0.0969648 0.376796
0.997624 0.0966186 0.498603
0.0476562 0.147649 0.497062
0.0978068 0.148017 0.494834
0.148289 0.153723 0.482533
0.198813 0.153231 0.482456
0.248546 0.152523 0.483478
0.298697 0.152454 0.484417
0.348716 0.152195 0.485702
0.398893 0.151892 0.486218
0.448738 0.151801 0.487834
0.498884 0.151607 0.488526
0.54895 0.15145 0.48888
0.599122 0.1512 0.489853
0.648877 0.150844 0.490894
0.699356 0.15057 0.492601
0.748034 0.145128 0.381327
0.798083 0.145589 0.381157
0.847864 0.146093 0.38052
0.897999 0.146358 0.37913
0.947987 0.146803 0.377441
0.998041 0.146998 0.376678
0.997893 0.146532 0.498575
0.0479755 0.197722 0.374346
0.0476368 0.197338 0.495074
0.0975667 0.198566 0.494496
0.148362 0.203759 0.481079
0.198577 0.203238 0.481932
0.248561 0.202913 0.482919
0.298487 0.20241 0.484019
0.348751 0.202162 0.485102
0.398751 0.202033 0.485602
0.448885 0.20185 0.487143
0.498651 0.201574 0.487297
0.548731 0.201379 0.488628
0.598947 0.200911 0.489139
0.648943 0.200877 0.490293
0.698925 0.200282 0.491983
0.748035 0.195325 0.381908
0.798018 0.195536 0.380878
0.848136 0.196056 0.379884
0.897997 0.196491 0.37849
0.948159 0.196682 0.377137
0.947813 0.196233 0.498683
0.997637 0.196969 0.497744
0.047909 0.247715 0.373117
0.0474664 0.247927 0.496082
0.0977805 0.248053 0.493549
0.148217 0.253882 0.480863
0.198661 0.253503 0.481142
0.248547 0.252905 0.482755
0.29877 0.252494 0.483326
0.348673 0.252176 0.484609
0.398867 0.252072 0.485486
0.448658 0.251707 0.48641
0.498829 0.251786 0.487085
0.548878 0.251417 0.487989
0.598868 0.251124 0.48901
0.648757 0.250664 0.489415
0.69963 0.250388 0.491037
0.747869 0.245019 0.379961
0.797939 0.245436 0.380362
0.847877 0.246142 0.379375
0.898108 0.246153 0.378244
0.897871 0.245961 0.499868
0.947947 0.246808 0.376676
0.998155 0.247139 0.375531
0.997721 0.24698 0.497267
0.0474698 0.297463 0.494494
0.0976028 0.298656 0.493338
0.148365 0.303806 0.479907
0.198431 0.303196 0.48095
0.248716 0.303022 0.481599
0.2986 0.302628 0.482711
0.348885 0.302495 0.484109
0.398731 0.301996 0.484478
0.448615 0.3018 0.485891
0.49853 0.301661 0.486352
0.548745 0.301446 0.486857
0.598743 0.301046 0.487849
0.648852 0.300636 0.489179
0.699308 0.299857 0.49036
0.747927 0.295063 0.380683
0.797792 0.295639 0.380151
0.847764 0.295767 0.378957
0.897944 0.296299 0.377427
0.897679 0.295965 0.499355
0.948053 0.296725 0.376031
0.947648 0.296353 0.4977
0.99778 0.297281 0.374465
0.997382 0.297021 0.497101
0.0472521 0.348087 0.494916
0.09773 0.348299 0.492186
0.14806 0.354049 0.479799
0.198701 0.353456 0.479984
0.24827 0.352897 0.481237
0.298651 0.352769 0.482269
0.348431 0.352405 0.483277
0.398625 0.352301 0.483908
0.448636 0.351871 0.484966
0.498808 0.351624 0.485845
0.548763 0.351344 0.486472
0.599133 0.351379 0.487625
0.648847 0.350617 0.488365
0.699534 0.350332 0.489905
0.748007 0.344619 0.378968
0.797981 0.345436 0.379538
0.84778 0.346034 0.378463
0.847753 0.345622 0.50016
0.898142 0.345992 0.377428
0.897835 0.346018 0.498702
0.947817 0.346968 0.375686
0.947657 0.346569 0.497657
0.997494 0.347106 0.496105
0.0472076 0.397535 0.493311
0.0973844 0.398673 0.491981
0.148179 0.403736 0.478969
0.198542 0.403196 0.479472
0.248634 0.403065 0.480467
0.29866 0.402659 0.481095
0.348769 0.402419 0.482289
0.39864 0.402114 0.48328
0.448676 0.402002 0.484411
0.498605 0.401602 0.485391
0.548676 0.401386 0.486342
0.598728 0.401235 0.486784
0.648863 0.400691 0.487806
0.698846 0.399891 0.489158
0.747978 0.395137 0.380286
0.747942 0.394771 0.501563
0.79782 0.39564 0.378756
0.797715 0.395137 0.500364
0.848044 0.395727 0.377965
0.847678 0.395585 0.499926
0.897626 0.396522 0.376683
0.897339 0.396375 0.498533
0.947879 0.396937 0.374923
0.94741 0.396599 0.496154
0.997334 0.397045 0.495589
0.0470122 0.448026 0.493762
0.0976268 0.448213 0.49069
0.148026 0.453772 0.478846
0.198475 0.453184 0.478434
0.248492 0.452855 0.479872
0.298547 0.452707 0.48092
0.348309 0.452254 0.482207
0.398578 0.452219 0.48269
0.44857 0.452005 0.483678
0.498776 0.451765 0.484825
0.548784 0.451456 0.485859
0.59905 0.451388 0.486408
0.64875 0.450825 0.486829
0.699491 0.450279 0.488878
0.747757 0.444867 0.377843
0.747933 0.445056 0.500905
0.7979 0.445475 0.37838
0.847611 0.445903 0.376905
0.847512 0.445643 0.498743
0.897825 0.446262 0.375611
0.897518 0.446177 0.497744
0.947297 0.446596 0.496502
0.997263 0.446994 0.494745
0.0472947 0.497151 0.492113
0.0973111 0.498624 0.491144
0.747674 0.495306 0.378963
0.797504 0.495588 0.377984
0.847909 0.495856 0.376588
0.897564 0.496365 0.374897
0.897311 0.496271 0.496896
0.94739 0.496297 0.49519
0.997262 0.496991 0.49395
0.147945 0.503548 0.477387
0.198153 0.503093 0.478344
0.24851 0.503009 0.479192
0.298333 0.50263 0.480417
0.348357 0.50242 0.48156
0.398264 0.502001 0.482633
0.448631 0.502043 0.483048
0.498498 0.501732 0.48403
0.54873 0.501696 0.485016
0.598972 0.501335 0.485102
0.648883 0.500971 0.486304
0.698902 0.500172 0.488018
0.747874 0.54507 0.376405
0.747709 0.545155 0.499892
0.797592 0.545192 0.498809
0.847403 0.545548 0.497189
0.0472595 0.54758 0.49234
0.0974616 0.548195 0.489379
0.148 0.553777 0.477694
0.198298 0.553021 0.477958
0.248372 0.552797 0.47859
0.298334 0.552543 0.479969
0.348131 0.552239 0.481196
0.398258 0.551918 0.481611
0.448349 0.551946 0.48279
0.498649 0.55196 0.483094
0.548474 0.551436 0.484096
0.598842 0.551436 0.484944
0.648709 0.550966 0.486115
0.699508 0.550823 0.487246
0.797754 0.545531 0.377309
0.897641 0.546024 0.496065
0.947331 0.546581 0.49486
0.997443 0.546672 0.493328
0.0470881 0.597283 0.490662
0.0973409 0.59846 0.489215
0.14805 0.603326 0.476179
0.198242 0.602688 0.477233
0.248105 0.602598 0.478524
0.298025 0.602457 0.479406
0.348112 0.602266 0.480103
0.398008 0.601997 0.481414
0.448164 0.601843 0.482275
0.498367 0.601752 0.483087
0.548401 0.601612 0.483718
0.598385 0.601293 0.484012
0.648563 0.60135 0.485221
0.698737 0.600672 0.486713
0.747822 0.595325 0.376934
0.747858 0.595121 0.499286
0.797699 0.59564 0.376226
0.797629 0.595436 0.498137
0.848038 0.595979 0.375039
0.847766 0.595662 0.496683
0.89755 0.596112 0.495568
0.94756 0.596475 0.493997
0.997275 0.596862 0.492995
0.0473642 0.647297 0.489362
0.097754 0.647924 0.48921
0.14777 0.65333 0.476804
0.198203 0.65289 0.476499
0.24796 0.65261 0.477509
0.297986 0.652559 0.479064
0.347855 0.652365 0.479923
0.397676 0.652041 0.480555
0.447661 0.651853 0.481428
0.497862 0.651855 0.482633
0.547926 0.651604 0.483033
0.598279 0.651454 0.484177
0.648203 0.651244 0.485057
0.699337 0.650883 0.485562
0.748197 0.644997 0.37507
0.747898 0.645452 0.49801
0.79793 0.645751 0.375353
0.798168 0.645316 0.497655
0.848208 0.645949 0.374239
0.847875 0.645561 0.495338
0.898199 0.64587 0.49468
0.947822 0.64609 0.492647
0.997902 0.646721 0.492203
0.0479854 0.697064 0.488096
0.0978097 0.698596 0.490873
0.147252 0.703321 0.476026
0.19772 0.703041 0.476732
0.247476 0.702968 0.477609
0.297512 0.702848 0.478794
0.347213 0.702774 0.48013
0.397335 0.702449 0.48012
0.447181 0.702326 0.481771
0.497548 0.702108 0.4818
0.547215 0.702124 0.483525
0.597576 0.701708 0.483499
0.647599 0.701822 0.484908
0.699737 0.700651 0.483999
0.748586 0.695259 0.374362
0.748328 0.695652 0.496256
0.798219 0.695996 0.495804
0.848491 0.695838 0.494694
0.898332 0.696195 0.493049
0.948469 0.696265 0.491662
0.998043 0.696812 0.490563
0.00367683 0.747277 0.477596
0.0531697 0.747105 0.476042
0.103895 0.752459 0.489254
0.153381 0.752926 0.490556
0.202903 0.753616 0.490553
0.25293 0.753278 0.491424
0.302494 0.753469 0.49212
0.352751 0.75325 0.492826
0.402222 0.753119 0.494142
0.45207 0.752056 0.37355
0.452912 0.752683 0.494911
0.502449 0.752526 0.496172
0.552545 0.751898 0.374906
0.552905 0.752423 0.496526
0.602863 0.752077 0.375649
0.602394 0.752188 0.498138
0.653713 0.752145 0.374256
0.652059 0.752527 0.4962
0.703019 0.747247 0.485554
0.753867 0.746299 0.483706
0.803983 0.746593 0.48316
0.853802 0.746649 0.481836
0.904213 0.746655 0.481224
0.953815 0.74693 0.478666
0.00355259 0.797598 0.47859
0.0535435 0.797312 0.477588
0.10406 0.80274 0.489933
0.15391 0.803609 0.491124
0.203797 0.80386 0.491826
0.253357 0.803814 0.493735
0.303653 0.803752 0.494061
0.353158 0.803545 0.495619
0.40368 0.803196 0.494936
0.453261 0.80263 0.375346
0.45312 0.803152 0.497138
0.503356 0.802535 0.376205
0.503614 0.802754 0.497451
0.553573 0.802303 0.376865
0.553247 0.802912 0.499099
0.60359 0.80211 0.378706
0.603457 0.802795 0.499058
0.653701 0.802465 0.378724
0.65298 0.803042 0.50093
0.703011 0.797586 0.487545
0.753201 0.796387 0.485889
0.803437 0.796928 0.484736
0.853514 0.796913 0.482782
0.90366 0.797258 0.481809
0.953296 0.797088 0.48067
0.00327782 0.847222 0.480421
0.0537732 0.847145 0.479118
0.104019 0.852906 0.492718
0.154658 0.853132 0.493437
0.204099 0.853982 0.494247
0.254173 0.853537 0.495384
0.303961 0.853309 0.373857
0.304052 0.853599 0.496193
0.35395 0.852989 0.375433
0.354115 0.85332 0.497375
0.403856 0.853071 0.3763
0.404008 0.853193 0.498293
0.453973 0.852536 0.377132
0.454101 0.852922 0.49912
0.503743 0.852584 0.377916
0.504187 0.852621 0.500037
0.553761 0.852116 0.379334
0.554205 0.852292 0.501352
0.603781 0.85237 0.380413
0.653697 0.852806 0.380054
0.702319 0.847127 0.489489
0.753346 0.846914 0.487736
0.802892 0.84683 0.486084
0.853438 0.847218 0.485074
0.90325 0.847275 0.48366
0.953557 0.847642 0.481652
0.00337094 0.897576 0.481729
0.0534147 0.897077 0.480153
0.104491 0.902649 0.493586
0.154666 0.90366 0.493997
0.2046 0.903466 0.373524
0.204397 0.903535 0.495528
0.254625 0.903564 0.496797
0.304629 0.903214 0.375526
0.304657 0.903477 0.497564
0.354297 0.903027 0.377026
0.404533 0.902787 0.378214
0.404637 0.903199 0.499364
0.45431 0.902771 0.378495
0.504186 0.902335 0.379862
0.554053 0.90244 0.38078
0.603899 0.902172 0.382173
0.653673 0.902465 0.382849
0.702829 0.897612 0.491782
0.752882 0.896872 0.489834
0.802893 0.897145 0.488539
0.852976 0.897057 0.487194
0.903232 0.897387 0.485864
0.953144 0.897356 0.484122
0.00267092 0.947658 0.483899
0.0546498 0.948604 0.485091
0.102949 0.952776 0.499047
0.154856 0.953395 0.495417
0.204678 0.953624 0.497294
0.254798 0.953177 0.498509
0.304777 0.95318 0.376565
0.354869 0.953029 0.377981
0.355145 0.952941 0.499658
0.404865 0.952919 0.378321
0.45473 0.952494 0.379902
0.50492 0.952516 0.380144
0.554488 0.952273 0.382195
0.604391 0.952185 0.38196
0.653579 0.952269 0.383396
0.702371 0.947504 0.492306
0.752856 0.947479 0.492958
0.802331 0.946952 0.490278
0.852798 0.947735 0.489335
0.902313 0.947412 0.487949
0.952803 0.948062 0.486579
0.0473338 0.996856 0.496253
0.69883 0.997426 0.497863
0.747419 0.995947 0.383651
0.797401 0.995984 0.382567
0.847214 0.996328 0.380031
0.897424 0.996519 0.379866
0.947205 0.996811 0.377466
0.997655 0.996664 0.376221
0.997151 0.997026 0.498088
0.148129 0.00266149 0.612507
0.199026 0.00268308 0.612677
0.248768 0.00270751 0.614477
0.299206 0.00250611 0.615181
0.348898 0.00245784 0.617074
0.399213 0.00196898 0.616887
0.449113 0.00201006 0.6187
0.499169 0.00158767 0.618341
0.548861 0.00174712 0.620879
0.599058 0.00143816 0.621111
0.648352 0.00147014 0.623794
0.698502 9.00594e-04 0.621431
0.797698 0.0455582 0.50425
0.0985444 0.0480408 0.624293
0.148206 0.0534242 0.610166
0.198649 0.0530719 0.611776
0.248614 0.0528991 0.613765
0.299043 0.0527407 0.614188
0.34892 0.0526084 0.615559
0.399062 0.0524776 0.615545
0.448863 0.0521224 0.617127
0.498805 0.0518398 0.617507
0.548617 0.0517629 0.619
0.598915 0.0517343 0.619094
0.648317 0.051421 0.621476
0.698861 0.0507109 0.620952
0.747844 0.0455823 0.505874
0.847318 0.0461863 0.50332
0.897658 0.0459786 0.50141
0.947545 0.0464156 0.500062
0.0987494 0.0978949 0.62389
0.148161 0.103462 0.610095
0.198292 0.103059 0.610745
0.248347 0.102771 0.612703
0.29845 0.102515 0.613062
0.348506 0.10231 0.614825
0.398473 0.102182 0.614958
0.448538 0.102098 0.615943
0.498604 0.101764 0.616763
0.548673 0.101668 0.617792
0.598736 0.101438 0.619005
0.648331 0.101201 0.620342
0.698564 0.101092 0.621565
0.74824 0.0951955 0.505414
0.797814 0.0956374 0.504238
0.847767 0.0958062 0.502689
0.897744 0.0962014 0.501404
0.0478703 0.147412 0.624735
0.0984609 0.147952 0.623086
0.148057 0.153315 0.609326
0.198369 0.153332 0.610407
0.248285 0.152731 0.611428
0.298355 0.152693 0.61288
0.348309 0.152448 0.613494
0.398413 0.152366 0.614598
0.448451 0.152127 0.615308
0.498595 0.151832 0.61644
0.548492 0.151607 0.617037
0.598715 0.151366 0.617688
0.648576 0.151008 0.619551
0.69892 0.150592 0.620274
0.748079 0.145219 0.504191
0.797835 0.145363 0.503548
0.847762 0.145619 0.5023
0.897766 0.146135 0.500844
0.94761 0.146288 0.499721
0.0988221 0.198368 0.622637
0.148339 0.203881 0.608981
0.198392 0.203278 0.610033
0.248376 0.203054 0.611083
0.298326 0.202739 0.612194
0.348365 0.202468 0.613127
0.398391 0.202397 0.614151
0.448488 0.202183 0.61555
0.498433 0.201719 0.615571
0.548572 0.201731 0.616652
0.598587 0.201411 0.617601
0.648387 0.201178 0.618983
0.69855 0.200668 0.620016
0.747879 0.194877 0.503068
0.79783 0.195435 0.502758
0.847773 0.195562 0.501659
0.897902 0.196177 0.500661
0.0477929 0.247701 0.623577
0.0985939 0.248252 0.622086
0.148151 0.253841 0.608123
0.198367 0.253474 0.609408
0.248414 0.253136 0.610535
0.29844 0.252978 0.611623
0.348231 0.252416 0.612296
0.398548 0.252335 0.613551
0.448398 0.252064 0.61512
0.498519 0.252042 0.614849
0.548366 0.251665 0.615567
0.598792 0.251268 0.616467
0.64855 0.250995 0.617656
0.698829 0.250528 0.61889
0.748108 0.244961 0.502919
0.797767 0.245248 0.501937
0.847552 0.245737 0.501125
0.947693 0.246459 0.498538
0.998124 0.247033 0.626009
0.0478611 0.297862 0.623526
0.0986065 0.298387 0.622195
0.148154 0.304113 0.6084
0.198171 0.303474 0.60873
0.248362 0.303301 0.610188
0.298241 0.302835 0.611243
0.348331 0.302623 0.612002
0.398282 0.30232 0.613124
0.448128 0.302244 0.614195
0.498254 0.301841 0.614379
0.548429 0.301785 0.615467
0.598454 0.301404 0.616415
0.648281 0.301103 0.618074
0.698457 0.300491 0.619241
0.74822 0.2946 0.502564
0.797569 0.295203 0.501922
0.847807 0.29577 0.500626
0.998007 0.297248 0.625228
0.0479179 0.347737 0.622078
0.0983081 0.3482 0.620944
0.147945 0.353731 0.607268
0.198183 0.353614 0.608748
0.248173 0.353248 0.609051
0.298363 0.352921 0.609906
0.348385 0.352559 0.611159
0.398386 0.352552 0.612342
0.448354 0.352072 0.613144
0.498458 0.351736 0.613825
0.548369 0.351577 0.614877
0.598607 0.351494 0.615574
0.648399 0.350749 0.616151
0.69858 0.350348 0.617225
0.748056 0.344908 0.502543
0.797921 0.34521 0.501536
0.947806 0.346717 0.626014
0.998002 0.347234 0.625095
0.0475389 0.398047 0.622866
0.0982872 0.398432 0.620318
0.147988 0.404022 0.607108
0.198063 0.403556 0.607763
0.248402 0.40313 0.608101
0.298273 0.402931 0.609521
0.348255 0.402611 0.610665
0.398267 0.402446 0.611579
0.448311 0.402105 0.612479
0.498285 0.401833 0.61316
0.548493 0.401887 0.614241
0.598246 0.401429 0.615096
0.648388 0.40123 0.6164
0.698434 0.400804 0.617881
0.947749 0.396953 0.626136
0.997826 0.397204 0.62369
0.0475725 0.447791 0.620907
0.0981748 0.448175 0.619752
0.147764 0.453497 0.605816
0.198082 0.453393 0.607204
0.248006 0.452888 0.607869
0.29816 0.452938 0.608949
0.348256 0.452615 0.610334
0.398418 0.452499 0.611157
0.448145 0.452148 0.611712
0.498415 0.452102 0.612548
0.548339 0.451783 0.613734
0.598575 0.45157 0.614134
0.648184 0.450904 0.615085
0.698595 0.450476 0.616552
0.797755 0.445135 0.5003
0.947694 0.446821 0.624963
0.0474979 0.497865 0.621521
0.0982242 0.498215 0.619188
0.747924 0.495034 0.501132
0.797398 0.495303 0.499388
0.847366 0.495568 0.49815
0.897634 0.496502 0.625788
0.997616 0.497188 0.622824
0.147841 0.503726 0.605462
0.197967 0.503248 0.606251
0.247973 0.502906 0.607646
0.298011 0.502721 0.608785
0.348093 0.502511 0.610072
0.398271 0.502365 0.611123
0.448283 0.502305 0.611062
0.498235 0.502196 0.612343
0.548384 0.502037 0.61327
0.598337 0.501645 0.614181
0.648335 0.501279 0.615546
0.698405 0.500873 0.616593
0.0476787 0.54753 0.619946
0.0980961 0.548004 0.618089
0.147871 0.553463 0.604958
0.19804 0.553223 0.60622
0.24817 0.552768 0.607021
0.298104 0.552808 0.608559
0.348085 0.552451 0.609401
0.39819 0.552318 0.610109
0.44787 0.552173 0.610457
0.498204 0.552112 0.611195
0.548205 0.55199 0.612608
0.598345 0.55143 0.612983
0.648275 0.551355 0.613876
0.698539 0.550646 0.61505
0.897745 0.546313 0.62494
0.947704 0.546697 0.623184
0.997854 0.546856 0.6222
0.0477298 0.597839 0.620179
0.0981011 0.598187 0.617879
0.147752 0.60364 0.604764
0.197722 0.603192 0.605519
0.24791 0.602889 0.606934
0.297814 0.602705 0.607626
0.347721 0.602621 0.608516
0.397828 0.602183 0.609616
0.447936 0.602221 0.610301
0.497964 0.602022 0.610392
0.548139 0.602056 0.611815
0.598183 0.601452 0.612553
0.648085 0.601578 0.613745
0.698488 0.60126 0.614625
0.79776 0.595801 0.626812
0.89763 0.596427 0.624155
0.947763 0.596816 0.622927
0.997626 0.597098 0.621234
0.0479182 0.647493 0.618565
0.0981446 0.648179 0.616471
0.147928 0.653145 0.603764
0.197924 0.65329 0.605102
0.247738 0.652874 0.605618
0.297726 0.652807 0.607015
0.34762 0.652656 0.607584
0.39758 0.652442 0.608982
0.447407 0.652306 0.609711
0.497736 0.652234 0.610273
0.54779 0.651981 0.611197
0.597943 0.651796 0.612098
0.648136 0.651438 0.613075
0.698181 0.650799 0.614704
0.848033 0.646092 0.624883
0.898104 0.646087 0.622703
0.948204 0.646636 0.622022
0.997891 0.646545 0.620062
0.0482627 0.698222 0.618192
0.0971306 0.699956 0.613202
0.148252 0.703225 0.603179
0.197651 0.703239 0.604902
0.24764 0.703236 0.605676
0.297235 0.702916 0.606389
0.347545 0.703089 0.607146
0.397261 0.702556 0.608029
0.447329 0.702669 0.608758
0.497227 0.702332 0.610184
0.547592 0.702292 0.610953
0.5973 0.701823 0.611752
0.647628 0.702102 0.612363
0.697435 0.700603 0.613621
0.798352 0.696665 0.624074
0.848515 0.696673 0.623281
0.898263 0.696821 0.621533
0.948579 0.697277 0.620646
0.998058 0.6973 0.618822
0.00383667 0.746879 0.605576
0.0542364 0.747447 0.603775
0.103046 0.752342 0.61876
0.153697 0.752889 0.616681
0.202924 0.752903 0.6188
0.253018 0.752941 0.619635
0.302809 0.752618 0.620818
0.35288 0.752812 0.62144
0.402609 0.752441 0.622175
0.453024 0.752083 0.623414
0.653415 0.751336 0.626454
0.700757 0.747838 0.608804
0.753521 0.745928 0.612041
0.804045 0.746327 0.610735
0.854161 0.746515 0.609277
0.903979 0.746613 0.608181
0.95403 0.74678 0.607027
0.00362656 0.797412 0.606679
0.0539221 0.797135 0.605603
0.102977 0.802737 0.619626
0.15394 0.803538 0.619537
0.203231 0.803575 0.621468
0.253248 0.803578 0.621624
0.303211 0.803319 0.623404
0.353427 0.803382 0.623613
0.453368 0.802708 0.625543
0.703157 0.796628 0.615574
0.75341 0.79631 0.614792
0.803655 0.796434 0.612687
0.853584 0.796445 0.611555
0.903744 0.796942 0.610304
0.953718 0.796989 0.609028
0.00391914 0.847457 0.608575
0.0539162 0.84745 0.606498
0.103464 0.852904 0.620925
0.15419 0.85322 0.621646
0.20394 0.853552 0.622776
0.254033 0.853262 0.623691
0.30381 0.853048 0.624857
0.604026 0.852756 0.50225
0.654076 0.852601 0.502864
0.703013 0.846945 0.617297
0.75335 0.846828 0.615215
0.803399 0.846348 0.614146
0.853493 0.846719 0.612928
0.903693 0.847008 0.611935
0.953682 0.847209 0.610152
0.00366162 0.897031 0.611155
0.0537502 0.89697 0.608779
0.103728 0.902606 0.622273
0.154016 0.903198 0.624454
0.354576 0.90331 0.49865
0.454384 0.902702 0.500901
0.504364 0.902402 0.501432
0.554142 0.90244 0.502501
0.604138 0.902365 0.503844
0.65414 0.902513 0.5049
0.703413 0.896864 0.620671
0.753048 0.896581 0.618276
0.803223 0.896194 0.617252
0.853192 0.896443 0.614966
0.903398 0.896768 0.614392
0.953436 0.897132 0.611794
0.0035521 0.947315 0.612702
0.0534527 0.947753 0.610153
0.104127 0.952174 0.623079
0.304892 0.953206 0.499287
0.404786 0.952851 0.501237
0.454808 0.95235 0.502051
0.504513 0.952489 0.502712
0.554531 0.952187 0.504291
0.604286 0.952097 0.505383
0.654257 0.95177 0.506748
0.704217 0.948341 0.626097
0.752977 0.947114 0.619659
0.803348 0.9466 0.619354
0.852818 0.946895 0.617558
0.90321 0.946919 0.616607
0.953161 0.947321 0.61458
0.748176 0.995958 0.505951
0.797199 0.996086 0.504927
0.847441 0.996132 0.502894
0.897206 0.996399 0.501803
0.947523 0.996559 0.500033
0.149056 0.00255466 0.740396
0.198747 0.00271405 0.742467
0.249008 0.0026336 0.742785
0.298803 0.00247282 0.744582
0.349092 0.00234577 0.745085
0.39908 0.00242327 0.746555
0.449017 0.00181416 0.746628
0.498772 0.00186078 0.748373
0.747623 0.0455346 0.634619
0.797836 0.0457802 0.633316
0.0478151 0.0473431 0.625405
0.148468 0.0537331 0.739484
0.198442 0.0534418 0.741799
0.248749 0.0532052 0.741756
0.298567 0.0531902 0.743336
0.348815 0.0528846 0.74368
0.398784 0.052775 0.745058
0.44886 0.0525325 0.745421
0.498686 0.0524847 0.747152
0.548674 0.0520908 0.747115
0.598429 0.052111 0.749113
0.847882 0.0461343 0.632258
0.897959 0.0464026 0.630336
0.947981 0.0466116 0.628719
0.99801 0.0468467 0.62768
0.0480031 0.0974692 0.625936
0.148414 0.103475 0.738795
0.198239 0.103272 0.74025
0.248317 0.102983 0.740774
0.298251 0.102945 0.741651
0.348439 0.102714 0.743253
0.398394 0.102472 0.74382
0.448566 0.102398 0.744644
0.49827 0.102238 0.745825
0.548334 0.101828 0.745928
0.598195 0.101656 0.7476
0.648084 0.101026 0.748523
0.747936 0.0956007 0.634437
0.797999 0.0959427 0.63252
0.848025 0.095833 0.631427
0.898036 0.0962745 0.629455
0.948154 0.0964681 0.628766
0.998034 0.0968943 0.627318
0.148377 0.153727 0.738439
0.198281 0.153511 0.7392
0.248251 0.153105 0.740575
0.298291 0.153148 0.741122
0.3482 0.152493 0.742103
0.398415 0.152637 0.743333
0.448403 0.152209 0.743684
0.498317 0.152368 0.744874
0.54821 0.151917 0.74595
0.59836 0.151681 0.746812
0.747969 0.14542 0.633249
0.798087 0.145639 0.632287
0.847938 0.14604 0.630429
0.897836 0.146365 0.629449
0.948196 0.146449 0.628043
0.998063 0.147074 0.626665
0.0481755 0.197816 0.624929
0.0989772 0.197956 0.751103
0.148214 0.203707 0.737554
0.198165 0.203623 0.738628
0.248099 0.203131 0.739745
0.298177 0.203043 0.740654
0.348173 0.202692 0.741677
0.398034 0.202512 0.742684
0.448276 0.202347 0.743395
0.498393 0.202158 0.744288
0.548362 0.201859 0.745306
0.598296 0.201493 0.745913
0.648125 0.201048 0.746931
0.698494 0.200758 0.748381
0.747977 0.195537 0.633009
0.79801 0.195519 0.631915
0.84785 0.196018 0.630247
0.898107 0.196242 0.628791
0.947986 0.196557 0.62736
0.998109 0.197108 0.626331
0.148277 0.253976 0.737595
0.198145 0.253737 0.737833
0.248134 0.253394 0.73892
0.298031 0.25307 0.739879
0.348082 0.252833 0.740617
0.39818 0.252493 0.742394
0.448316 0.252432 0.742959
0.498289 0.252167 0.743718
0.548199 0.251783 0.745003
0.598267 0.251638 0.745237
0.648147 0.251334 0.747123
0.69852 0.250995 0.748771
0.748226 0.245315 0.632615
0.797999 0.245508 0.63076
0.848117 0.245904 0.630012
0.897948 0.246227 0.628085
0.947978 0.246663 0.627228
0.148007 0.303736 0.736923
0.198185 0.30354 0.73735
0.248038 0.303504 0.738677
0.297957 0.303089 0.739671
0.347981 0.302844 0.740346
0.398053 0.302522 0.741801
0.448221 0.30232 0.742345
0.498251 0.302081 0.742736
0.548361 0.301627 0.743624
0.598303 0.301462 0.744853
0.648027 0.301083 0.746236
0.698406 0.300677 0.747897
0.74784 0.295273 0.632109
0.797962 0.295521 0.630826
0.847926 0.296069 0.629196
0.897825 0.296275 0.627839
0.947775 0.296755 0.626426
0.14804 0.3538 0.736105
0.197893 0.353524 0.737054
0.248022 0.353433 0.738143
0.29783 0.353247 0.739024
0.348164 0.352675 0.739167
0.398095 0.352549 0.741277
0.448135 0.352426 0.741458
0.497993 0.352254 0.742298
0.54819 0.351932 0.743654
0.598134 0.35177 0.744106
0.647848 0.351222 0.745904
0.698377 0.350861 0.747332
0.747905 0.34513 0.631172
0.797945 0.345562 0.630046
0.847807 0.346026 0.628852
0.897765 0.346279 0.627566
0.0984554 0.398468 0.748458
0.148126 0.403867 0.73549
0.197983 0.403439 0.736482
0.248082 0.403368 0.737117
0.297926 0.403118 0.738465
0.348046 0.40267 0.739513
0.39806 0.402555 0.740123
0.448132 0.40231 0.740682
0.498057 0.402195 0.74203
0.548042 0.40197 0.74262
0.598111 0.401706 0.743438
0.64787 0.400957 0.744576
0.698231 0.400614 0.746365
0.747955 0.395374 0.631201
0.797863 0.395539 0.62972
0.847926 0.39581 0.62823
0.898048 0.396277 0.626934
0.0984657 0.448785 0.749068
0.148032 0.453874 0.734935
0.198017 0.453747 0.735723
0.248092 0.453299 0.736569
0.298049 0.452952 0.737077
0.348047 0.452714 0.73889
0.397952 0.452601 0.73959
0.448021 0.452408 0.740452
0.498089 0.452215 0.741158
0.547985 0.451988 0.742227
0.59818 0.451965 0.743131
0.647929 0.451284 0.744515
0.698257 0.451007 0.746551
0.747861 0.445264 0.629637
0.797895 0.445408 0.628514
0.84768 0.445914 0.627707
0.897917 0.446279 0.626351
0.997765 0.447305 0.623229
0.0477011 0.497964 0.74934
0.0981259 0.498335 0.747974
0.74782 0.4953 0.629675
0.797792 0.495654 0.628423
0.847673 0.49593 0.627329
0.947665 0.496698 0.624276
0.147798 0.503611 0.734173
0.197934 0.503496 0.735202
0.247993 0.503368 0.73608
0.297713 0.502886 0.737269
0.347744 0.502796 0.738291
0.398054 0.502499 0.739116
0.448024 0.502493 0.739559
0.497931 0.502169 0.740559
0.547941 0.502091 0.741819
0.598124 0.50186 0.742811
0.647862 0.501224 0.74369
0.698263 0.500772 0.745195
0.0477493 0.547813 0.749652
0.0982655 0.548299 0.747222
0.147715 0.55376 0.734328
0.197808 0.553439 0.734565
0.247847 0.553285 0.735724
0.297952 0.552993 0.736617
0.347822 0.552639 0.737944
0.397781 0.552726 0.738929
0.447791 0.552395 0.739604
0.497991 0.552286 0.740168
0.547891 0.552101 0.741425
0.598237 0.551964 0.742041
0.648003 0.551429 0.743743
0.698222 0.551136 0.744896
0.747754 0.545381 0.629159
0.797675 0.545634 0.627653
0.847738 0.545993 0.626076
0.0475042 0.597691 0.748391
0.0982323 0.598169 0.746517
0.147755 0.603629 0.73311
0.197864 0.603421 0.733672
0.247848 0.603066 0.735169
0.297722 0.60299 0.736548
0.347869 0.602767 0.73684
0.397745 0.602675 0.738121
0.447755 0.602563 0.739118
0.497761 0.602085 0.739336
0.547938 0.602301 0.740339
0.597978 0.601833 0.740671
0.648032 0.601466 0.742035
0.698407 0.601022 0.744056
0.74785 0.595486 0.62814
0.847622 0.596061 0.625388
0.998076 0.597171 0.750351
0.0478252 0.647514 0.747123
0.0985984 0.648261 0.746712
0.147439 0.653674 0.732108
0.197722 0.653575 0.733387
0.247541 0.653019 0.734389
0.297561 0.653076 0.735822
0.347615 0.652796 0.736209
0.397482 0.652627 0.737491
0.447567 0.652566 0.73849
0.49754 0.652046 0.738618
0.547778 0.652027 0.739606
0.597793 0.651986 0.740639
0.647575 0.651645 0.742562
0.698253 0.651069 0.743614
0.748084 0.645429 0.62712
0.798006 0.645758 0.625519
0.998281 0.647164 0.749279
0.0478073 0.69812 0.744427
0.0984832 0.698349 0.746294
0.147157 0.70329 0.731063
0.197522 0.703437 0.733581
0.247578 0.703284 0.734442
0.29769 0.703187 0.7351
0.347266 0.70276 0.736151
0.397307 0.702724 0.737023
0.447121 0.702318 0.737702
0.497332 0.702268 0.738834
0.547345 0.702021 0.73971
0.597653 0.702058 0.740975
0.647835 0.702313 0.741938
0.70059 0.700522 0.735436
0.74852 0.696886 0.626955
0.948292 0.697252 0.748536
0.00396478 0.747149 0.733906
0.0534584 0.747494 0.732669
0.104273 0.75071 0.74156
0.203215 0.752963 0.747007
0.252813 0.752813 0.749076
0.302795 0.752861 0.748976
0.502865 0.751911 0.624566
0.553097 0.751846 0.62543
0.602897 0.751552 0.626583
0.704049 0.747182 0.744994
0.753927 0.745802 0.741592
0.804055 0.745993 0.740013
0.854164 0.746422 0.738486
0.90398 0.746631 0.737466
0.954051 0.746841 0.736165
0.00391847 0.79721 0.735579
0.053543 0.797222 0.734342
0.103316 0.802541 0.746376
0.203329 0.803534 0.749476
0.40313 0.802976 0.62469
0.503232 0.802434 0.626873
0.553575 0.802288 0.626708
0.603363 0.802133 0.629208
0.653478 0.802357 0.629597
0.703617 0.796835 0.745412
0.753674 0.796099 0.742515
0.803673 0.796128 0.741691
0.853713 0.796365 0.740236
0.903754 0.796892 0.738702
0.953723 0.796848 0.737498
0.00377781 0.847286 0.737046
0.0538363 0.847134 0.73582
0.353847 0.852945 0.625834
0.403872 0.852684 0.626918
0.453971 0.852501 0.627936
0.503875 0.852324 0.628674
0.553828 0.852195 0.630192
0.603815 0.852095 0.63116
0.653788 0.852049 0.631751
0.703228 0.846281 0.746612
0.753949 0.84621 0.745141
0.803309 0.846232 0.743042
0.853713 0.84664 0.741692
0.903518 0.846554 0.740396
0.953867 0.847079 0.738789
0.00346301 0.897049 0.738959
0.0537549 0.897023 0.738511
0.103471 0.902659 0.750728
0.204083 0.90348 0.624862
0.25422 0.90332 0.625725
0.304291 0.903292 0.626541
0.354295 0.90302 0.627499
0.404269 0.902657 0.628727
0.454258 0.902708 0.6297
0.504123 0.90225 0.630859
0.553927 0.902255 0.631597
0.603893 0.901888 0.632341
0.653816 0.90201 0.633595
0.753597 0.896012 0.747376
0.803254 0.89621 0.744511
0.853498 0.896202 0.744446
0.903399 0.896672 0.742266
0.95368 0.89667 0.741455
0.00322273 0.947386 0.741843
0.0539377 0.94788 0.741276
0.15425 0.953531 0.625037
0.204501 0.953375 0.626225
0.254397 0.953335 0.627201
0.304801 0.95323 0.628568
0.354609 0.952918 0.629166
0.404587 0.952744 0.630049
0.454431 0.952522 0.631408
0.504616 0.952162 0.631613
0.554242 0.951919 0.633164
0.604361 0.951979 0.633877
0.65378 0.951928 0.635059
0.70318 0.947118 0.749074
0.753806 0.946879 0.750999
0.80294 0.946345 0.747225
0.853402 0.946849 0.746372
0.902859 0.947122 0.744996
0.953334 0.94713 0.744096
0.0480544 0.996823 0.626232
0.10092 0.998916 0.631273
0.747194 0.9962 0.636526
0.79782 0.99577 0.633549
0.847652 0.996152 0.632017
0.897747 0.996341 0.630685
0.947711 0.9966 0.629243
0.99788 0.996809 0.627457
0.148402 0.0026456 0.870784
0.198918 0.00275628 0.871031
0.24884 0.00296268 0.871867
0.29899 0.00260357 0.87283
0.349054 0.00272253 0.874198
0.399103 0.00228335 0.874886
0.548822 0.00152664 0.748515
0.598438 0.00151504 0.750422
0.648539 6.70327e-04 0.750141
0.697296 0.999471 0.755355
0.048466 0.0475874 0.75542
0.098402 0.0482161 0.753374
0.14834 0.0535699 0.868889
0.1986 0.0533812 0.869484
0.248467 0.0534098 0.871148
0.298777 0.0534249 0.871932
0.348783 0.0532122 0.873428
0.399073 0.0529865 0.873257
0.648411 0.0517635 0.750073
0.698337 0.0508111 0.751538
0.748254 0.0457623 0.763879
0.798072 0.0460597 0.762014
0.848096 0.0464768 0.76109
0.89794 0.046714 0.759174
0.948081 0.0468151 0.758121
0.998271 0.0470237 0.756763
0.0481373 0.0975236 0.754121
0.098785 0.0977609 0.752247
0.148261 0.103605 0.86778
0.198104 0.103415 0.869037
0.248073 0.10341 0.870126
0.298023 0.10328 0.870934
0.348262 0.10311 0.871959
0.398394 0.103195 0.872707
0.448336 0.102794 0.873825
0.698331 0.100745 0.749914
0.747898 0.0953977 0.762462
0.797998 0.0959465 0.761629
0.848057 0.0962058 0.760343
0.898256 0.0967529 0.758551
0.948253 0.0968218 0.757278
0.998473 0.097116 0.755632
0.0484066 0.147785 0.754548
0.098741 0.148255 0.752307
0.148233 0.153572 0.867693
0.198079 0.153722 0.86837
0.248191 0.15338 0.869134
0.298098 0.153203 0.869905
0.347976 0.152999 0.871213
0.397982 0.152878 0.871687
0.44792 0.152702 0.872537
0.498181 0.152496 0.873271
0.548245 0.152365 0.875038
0.648101 0.151336 0.748504
0.698614 0.151258 0.750018
0.747959 0.145697 0.762554
0.798192 0.145863 0.761162
0.848357 0.146225 0.76014
0.898438 0.146552 0.758508
0.948459 0.146727 0.757015
0.998481 0.147264 0.75568
0.0484406 0.197449 0.753034
0.147934 0.203924 0.866397
0.198008 0.20369 0.867939
0.247989 0.203517 0.868753
0.297989 0.203284 0.869639
0.347901 0.203085 0.869855
0.39804 0.202817 0.871301
0.448066 0.20259 0.87218
0.498039 0.202422 0.872747
0.748071 0.195507 0.761647
0.798207 0.195665 0.760711
0.848308 0.195993 0.759281
0.898327 0.196366 0.757591
0.948381 0.1969 0.756047
0.9986 0.197113 0.755275
0.0481816 0.247926 0.753094
0.0986134 0.248457 0.751492
0.147833 0.253857 0.865907
0.197932 0.253741 0.866998
0.247976 0.253483 0.868258
0.297876 0.253162 0.868655
0.347888 0.253109 0.869502
0.39792 0.252686 0.870728
0.44803 0.252635 0.871288
0.497876 0.252218 0.872795
0.547996 0.252074 0.873283
0.598005 0.251587 0.874605
0.647773 0.251239 0.875099
0.748126 0.245615 0.761416
0.798157 0.24585 0.759516
0.848336 0.246019 0.758582
0.898424 0.24645 0.756885
0.948331 0.246988 0.75594
0.998165 0.247549 0.754872
0.0480142 0.2978 0.751713
0.098458 0.298218 0.74999
0.147955 0.30403 0.86583
0.198056 0.303753 0.866386
0.247788 0.303474 0.867947
0.297901 0.303303 0.867981
0.347704 0.303134 0.869698
0.397928 0.302737 0.870439
0.448024 0.302499 0.870904
0.497952 0.302408 0.871768
0.547817 0.301896 0.872879
0.597843 0.301571 0.874447
0.748121 0.295387 0.760779
0.79818 0.29555 0.759936
0.848143 0.296093 0.758237
0.898148 0.296522 0.756671
0.948094 0.296869 0.755197
0.998254 0.297357 0.753979
0.0481065 0.348047 0.752133
0.0985315 0.348608 0.750209
0.147836 0.353885 0.865148
0.19785 0.353756 0.866336
0.247718 0.353578 0.867306
0.297905 0.353473 0.867645
0.347881 0.352964 0.868426
0.397905 0.352608 0.869416
0.447814 0.352501 0.870435
0.49798 0.352167 0.871143
0.547685 0.351941 0.872261
0.597832 0.351741 0.87356
0.748073 0.345367 0.760517
0.79798 0.345747 0.758888
0.847879 0.346147 0.757633
0.898033 0.346507 0.756067
0.94823 0.347038 0.755191
0.998231 0.347573 0.753327
0.0479892 0.397838 0.750386
0.147913 0.403975 0.864582
0.197882 0.403732 0.865832
0.247686 0.403439 0.866288
0.297719 0.403248 0.867098
0.347908 0.403069 0.868471
0.39787 0.402642 0.868551
0.447868 0.402488 0.869682
0.497949 0.402432 0.870593
0.547881 0.402254 0.871781
0.597833 0.40191 0.872718
0.747883 0.395159 0.759439
0.798067 0.395685 0.758273
0.847801 0.396268 0.75675
0.898099 0.396621 0.755938
0.947957 0.397156 0.754581
0.998244 0.397292 0.752701
0.0479954 0.448126 0.751012
0.147814 0.453807 0.86386
0.197963 0.453842 0.865016
0.247647 0.453532 0.865365
0.29781 0.453079 0.866659
0.347864 0.453173 0.867461
0.397936 0.45275 0.868391
0.447815 0.452463 0.869034
0.497897 0.452507 0.870241
0.547869 0.452166 0.870846
0.597795 0.45195 0.872179
0.647567 0.451246 0.873076
0.698132 0.450756 0.874435
0.747669 0.445686 0.759396
0.797893 0.445752 0.757918
0.847874 0.446126 0.756346
0.897842 0.446746 0.755052
0.948037 0.447165 0.754074
0.998065 0.447447 0.752141
0.747736 0.495516 0.758324
0.798019 0.495771 0.756762
0.847861 0.496159 0.755542
0.897897 0.496711 0.754513
0.947793 0.497013 0.752975
0.997931 0.497349 0.751991
0.147657 0.504 0.863647
0.197678 0.503808 0.864067
0.247579 0.50322 0.865228
0.297839 0.503156 0.866306
0.347733 0.503027 0.866983
0.397908 0.502945 0.867671
0.447752 0.5027 0.868212
0.49788 0.50233 0.869109
0.547765 0.502223 0.870728
0.597891 0.50199 0.871524
0.647475 0.501756 0.87311
0.69797 0.501117 0.874226
0.79778 0.546098 0.756713
0.147804 0.553773 0.86286
0.197741 0.553632 0.863659
0.247615 0.553388 0.864722
0.297609 0.553134 0.865654
0.347646 0.552931 0.866489
0.397767 0.55282 0.867212
0.447766 0.552729 0.868138
0.497672 0.552514 0.86918
0.54769 0.552398 0.870216
0.597605 0.551955 0.870733
0.647592 0.551531 0.871894
0.747893 0.545645 0.758223
0.847824 0.54631 0.7547
0.897906 0.546838 0.75379
0.947885 0.547006 0.752528
0.997749 0.547458 0.751229
0.147758 0.60378 0.862024
0.197662 0.603569 0.862834
0.247529 0.603236 0.8641
0.297513 0.603123 0.865111
0.347481 0.603086 0.866526
0.397486 0.602807 0.866704
0.447564 0.602594 0.868051
0.497618 0.602582 0.869145
0.547529 0.602406 0.869399
0.597549 0.602374 0.870519
0.647609 0.601772 0.871712
0.747769 0.595885 0.756998
0.797849 0.596214 0.755784
0.847763 0.596545 0.754137
0.897998 0.596679 0.753478
0.947816 0.597063 0.751669
0.0982097 0.648414 0.873877
0.147654 0.65353 0.86137
0.19747 0.653407 0.862246
0.24747 0.653353 0.863319
0.297197 0.653246 0.864608
0.34719 0.653024 0.865387
0.397206 0.65273 0.866423
0.447402 0.652537 0.867271
0.497415 0.652439 0.868446
0.547306 0.652052 0.868218
0.597364 0.652044 0.870311
0.647795 0.651757 0.869993
0.697953 0.651084 0.873262
0.748023 0.645758 0.756818
0.798021 0.64622 0.755181
0.847926 0.646347 0.752642
0.898169 0.646579 0.751951
0.948127 0.646814 0.750089
0.0486481 0.698402 0.87617
0.0973684 0.699589 0.869639
0.148016 0.703589 0.86061
0.197348 0.703444 0.861902
0.247276 0.703269 0.86286
0.297167 0.702997 0.864501
0.347248 0.703125 0.864879
0.397206 0.702609 0.866196
0.447144 0.702708 0.866987
0.497155 0.702266 0.868172
0.547193 0.702342 0.868697
0.597256 0.702036 0.869915
0.647547 0.701977 0.870604
0.69834 0.699902 0.872991
0.747733 0.696742 0.754083
0.798267 0.696711 0.753423
0.848268 0.696659 0.751568
0.898425 0.696971 0.750554
0.998532 0.697607 0.747776
0.00399468 0.747114 0.863565
0.0545036 0.747588 0.860126
0.103229 0.752403 0.875785
0.153085 0.752221 0.747648
0.153252 0.752849 0.873958
0.352499 0.752508 0.750524
0.402984 0.752023 0.751064
0.452624 0.751949 0.752859
0.50282 0.751946 0.7532
0.552848 0.751616 0.7544
0.603147 0.751551 0.754946
0.653189 0.751425 0.757892
0.701924 0.746377 0.870532
0.753914 0.746016 0.870926
0.804053 0.746368 0.868953
0.853986 0.74633 0.867482
0.904122 0.74653 0.865941
0.954097 0.746707 0.864896
0.00384965 0.796966 0.864477
0.0543087 0.796884 0.862755
0.153567 0.803162 0.748667
0.253174 0.803221 0.751285
0.303318 0.80354 0.751063
0.353203 0.802722 0.753125
0.40328 0.802835 0.752971
0.453192 0.802356 0.75534
0.503299 0.80227 0.755416
0.553275 0.801852 0.757635
0.603318 0.802266 0.757482
0.653409 0.802031 0.759523
0.75405 0.796116 0.872799
0.803868 0.796113 0.870726
0.854029 0.796537 0.868906
0.903863 0.796599 0.867835
0.95379 0.796972 0.866153
0.00395178 0.846947 0.866527
0.0539224 0.847018 0.864816
0.103436 0.852436 0.750395
0.15384 0.852749 0.75138
0.20371 0.853253 0.751952
0.253608 0.853233 0.75293
0.303915 0.852975 0.753539
0.353708 0.852879 0.754691
0.403946 0.852511 0.755924
0.453545 0.852414 0.757085
0.503809 0.852126 0.757742
0.553652 0.851996 0.7588
0.603876 0.851745 0.760205
0.653867 0.85193 0.760847
0.75387 0.846492 0.873502
0.803778 0.846203 0.872486
0.853682 0.846282 0.87097
0.90392 0.84666 0.869705
0.953744 0.846743 0.868197
0.00366267 0.8966 0.869638
0.0536036 0.896773 0.867152
0.154114 0.902913 0.752263
0.203984 0.903277 0.75406
0.254079 0.903178 0.75506
0.30411 0.903102 0.755698
0.354243 0.902939 0.756592
0.404121 0.902834 0.757255
0.454196 0.902399 0.758966
0.503957 0.902251 0.759843
0.554058 0.901808 0.760655
0.603838 0.901887 0.761589
0.653926 0.901964 0.763079
0.703037 0.8966 0.747685
0.853384 0.896289 0.872643
0.903474 0.896288 0.872447
0.953651 0.89675 0.869868
0.00329854 0.947237 0.871159
0.0531859 0.947893 0.869002
0.100957 0.951835 0.759566
0.154083 0.95317 0.754634
0.204394 0.952992 0.755484
0.254423 0.95323 0.756069
0.304238 0.952982 0.757787
0.354696 0.952992 0.758377
0.404565 0.952692 0.759603
0.454544 0.952678 0.760162
0.504418 0.952154 0.761387
0.554406 0.952008 0.761695
0.604078 0.952001 0.763282
0.654553 0.951867 0.764566
0.903141 0.946961 0.873857
0.953053 0.946947 0.872411
0.0478816 0.997022 0.755232
0.0979052 0.998431 0.753244
0.748102 0.996127 0.764159
0.797793 0.996169 0.762953
0.847688 0.996379 0.76071
0.897696 0.996711 0.759274
0.947839 0.996729 0.75833
0.997879 0.997091 0.756894
0.199682 0.00352491 -6.13202e-04
0.449055 0.00243144 0.876102
0.498951 0.00203456 0.876862
0.548708 0.00192264 0.877702
0.598676 0.0017512 0.878603
0.647922 0.00124631 0.880832
0.698533 7.47119e-04 0.878236
0.0483652 0.0473898 0.883342
0.0987221 0.0481565 0.882902
0.149032 0.0542663 0.997761
0.198137 0.0540461 0.999576
0.248617 0.0539619 -0.00131031
0.348842 0.053506 8.55564e-04
0.39849 0.0533481 0.00289068
0.448807 0.0529464 0.875364
0.498817 0.0526452 0.8753
0.548447 0.0525136 0.876724
0.598617 0.0521421 0.876555
0.648039 0.051893 0.878965
0.698829 0.0511643 0.878798
0.74802 0.0457536 0.89226
0.798061 0.0465537 0.890802
0.848106 0.0464015 0.889438
0.898079 0.0467608 0.888037
0.948189 0.0469471 0.886212
0.998322 0.047189 0.8856
0.0483555 0.0976644 0.884284
0.0987875 0.0982191 0.882429
0.148079 0.103767 0.997221
0.198189 0.104259 0.997516
0.247882 0.10373 0.998338
0.298021 0.103689 0.999585
0.348214 0.103466 1.02532e-04
0.498201 0.10247 0.874446
0.548074 0.10226 0.875748
0.598201 0.102015 0.876595
0.647867 0.10158 0.878242
0.698497 0.101388 0.87885
0.747928 0.095968 0.891871
0.798242 0.0962318 0.8898
0.848282 0.0963769 0.889113
0.898371 0.0966944 0.887436
0.948559 0.0970107 0.886178
0.998629 0.0970102 0.884825
0.0485015 0.147672 0.881984
0.0987719 0.147924 0.880944
0.148072 0.154127 0.996397
0.197906 0.154177 0.997854
0.247898 0.153742 0.997703
0.297892 0.153696 0.999269
0.5981 0.151793 0.875595
0.64789 0.15148 0.876514
0.69839 0.150998 0.878644
0.7479 0.145698 0.89109
0.798228 0.146225 0.889917
0.848385 0.146185 0.888379
0.898423 0.146756 0.886932
0.94866 0.146909 0.885389
0.998795 0.14731 0.884485
0.0485901 0.197939 0.882343
0.098831 0.198505 0.88069
0.147892 0.204159 0.995744
0.197847 0.204098 0.996253
0.247749 0.203572 0.997634
0.297873 0.203611 0.998072
0.548063 0.20218 0.874209
0.597994 0.201838 0.874841
0.647774 0.201482 0.87679
0.698331 0.20097 0.877814
0.748075 0.195786 0.890852
0.79829 0.195869 0.889039
0.848534 0.196247 0.887473
0.898663 0.196685 0.886104
0.948676 0.197163 0.885036
0.998722 0.197385 0.88378
0.0485111 0.247704 0.880842
0.098463 0.248338 0.880021
0.148242 0.254484 0.995498
0.197584 0.254218 0.996128
0.24793 0.253874 0.996728
0.297646 0.253413 0.997383
0.347768 0.253394 0.998218
0.397722 0.253139 -0.00104147
0.698496 0.250882 0.877145
0.748205 0.245343 0.890112
0.798291 0.246096 0.888796
0.848466 0.246278 0.887009
0.898637 0.246627 0.885664
0.948501 0.247198 0.884684
0.998696 0.247566 0.882815
0.0483122 0.298244 0.881154
0.0987725 0.298688 0.879574
0.14793 0.304173 0.994743
0.197746 0.304161 0.995232
0.247772 0.303926 0.996173
0.297699 0.30355 0.997022
0.347684 0.303369 0.997904
0.397718 0.30304 0.99855
0.547381 0.302173 0.00148766
0.647799 0.301173 0.875639
0.698265 0.301046 0.876532
0.747862 0.295535 0.889687
0.798389 0.295796 0.888362
0.84827 0.296315 0.886666
0.898557 0.296582 0.885338
0.94849 0.297167 0.883799
0.998681 0.297677 0.882893
0.048384 0.348093 0.88011
0.0984266 0.348529 0.87808
0.147888 0.354296 0.994365
0.197614 0.354213 0.995085
0.247617 0.353784 0.995541
0.297424 0.353403 0.996051
0.347674 0.353262 0.997217
0.397711 0.353053 0.997886
0.447667 0.352759 0.999087
0.497534 0.352414 -4.74722e-04
0.547479 0.352363 0.00106502
0.647812 0.351174 0.873976
0.698458 0.350781 0.875596
0.748089 0.34531 0.88891
0.798117 0.345908 0.887368
0.848466 0.346293 0.886102
0.898269 0.346799 0.884382
0.948369 0.34727 0.88333
0.998398 0.347505 0.881574
0.0482035 0.398313 0.879858
0.0984462 0.398725 0.878164
0.147837 0.404161 0.993306
0.197585 0.404127 0.994093
0.247373 0.403727 0.99478
0.297384 0.403466 0.995616
0.347534 0.40335 0.996132
0.397748 0.403095 0.997242
0.44756 0.402694 0.998333
0.497633 0.40264 0.998974
0.547456 0.402324 -1.19721e-04
0.597553 0.402071 0.00100818
0.647627 0.401389 0.873916
0.698172 0.400812 0.874979
0.747835 0.395749 0.888525
0.798118 0.395891 0.886957
0.848188 0.396462 0.885993
0.898315 0.396739 0.884031
0.948267 0.397358 0.882836
0.998385 0.397661 0.881398
0.0480839 0.448023 0.878792
0.0984605 0.448553 0.877194
0.147736 0.454221 0.992977
0.197573 0.454119 0.993852
0.247561 0.453739 0.994262
0.29762 0.453358 0.994804
0.347612 0.453226 0.995707
0.397531 0.452985 0.996702
0.447656 0.452843 0.997747
0.497269 0.452498 0.99898
0.547502 0.452528 -2.96606e-04
0.747923 0.445485 0.887562
0.797984 0.446132 0.886635
0.848035 0.446361 0.885259
0.898057 0.447096 0.883774
0.948241 0.447156 0.882354
0.998349 0.44756 0.880805
0.048058 0.498249 0.878961
0.098358 0.498763 0.877264
0.747664 0.495724 0.887667
0.797938 0.496001 0.886016
0.847906 0.496689 0.884454
0.898134 0.496915 0.88285
0.948175 0.497368 0.881707
0.998372 0.497566 0.880964
0.147729 0.50405 0.99236
0.197535 0.504043 0.992514
0.247525 0.503565 0.993736
0.297676 0.503309 0.994058
0.347545 0.503197 0.9956
0.397657 0.502938 0.995965
0.447612 0.502766 0.997069
0.497539 0.502528 0.998164
0.547375 0.50234 0.999231
0.647292 0.501367 0.00119603
0.747856 0.545338 0.886515
0.79789 0.546236 0.885392
0.0480289 0.547954 0.877613
0.0983325 0.548422 0.875647
0.147773 0.554422 0.991963
0.197363 0.553757 0.992566
0.247378 0.553672 0.993272
0.297139 0.553159 0.993701
0.347491 0.553235 0.995121
0.397172 0.552941 0.995712
0.447383 0.552962 0.996883
0.497264 0.552519 0.997698
0.547328 0.552718 0.998552
0.597378 0.552154 0.999429
0.698277 0.551136 0.873233
0.847974 0.546445 0.883435
0.897754 0.547053 0.882658
0.948194 0.547103 0.881152
0.998143 0.547507 0.879768
0.048056 0.598154 0.877872
0.0981481 0.598728 0.875581
0.147546 0.6039 0.990552
0.197516 0.603782 0.991736
0.247314 0.603625 0.992889
0.297139 0.60323 0.993103
0.347366 0.60313 0.994555
0.397221 0.603064 0.995266
0.447115 0.602656 0.99649
0.497093 0.602746 0.997299
0.547109 0.602438 0.997991
0.69822 0.601288 0.873179
0.747703 0.595973 0.886147
0.797899 0.596163 0.884658
0.84784 0.596763 0.882826
0.898092 0.596956 0.882045
0.948146 0.597297 0.88033
0.998047 0.597652 0.879116
0.0482848 0.647877 0.875972
0.147353 0.653804 0.990119
0.197314 0.653612 0.991302
0.24715 0.653448 0.99236
0.29706 0.653314 0.99312
0.347099 0.653171 0.994221
0.39702 0.653008 0.995042
0.446881 0.653029 0.99609
0.496811 0.652768 0.996812
0.546924 0.652524 0.998105
0.597218 0.652228 -0.00138497
0.748087 0.645546 0.88589
0.798137 0.646387 0.883597
0.848333 0.646767 0.881742
0.898085 0.646764 0.880292
0.948462 0.647105 0.879643
0.998303 0.647495 0.878102
0.147353 0.702997 0.989426
0.197435 0.703665 0.991189
0.247041 0.703053 0.992285
0.297077 0.70341 0.993173
0.346699 0.702979 0.993668
0.396913 0.702861 0.995109
0.44664 0.702723 0.995788
0.496928 0.702499 0.996645
0.546949 0.702213 0.997703
0.748047 0.696452 0.884897
0.798119 0.696618 0.881659
0.848718 0.697043 0.881393
0.898756 0.696947 0.879379
0.948662 0.697281 0.878076
0.998258 0.697911 0.876233
0.00432206 0.747001 0.992174
0.0537643 0.747079 0.99075
0.102978 0.748673 0.999125
0.202525 0.752811 0.876677
0.252708 0.752831 0.877255
0.302299 0.752562 0.878644
0.352664 0.752574 0.878801
0.402303 0.752179 0.880977
0.452713 0.752022 0.88099
0.502503 0.751868 0.882888
0.552968 0.751746 0.882792
0.60289 0.751424 0.885792
0.654193 0.750659 0.88482
0.804424 0.74604 0.99815
0.854251 0.746246 0.996168
0.904585 0.746587 0.994997
0.954377 0.746746 0.994041
0.00417871 0.796569 0.993958
0.0538481 0.796692 0.992001
0.102927 0.8023 0.877555
0.153354 0.80308 0.877488
0.202948 0.803069 0.879273
0.253272 0.803145 0.879196
0.303076 0.802933 0.880687
0.353008 0.802715 0.881151
0.402984 0.802446 0.882708
0.453222 0.802263 0.882591
0.503012 0.802068 0.88479
0.553515 0.801992 0.885091
0.603231 0.80178 0.886953
0.653471 0.801865 0.888587
0.703197 0.796207 0.874019
0.854343 0.796162 0.998043
0.904168 0.796215 0.996577
0.954331 0.796618 0.995245
0.00411506 0.846574 0.99495
0.0539142 0.846554 0.99411
0.103384 0.852589 0.878448
0.153667 0.852905 0.879628
0.203399 0.852984 0.88094
0.253675 0.852802 0.881549
0.303667 0.852775 0.882416
0.353454 0.852602 0.88302
0.40353 0.852345 0.884374
0.453723 0.852102 0.88535
0.503508 0.851712 0.886781
0.553799 0.851761 0.887834
0.603909 0.851514 0.888935
0.653807 0.852139 0.889681
0.703356 0.846669 0.875379
0.853958 0.846053 0.999628
0.90406 0.84652 0.998352
0.954048 0.84649 0.99714
0.00360944 0.896277 0.997106
0.0538973 0.896456 0.996287
0.103511 0.902347 0.880766
0.153637 0.902962 0.881799
0.203798 0.903 0.883113
0.254075 0.903014 0.883334
0.30409 0.902812 0.884712
0.353921 0.902721 0.884794
0.404143 0.90244 0.886403
0.453987 0.902112 0.887287
0.503984 0.901824 0.888694
0.553926 0.901889 0.889827
0.603541 0.901653 0.890749
0.653781 0.901734 0.891528
0.703366 0.896716 0.877815
0.753628 0.8962 0.875636
0.803538 0.895916 0.874803
0.0534335 0.946953 -0.00112618
0.104495 0.952257 0.882679
0.154173 0.953525 0.884304
0.204444 0.953307 0.884466
0.254143 0.953281 0.885728
0.304513 0.952961 0.886374
0.354314 0.95297 0.887197
0.404552 0.952603 0.887953
0.454342 0.952721 0.889364
0.504452 0.952282 0.889692
0.554125 0.952055 0.890856
0.604006 0.95204 0.891895
0.653558 0.951947 0.892938
0.704253 0.948315 0.882326
0.753064 0.947143 0.876756
0.803547 0.946709 0.876999
0.853003 0.946824 0.875253
0.952852 0.946283 3.89334e-04
0.0483618 0.996976 0.884858
0.101073 0.999195 0.888451
0.747205 0.996024 0.892854
0.797866 0.996107 0.89119
0.84755 0.996469 0.889247
0.897839 0.996402 0.888757
0.947537 0.996939 0.886591
0.997915 0.996963 0.886298
0.0254953 0.0244147 0.556401
0.0759343 0.0249161 0.556136
0.126032 0.0257585 0.552864
0.176031 0.0253795 0.553803
0.226412 0.0253446 0.554419
0.276425 0.0251658 0.555892
0.326525 0.0250656 0.55613
0.376574 0.0247136 0.557595
0.426557 0.0245939 0.557934
0.476503 0.0244252 0.5588
0.526312 0.0243765 0.559514
0.576311 0.0241222 0.561661
0.626201 0.0239484 0.561754
0.675647 0.0237551 0.562791
0.725324 0.0232777 0.564112
0.775368 0.0232212 0.563805
0.825279 0.0233387 0.562564
0.87515 0.0236872 0.560134
0.925282 0.0237719 0.559062
0.975456 0.0241402 0.557884
0.0255419 0.0745336 0.556022
0.0757744 0.075263 0.554981
0.12576 0.0757421 0.55223
0.176128 0.0756163 0.552703
0.226363 0.075253 0.553531
0.276128 0.0749451 0.55501
0.326338 0.075009 0.555815
0.376233 0.0746766 0.556484
0.426403 0.0745995 0.557228
0.476286 0.0744729 0.558401
0.526199 0.0743126 0.558999
0.576067 0.0741221 0.560197
0.6261 0.0738893 0.560872
0.675947 0.0736056 0.562275
0.725466 0.0731574 0.563297
0.77534 0.0730487 0.562915
0.825352 0.0732717 0.5616
0.875356 0.07358 0.560265
0.925488 0.0737526 0.558529
0.975483 0.0741064 0.557529
0.0255785 0.124535 0.555484
0.0758768 0.125175 0.554324
0.125852 0.125816 0.552025
0.175972 0.125711 0.55219
0.225911 0.125358 0.552888
0.276076 0.125142 0.554065
0.326077 0.124796 0.555097
0.376039 0.124856 0.556245
0.426068 0.124622 0.556891
0.476133 0.124455 0.557781
0.526167 0.124284 0.558828
0.576339 0.124027 0.559775
0.626043 0.123759 0.560785
0.675985 0.123436 0.561281
0.725565 0.123101 0.56242
0.775433 0.123045 0.562625
0.825307 0.123297 0.561114
0.875672 0.123636 0.559828
0.925418 0.123896 0.558598
0.975549 0.124117 0.556903
0.0257153 0.174931 0.554889
0.0758626 0.175581 0.553669
0.125857 0.176185 0.551173
0.17592 0.175848 0.551532
0.226048 0.175584 0.552407
0.275953 0.175211 0.55355
0.325938 0.175025 0.55468
0.376004 0.174833 0.555444
0.426074 0.17475 0.556784
0.476031 0.174349 0.55765
0.526108 0.174329 0.558149
0.576107 0.174022 0.559227
0.626159 0.173671 0.560114
0.675894 0.173484 0.561092
0.725695 0.172879 0.561895
0.775378 0.172955 0.561837
0.825389 0.17323 0.560805
0.875293 0.173577 0.559265
0.925503 0.173756 0.558048
0.975477 0.174153 0.556622
0.0255042 0.224798 0.554512
0.0758235 0.225538 0.553432
0.125781 0.226267 0.551238
0.175976 0.226155 0.550764
0.226076 0.225815 0.552076
0.276004 0.225508 0.552944
0.325894 0.225062 0.553883
0.375995 0.224775 0.554821
0.425937 0.22457 0.556374
0.476023 0.224403 0.556939
0.525898 0.224224 0.557525
0.576076 0.223995 0.558333
0.626047 0.223543 0.559195
0.67607 0.223503 0.560079
0.725587 0.222948 0.56149
0.775411 0.222653 0.561316
0.825337 0.223282 0.560176
0.875389 0.223483 0.558812
0.925468 0.223878 0.557495
0.975478 0.224245 0.555925
0.775401 0.27262 0.56094
0.0254211 0.2749 0.554153
0.0755988 0.27573 0.552948
0.125679 0.276409 0.550524
0.175879 0.276007 0.55061
0.226009 0.275836 0.551348
0.275907 0.275488 0.552473
0.325967 0.275158 0.553503
0.375835 0.274738 0.554525
0.425969 0.274719 0.555689
0.475816 0.274425 0.555998
0.525867 0.274276 0.556609
0.575915 0.273967 0.558338
0.626114 0.273669 0.558495
0.676019 0.273273 0.559364
0.725638 0.27273 0.561048
0.825495 0.272979 0.559414
0.875277 0.273525 0.558187
0.925478 0.273886 0.556926
0.97529 0.274349 0.555699
0.0253442 0.324899 0.553207
0.075735 0.325602 0.55211
0.125631 0.326335 0.550059
0.175849 0.326295 0.549484
0.225856 0.325851 0.550802
0.275887 0.325525 0.551557
0.325971 0.325084 0.552833
0.376118 0.325007 0.553897
0.425759 0.324699 0.554895
0.475872 0.324493 0.555418
0.525918 0.324096 0.556001
0.576063 0.323955 0.557198
0.625902 0.32355 0.557703
0.675954 0.323263 0.558468
0.725456 0.322575 0.560298
0.775465 0.32267 0.560828
0.825335 0.323165 0.558902
0.875474 0.323538 0.557921
0.925304 0.323969 0.55618
0.975504 0.324403 0.555438
0.0252923 0.375013 0.553434
0.0754952 0.375734 0.551478
0.125545 0.376468 0.549294
0.175766 0.376019 0.549166
0.225774 0.375893 0.550098
0.275856 0.375427 0.551155
0.326029 0.375357 0.552214
0.375917 0.375012 0.553153
0.425893 0.374686 0.554225
0.475927 0.374417 0.554923
0.52595 0.374213 0.55586
0.575911 0.373869 0.556692
0.626018 0.373782 0.557371
0.675965 0.373235 0.558448
0.72561 0.372708 0.560072
0.775313 0.372822 0.559616
0.825364 0.373042 0.558143
0.875358 0.373483 0.557125
0.925326 0.373953 0.555833
0.974979 0.374427 0.554526
0.0250682 0.424905 0.552354
0.0754394 0.425555 0.550745
0.125352 0.426056 0.548928
0.1758 0.425959 0.548239
0.225727 0.425751 0.549534
0.275882 0.42562 0.550175
0.325895 0.425164 0.551485
0.375944 0.424951 0.552462
0.425926 0.424671 0.55304
0.475985 0.42462 0.554313
0.525935 0.424203 0.555117
0.576043 0.424036 0.555789
0.625823 0.423689 0.556483
0.675985 0.42334 0.557497
0.72547 0.422808 0.559324
0.775307 0.422468 0.558645
0.825178 0.423141 0.557799
0.875338 0.423685 0.556982
0.925187 0.423948 0.555283
0.975131 0.424328 0.553876
0.0250506 0.475061 0.551819
0.0754147 0.475514 0.550317
0.125398 0.476033 0.547912
0.175683 0.475768 0.547899
0.225704 0.475702 0.548731
0.275704 0.475457 0.54982
0.325797 0.475172 0.551343
0.375767 0.474926 0.552173
0.425883 0.474879 0.553061
0.475825 0.474538 0.553912
0.526036 0.474544 0.554529
0.576191 0.474136 0.555364
0.626136 0.473965 0.556088
0.675952 0.473458 0.557604
0.725425 0.472837 0.558825
0.775321 0.472757 0.558434
0.825134 0.473075 0.556846
0.875088 0.473781 0.55598
0.925222 0.474035 0.554521
0.975048 0.474451 0.55337
0.0252009 0.524783 0.550533
0.0754215 0.52534 0.549399
0.125372 0.526076 0.547476
0.175574 0.52594 0.547447
0.225596 0.52553 0.548276
0.275743 0.525474 0.549569
0.325723 0.524949 0.550934
0.375631 0.524853 0.551874
0.425629 0.524668 0.551971
0.475913 0.524662 0.553015
0.525805 0.524488 0.553743
0.575994 0.524125 0.554571
0.625988 0.523781 0.555737
0.675805 0.523604 0.556038
0.725375 0.523063 0.558042
0.775194 0.522789 0.557824
0.82507 0.523242 0.556271
0.875191 0.523632 0.555209
0.925117 0.523859 0.553741
0.975055 0.524336 0.552326
0.0252095 0.574707 0.550343
0.075336 0.575481 0.548908
0.125281 0.575951 0.546843
0.175624 0.575811 0.546917
0.225686 0.575552 0.548016
0.275657 0.575224 0.548974
0.32558 0.575014 0.549968
0.375492 0.574743 0.55115
0.425545 0.574867 0.551268
0.475535 0.574417 0.552417
0.525801 0.574419 0.553395
0.575924 0.574106 0.553905
0.625866 0.574033 0.55484
0.67599 0.573725 0.55592
0.725426 0.573058 0.557298
0.775277 0.572989 0.557185
0.825335 0.573303 0.555597
0.875205 0.573582 0.554336
0.925345 0.573941 0.553138
0.975095 0.574201 0.551698
0.0253364 0.624709 0.549403
0.0754016 0.62522 0.54847
0.125324 0.625745 0.546545
0.175572 0.625665 0.545885
0.225327 0.6255 0.547378
0.275418 0.625272 0.548404
0.325301 0.62508 0.549192
0.375373 0.624889 0.550384
0.425285 0.624637 0.551218
0.475299 0.624565 0.551926
0.525487 0.624365 0.552593
0.575702 0.624139 0.553609
0.625674 0.624086 0.55441
0.675812 0.624026 0.55494
0.725455 0.623501 0.556596
0.775383 0.623159 0.556342
0.825385 0.623494 0.555289
0.875264 0.623654 0.553337
0.925378 0.623939 0.552579
0.975272 0.624189 0.550735
0.0256346 0.67483 0.548912
0.0751839 0.675142 0.547055
0.125283 0.675524 0.546225
0.175434 0.675538 0.545617
0.225278 0.675655 0.546734
0.275105 0.675248 0.547752
0.325055 0.675308 0.549105
0.375027 0.675017 0.54947
0.42492 0.674771 0.550493
0.474868 0.674462 0.551598
0.525156 0.674385 0.552597
0.575249 0.674139 0.553019
0.625476 0.67417 0.554314
0.675837 0.673681 0.554314
0.725924 0.67359 0.55638
0.775605 0.673797 0.55541
0.825724 0.673716 0.554253
0.875681 0.673925 0.552881
0.925899 0.674202 0.55175
0.975478 0.67453 0.550545
0.0260416 0.72468 0.547236
0.0760085 0.725368 0.544869
0.124982 0.725219 0.54758
0.175508 0.725696 0.546643
0.225254 0.725743 0.547668
0.275098 0.725588 0.548531
0.325006 0.725538 0.549199
0.374858 0.725233 0.550485
0.424893 0.725079 0.550863
0.474964 0.724704 0.552069
0.524976 0.724566 0.55323
0.575104 0.724433 0.553587
0.625139 0.724444 0.554186
0.675224 0.723925 0.554167
0.726387 0.723749 0.554075
0.776271 0.72369 0.55402
0.826406 0.723968 0.552444
0.876512 0.723947 0.551306
0.926447 0.724206 0.549851
0.976325 0.724383 0.548675
0.0260399 0.774806 0.547756
0.0763511 0.774912 0.546881
0.125816 0.775401 0.548779
0.176087 0.775842 0.548797
0.225735 0.775772 0.549903
0.275559 0.775645 0.551029
0.325422 0.775462 0.551869
0.375505 0.775263 0.552905
0.425549 0.775035 0.553297
0.475539 0.774714 0.554777
0.525569 0.774601 0.555444
0.575698 0.774518 0.556204
0.625672 0.774392 0.557824
0.675653 0.774289 0.55687
0.725964 0.774156 0.55572
0.776163 0.773878 0.555016
0.826235 0.774154 0.553006
0.876531 0.774332 0.551799
0.926245 0.774492 0.551127
0.976355 0.774825 0.548745
0.0261815 0.824775 0.548908
0.0764048 0.824737 0.548405
0.126111 0.825302 0.550519
0.176436 0.825888 0.550533
0.226149 0.825924 0.551849
0.276313 0.82593 0.552918
0.326105 0.825775 0.553761
0.376248 0.825458 0.554336
0.426131 0.825199 0.555519
0.476208 0.825012 0.556162
0.52609 0.824617 0.557349
0.576311 0.82471 0.558434
0.626178 0.82462 0.559381
0.676149 0.824537 0.559298
0.725908 0.824247 0.55725
0.775776 0.823814 0.556226
0.826051 0.824158 0.554659
0.876098 0.82434 0.553538
0.926102 0.824624 0.55201
0.976043 0.824733 0.550774
0.0260978 0.874913 0.550498
0.0763671 0.874968 0.549892
0.126305 0.875325 0.551849
0.176592 0.876098 0.552368
0.226714 0.87614 0.553219
0.276788 0.875886 0.554399
0.326661 0.875844 0.555067
0.37677 0.875513 0.556413
0.426529 0.87537 0.557193
0.476606 0.87492 0.558148
0.526605 0.874821 0.559111
0.576395 0.874708 0.560705
0.626516 0.874808 0.561668
0.676377 0.874589 0.561453
0.725692 0.874152 0.559266
0.775741 0.874193 0.558316
0.825733 0.87408 0.556667
0.876039 0.874335 0.555215
0.925878 0.874516 0.553763
0.976052 0.87489 0.552352
0.0261216 0.924918 0.551893
0.0763405 0.924903 0.551267
0.126595 0.92518 0.552732
0.176768 0.92602 0.554165
0.226857 0.925909 0.555128
0.277027 0.925899 0.556016
0.327146 0.925683 0.556894
0.377066 0.925487 0.558008
0.427113 0.925277 0.558966
0.477039 0.925022 0.559725
0.526836 0.924829 0.560708
0.576709 0.924692 0.561785
0.626608 0.924618 0.5633
0.676703 0.924756 0.564074
0.725549 0.924527 0.562027
0.775671 0.923896 0.560854
0.825782 0.924098 0.558551
0.875676 0.924274 0.557704
0.925914 0.924554 0.556163
0.975911 0.924793 0.554188
0.0256451 0.974507 0.555262
0.0756174 0.975307 0.554271
0.126765 0.975768 0.553442
0.176735 0.975864 0.554369
0.226795 0.975789 0.555636
0.276992 0.975702 0.55657
0.326978 0.975529 0.557453
0.376989 0.975334 0.558378
0.426945 0.975162 0.559573
0.47692 0.974861 0.559656
0.526733 0.974861 0.561233
0.576616 0.974608 0.56285
0.626428 0.974733 0.563196
0.676341 0.974133 0.565731
0.725179 0.973773 0.563058
0.775379 0.973532 0.56349
0.825404 0.973458 0.561357
0.875302 0.973896 0.559759
0.925514 0.973935 0.558308
0.975539 0.974253 0.556605
0.0258666 0.0244932 0.685019
0.0755799 0.0255064 0.683365
0.126182 0.0257496 0.6827
0.176183 0.025489 0.68205
0.225962 0.02534 0.684103
0.276395 0.0253003 0.684741
0.326314 0.0252181 0.68611
0.376601 0.0250558 0.686084
0.426411 0.0247211 0.687637
0.476529 0.0246705 0.688325
0.525965 0.0243383 0.689468
0.57626 0.0243388 0.689941
0.625721 0.024027 0.692074
0.67628 0.023573 0.692507
0.72503 0.0233246 0.694255
0.775489 0.0234016 0.692406
0.825456 0.0234911 0.691031
0.875486 0.0238741 0.689754
0.925601 0.0240605 0.687906
0.975444 0.0242638 0.68674
0.0256886 0.074491 0.684705
0.0758991 0.0752235 0.683391
0.125859 0.0758592 0.681892
0.17595 0.0757701 0.681465
0.225897 0.0755446 0.683005
0.275885 0.0753188 0.683724
0.325969 0.0752753 0.684828
0.376165 0.0750397 0.685484
0.426153 0.0750654 0.686587
0.476082 0.0747493 0.687153
0.525992 0.0745192 0.688219
0.575997 0.0743364 0.688764
0.625809 0.0741181 0.690626
0.675964 0.0735929 0.690749
0.725264 0.0732666 0.692569
0.775637 0.0731518 0.69176
0.825446 0.073552 0.690689
0.87564 0.0736185 0.689392
0.92558 0.0740611 0.687465
0.975697 0.0742569 0.686294
0.0258774 0.124774 0.68434
0.0759386 0.125371 0.682908
0.125828 0.125859 0.681125
0.175896 0.125895 0.680782
0.225702 0.125621 0.682059
0.275802 0.12553 0.682664
0.325836 0.125108 0.684007
0.375943 0.124988 0.684892
0.425904 0.124844 0.685371
0.476045 0.124783 0.686399
0.525879 0.124509 0.687203
0.576019 0.124357 0.688368
0.625876 0.123978 0.689631
0.675921 0.123825 0.691076
0.725406 0.123109 0.691269
0.775569 0.123215 0.69147
0.825721 0.123363 0.690037
0.875597 0.123665 0.688555
0.925694 0.124061 0.68729
0.975863 0.124439 0.685819
0.0256812 0.174788 0.683459
0.0761817 0.175261 0.68178
0.125805 0.175975 0.680445
0.175804 0.176081 0.680396
0.225911 0.175755 0.68109
0.275731 0.175534 0.682369
0.325847 0.175241 0.683251
0.375719 0.175029 0.684211
0.425887 0.174862 0.68518
0.475766 0.174719 0.686027
0.525829 0.174526 0.686553
0.5757 0.174008 0.687694
0.62586 0.173863 0.688557
0.675811 0.173488 0.689338
0.725498 0.173241 0.690792
0.775575 0.173052 0.690791
0.825676 0.173284 0.689759
0.875692 0.173722 0.688014
0.925727 0.173966 0.686908
0.975731 0.174342 0.685445
0.0258444 0.224886 0.683436
0.0760152 0.225571 0.681816
0.125737 0.226116 0.680293
0.175776 0.226188 0.67982
0.225728 0.225784 0.680943
0.275771 0.225572 0.681547
0.325733 0.225236 0.682407
0.375731 0.225171 0.683504
0.425712 0.224833 0.685025
0.475832 0.224754 0.685748
0.525811 0.224317 0.685837
0.575913 0.224264 0.687029
0.625735 0.224014 0.688234
0.676016 0.223642 0.689363
0.725523 0.223066 0.690024
0.775594 0.223001 0.69068
0.825653 0.223252 0.689271
0.875541 0.223707 0.68746
0.925725 0.224023 0.686309
0.975632 0.224337 0.684945
0.725615 0.272968 0.689969
0.77559 0.272946 0.68991
0.825602 0.273246 0.688195
0.0255732 0.275023 0.682551
0.0758335 0.27532 0.680923
0.125737 0.276108 0.679632
0.175652 0.276293 0.679184
0.225773 0.276067 0.680113
0.275627 0.275661 0.681157
0.325619 0.275427 0.682157
0.375776 0.274991 0.683021
0.425624 0.27489 0.684157
0.475714 0.274701 0.684539
0.525834 0.274415 0.685144
0.575751 0.274003 0.686011
0.625942 0.273755 0.687108
0.675941 0.273276 0.688273
0.87557 0.273546 0.687008
0.925582 0.274034 0.685585
0.975674 0.274504 0.683788
0.0258018 0.325122 0.682234
0.0758008 0.325792 0.680968
0.125587 0.326226 0.679097
0.175692 0.326303 0.678834
0.225626 0.325989 0.679155
0.275785 0.3258 0.680356
0.325461 0.325293 0.681188
0.375709 0.325069 0.682409
0.425541 0.324861 0.683959
0.475582 0.32465 0.684216
0.525764 0.3244 0.685144
0.575885 0.324212 0.685949
0.625768 0.323958 0.687223
0.675956 0.323618 0.688427
0.725512 0.322822 0.689255
0.775485 0.322931 0.689376
0.82546 0.323391 0.687759
0.875414 0.323782 0.686934
0.925616 0.324014 0.685355
0.975571 0.324689 0.684108
0.0254541 0.374982 0.681518
0.0756302 0.375596 0.679691
0.125499 0.376351 0.678516
0.175553 0.376227 0.678007
0.225593 0.376032 0.679008
0.275573 0.375721 0.679627
0.325499 0.375512 0.681108
0.375666 0.375225 0.682015
0.425644 0.374914 0.682483
0.475637 0.374708 0.683145
0.525765 0.374506 0.68413
0.575522 0.374195 0.68517
0.625762 0.373832 0.685679
0.675734 0.373287 0.686998
0.72547 0.372951 0.688353
0.775462 0.372927 0.688516
0.825444 0.373456 0.687232
0.875472 0.373809 0.68638
0.925418 0.374056 0.685066
0.97544 0.374674 0.683209
0.0255539 0.425191 0.681248
0.0755828 0.425759 0.679566
0.125334 0.426101 0.678097
0.175641 0.42615 0.677522
0.225478 0.425767 0.678183
0.275547 0.425619 0.678759
0.325594 0.425278 0.680299
0.375702 0.425137 0.681137
0.425658 0.424997 0.681915
0.475668 0.424682 0.682897
0.525515 0.424535 0.683634
0.575796 0.424281 0.684647
0.625512 0.423955 0.68561
0.675807 0.423622 0.687442
0.725369 0.423111 0.688401
0.775268 0.423102 0.688294
0.8254 0.423253 0.686636
0.875453 0.423886 0.685252
0.925504 0.42418 0.684597
0.975407 0.424685 0.682939
0.0252949 0.474953 0.68054
0.0755932 0.475463 0.678588
0.125412 0.476203 0.677241
0.17528 0.476144 0.676288
0.225622 0.475927 0.677819
0.275315 0.475565 0.678403
0.325581 0.475383 0.679922
0.375455 0.475048 0.68077
0.425549 0.474978 0.681395
0.475624 0.474678 0.682234
0.52576 0.474652 0.683183
0.57573 0.474287 0.68408
0.625752 0.473928 0.685213
0.675616 0.473424 0.686167
0.725317 0.473089 0.687641
0.775421 0.472968 0.687824
0.825313 0.473398 0.686129
0.8754 0.473712 0.684974
0.925245 0.474294 0.683591
0.975465 0.47462 0.682635
0.025355 0.525062 0.680013
0.0754939 0.525555 0.678491
0.125451 0.525997 0.67653
0.175384 0.526044 0.676077
0.225343 0.525829 0.676923
0.275432 0.525652 0.678147
0.325359 0.525296 0.679173
0.37561 0.525188 0.680424
0.425494 0.524994 0.681069
0.475508 0.524994 0.681855
0.525501 0.524595 0.682894
0.575742 0.524474 0.683935
0.625679 0.524138 0.684813
0.675838 0.52377 0.686042
0.725328 0.523116 0.686914
0.775379 0.523324 0.686995
0.825421 0.523449 0.685562
0.875297 0.523901 0.68445
0.925332 0.524182 0.682754
0.975277 0.524647 0.681551
0.0253632 0.574788 0.678692
0.0757306 0.575386 0.677228
0.125328 0.575988 0.676202
0.175265 0.575917 0.675474
0.225356 0.575665 0.676479
0.2753 0.575515 0.677876
0.325496 0.575345 0.678964
0.375481 0.575095 0.6795
0.425506 0.575052 0.680484
0.47529 0.574706 0.681107
0.525499 0.574827 0.682174
0.575484 0.574303 0.682773
0.625724 0.574203 0.683846
0.675774 0.573568 0.684346
0.725387 0.57334 0.686734
0.775376 0.573357 0.686219
0.825253 0.573536 0.684884
0.875433 0.573742 0.683565
0.925291 0.574254 0.682057
0.975378 0.574447 0.680429
0.0254586 0.624821 0.678048
0.0756236 0.625536 0.677324
0.125024 0.625892 0.675387
0.175184 0.626071 0.674926
0.225162 0.625677 0.675976
0.275257 0.625567 0.677371
0.325153 0.625289 0.678141
0.375153 0.625168 0.678838
0.425175 0.624885 0.679904
0.4752 0.624779 0.680645
0.525331 0.624583 0.681342
0.575583 0.624608 0.68189
0.625552 0.624272 0.683175
0.675781 0.623716 0.684493
0.725468 0.623414 0.685482
0.775448 0.62341 0.685249
0.825362 0.623591 0.683665
0.875467 0.623964 0.682569
0.925472 0.624096 0.681173
0.975374 0.624418 0.680169
0.025432 0.675054 0.676897
0.0759245 0.675664 0.675173
0.124891 0.675929 0.673127
0.175133 0.675895 0.674237
0.225249 0.675761 0.67552
0.275009 0.67556 0.676895
0.325123 0.675343 0.677345
0.374895 0.675252 0.678122
0.424924 0.674984 0.679377
0.474877 0.67477 0.680135
0.525125 0.674652 0.681249
0.575223 0.674564 0.681785
0.625543 0.674396 0.683085
0.675299 0.673639 0.684502
0.725737 0.673517 0.685026
0.775613 0.67384 0.6844
0.825464 0.674093 0.682455
0.875934 0.674076 0.681642
0.925735 0.674491 0.679676
0.97584 0.67462 0.678986
0.0261089 0.724754 0.675799
0.076405 0.72538 0.676733
0.125222 0.725341 0.672827
0.175446 0.725862 0.67554
0.225289 0.725719 0.676519
0.275172 0.725611 0.677549
0.325022 0.725454 0.67821
0.375056 0.725268 0.679503
0.424971 0.725013 0.680261
0.47509 0.724767 0.681344
0.524894 0.724604 0.68243
0.575266 0.724448 0.682932
0.625156 0.724295 0.684078
0.675211 0.724343 0.684585
0.72612 0.724304 0.683168
0.776185 0.723654 0.68258
0.826395 0.723927 0.68159
0.876157 0.724038 0.680056
0.926263 0.724239 0.679115
0.976166 0.72447 0.677524
0.0260696 0.774839 0.675654
0.0761737 0.775081 0.676279
0.126347 0.775323 0.675761
0.175748 0.77558 0.678013
0.225852 0.775576 0.67813
0.275584 0.775529 0.679548
0.325556 0.77529 0.679982
0.375441 0.774937 0.681573
0.425614 0.774759 0.681865
0.475428 0.774598 0.683743
0.525804 0.774227 0.684061
0.575694 0.774392 0.68566
0.626178 0.774033 0.685721
0.675895 0.774092 0.686435
0.72572 0.773847 0.684121
0.77612 0.773584 0.683521
0.826078 0.773848 0.682182
0.876381 0.774177 0.680746
0.926297 0.774247 0.679614
0.976297 0.774578 0.677832
0.0263544 0.824878 0.67786
0.0762488 0.82501 0.677528
0.126083 0.82578 0.678243
0.176163 0.825943 0.679664
0.226117 0.825995 0.680462
0.275928 0.825637 0.681752
0.326189 0.825589 0.682287
0.376123 0.825082 0.68395
0.426127 0.824986 0.684187
0.476096 0.824644 0.685445
0.526206 0.824398 0.686445
0.575953 0.82422 0.687616
0.626214 0.824398 0.688812
0.676346 0.82398 0.688402
0.726118 0.823956 0.686102
0.775853 0.823708 0.684589
0.82615 0.823983 0.684106
0.875983 0.824126 0.682401
0.926281 0.824387 0.680927
0.976278 0.824546 0.679735
0.0264559 0.874746 0.680022
0.0763974 0.875096 0.679498
0.126226 0.875363 0.680919
0.176379 0.875938 0.681405
0.226549 0.875898 0.682301
0.27643 0.875664 0.683495
0.326481 0.875553 0.684368
0.376567 0.875276 0.685162
0.42662 0.874962 0.685946
0.47647 0.874773 0.686968
0.526336 0.874431 0.688176
0.576385 0.874482 0.689415
0.626447 0.874298 0.690798
0.676371 0.874271 0.689964
0.725974 0.873612 0.689064
0.775901 0.873711 0.686584
0.825995 0.873779 0.685675
0.876055 0.874178 0.683859
0.926108 0.874323 0.682927
0.976183 0.87479 0.68105
0.0264494 0.924952 0.682204
0.0760339 0.925137 0.680978
0.125976 0.925501 0.682953
0.176613 0.925909 0.683352
0.226729 0.925764 0.684114
0.276717 0.925679 0.685091
0.326791 0.925534 0.686337
0.376964 0.92526 0.687187
0.42693 0.92512 0.687989
0.476836 0.924861 0.688969
0.526679 0.924585 0.690253
0.576706 0.924492 0.690895
0.626425 0.924397 0.692581
0.676276 0.924115 0.69241
0.726372 0.923966 0.691924
0.775626 0.923848 0.689064
0.826025 0.923931 0.687984
0.875694 0.924121 0.685947
0.926058 0.924513 0.685382
0.975955 0.924607 0.683107
0.025631 0.974347 0.684113
0.0756397 0.974793 0.682914
0.126616 0.975097 0.683706
0.176499 0.975755 0.684379
0.226668 0.975795 0.68444
0.276719 0.975672 0.68593
0.32694 0.975517 0.686793
0.376801 0.975375 0.687577
0.42698 0.975154 0.688385
0.47686 0.97477 0.689089
0.526622 0.974706 0.690151
0.576452 0.974502 0.691029
0.626408 0.974395 0.692484
0.676592 0.973917 0.691536
0.725352 0.973888 0.694295
0.7756 0.973482 0.691491
0.825396 0.973689 0.690404
0.875635 0.973789 0.688662
0.925479 0.974018 0.687265
0.975764 0.974245 0.685948
0.0258994 0.0246451 0.814106
0.0763719 0.0250869 0.814058
0.126202 0.0254795 0.810948
0.175927 0.0254857 0.812434
0.226229 0.0255808 0.812078
0.276345 0.025396 0.81355
0.326386 0.0253575 0.814568
0.376471 0.0250835 0.815757
0.426518 0.025035 0.816004
0.476172 0.0247528 0.816908
0.526295 0.0247358 0.817694
0.575954 0.0243715 0.819021
0.626165 0.0242032 0.819519
0.675412 0.0238579 0.821783
0.725546 0.0237107 0.821555
0.775762 0.0235811 0.821674
0.825547 0.0238564 0.82003
0.875552 0.0240157 0.818408
0.925469 0.0242897 0.816589
0.975583 0.024367 0.815866
0.02606 0.0747778 0.813337
0.0760316 0.0754646 0.812966
0.12579 0.0756274 0.810718
0.175777 0.0758019 0.81078
0.225919 0.0756649 0.811419
0.275914 0.0756895 0.812729
0.326071 0.0754716 0.813433
0.376064 0.0753056 0.814756
0.426076 0.0751976 0.815288
0.476052 0.0748631 0.816376
0.526021 0.0747549 0.816966
0.575744 0.0746375 0.818333
0.625749 0.0743529 0.819112
0.675834 0.0739899 0.820672
0.725535 0.0734161 0.820921
0.775628 0.0734872 0.820815
0.825668 0.0737116 0.8193
0.875746 0.0741274 0.817924
0.925825 0.0742855 0.81666
0.975851 0.0745875 0.815069
0.026048 0.124838 0.813104
0.0760724 0.124992 0.811271
0.125704 0.126002 0.810025
0.175765 0.125969 0.809872
0.225712 0.125936 0.810768
0.275698 0.125701 0.811454
0.325713 0.125405 0.812704
0.375659 0.125222 0.813293
0.425908 0.125287 0.814156
0.475764 0.124984 0.815533
0.525898 0.124823 0.81623
0.575634 0.124401 0.817105
0.625695 0.124178 0.817927
0.675675 0.123598 0.818864
0.725514 0.123507 0.820198
0.775677 0.123376 0.820186
0.825734 0.123706 0.818704
0.875866 0.123841 0.817094
0.92595 0.124276 0.815978
0.976184 0.124513 0.814805
0.0260708 0.175033 0.813382
0.0762669 0.175627 0.811348
0.125718 0.175928 0.809482
0.1757 0.176173 0.809308
0.225574 0.175888 0.8102
0.275711 0.175762 0.810936
0.325664 0.175496 0.811953
0.375413 0.175409 0.81271
0.425547 0.175261 0.813454
0.475582 0.175095 0.814678
0.525678 0.174734 0.815379
0.575734 0.17449 0.816101
0.625596 0.174145 0.817388
0.67594 0.173925 0.818971
0.725675 0.173263 0.819701
0.775571 0.173398 0.820054
0.825773 0.173413 0.81829
0.875899 0.173859 0.816834
0.926118 0.174246 0.815459
0.975923 0.174633 0.814084
0.0259812 0.224949 0.811612
0.0762078 0.225307 0.810082
0.125627 0.22636 0.809113
0.175597 0.226157 0.80868
0.225585 0.226027 0.809377
0.275457 0.225695 0.810061
0.325499 0.22563 0.810755
0.375553 0.22526 0.812571
0.425649 0.225116 0.813002
0.475518 0.224884 0.813901
0.525611 0.22488 0.814755
0.575539 0.224314 0.81556
0.625727 0.224117 0.816676
0.675726 0.223467 0.817794
0.725579 0.223256 0.819131
0.77578 0.223237 0.818906
0.825611 0.223569 0.817673
0.875889 0.22388 0.81633
0.925933 0.224228 0.814953
0.975983 0.224616 0.81342
0.725497 0.273146 0.818453
0.775587 0.273066 0.819038
0.0259091 0.275208 0.811785
0.0757117 0.275796 0.810442
0.12547 0.276272 0.808393
0.175583 0.276376 0.808493
0.22562 0.276145 0.808991
0.275571 0.27573 0.809912
0.32549 0.275486 0.810506
0.375489 0.275411 0.811827
0.425447 0.275108 0.812775
0.475772 0.27495 0.813309
0.525561 0.274537 0.814259
0.575588 0.274335 0.815498
0.625349 0.273964 0.816467
0.675872 0.27354 0.818055
0.825817 0.273312 0.817027
0.875811 0.273835 0.815787
0.925877 0.274157 0.814687
0.975709 0.274838 0.813075
0.0258834 0.325171 0.811114
0.0758662 0.325553 0.809128
0.125528 0.326195 0.807909
0.175413 0.326236 0.80774
0.225541 0.326185 0.808412
0.275289 0.325916 0.809293
0.325445 0.32558 0.80998
0.375472 0.3252 0.811181
0.425573 0.325051 0.812075
0.475454 0.324778 0.812768
0.525669 0.324561 0.81301
0.575465 0.32417 0.814585
0.625456 0.32387 0.815973
0.67561 0.32348 0.816602
0.725468 0.323122 0.817715
0.775724 0.323011 0.818067
0.825677 0.323429 0.816416
0.875677 0.323772 0.815393
0.925777 0.324324 0.813943
0.976039 0.324691 0.812308
0.025908 0.375175 0.8107
0.0758579 0.37591 0.808777
0.125458 0.376189 0.807045
0.175514 0.376367 0.807053
0.225391 0.376069 0.807939
0.275311 0.375792 0.80887
0.325443 0.375505 0.809367
0.375345 0.375308 0.810834
0.425529 0.375039 0.811408
0.475444 0.374879 0.812488
0.525435 0.374523 0.812619
0.575537 0.374333 0.814126
0.625467 0.373949 0.815419
0.675679 0.373605 0.816571
0.725593 0.372936 0.817399
0.775509 0.373143 0.817498
0.825529 0.373399 0.816488
0.875531 0.373929 0.81442
0.925684 0.37433 0.813092
0.975694 0.374864 0.812206
0.0255404 0.425219 0.80942
0.0757362 0.425671 0.807656
0.125453 0.426312 0.806627
0.175474 0.426395 0.806092
0.225429 0.425993 0.806826
0.275238 0.425836 0.807877
0.325457 0.425589 0.809155
0.375419 0.425226 0.80984
0.425422 0.425188 0.810883
0.475369 0.425004 0.811622
0.525514 0.424719 0.81218
0.57553 0.424386 0.813307
0.62544 0.424024 0.814363
0.675486 0.423422 0.815433
0.725522 0.423103 0.816897
0.775548 0.42311 0.816767
0.825543 0.423487 0.815698
0.875556 0.423976 0.814299
0.925485 0.424495 0.813026
0.975692 0.424771 0.811402
0.0256009 0.47517 0.809424
0.0756075 0.475848 0.808061
0.12535 0.476108 0.805892
0.175222 0.476256 0.80557
0.225108 0.475967 0.80621
0.275438 0.475712 0.807436
0.325339 0.475476 0.808366
0.375426 0.475372 0.809505
0.425365 0.47505 0.809976
0.475452 0.474956 0.810851
0.525495 0.474653 0.812044
0.575545 0.474455 0.812839
0.625564 0.474228 0.814317
0.675502 0.47376 0.815665
0.725334 0.473185 0.816433
0.775345 0.473425 0.816429
0.825433 0.473458 0.815021
0.875372 0.474169 0.813545
0.925499 0.474353 0.812346
0.975486 0.474909 0.811306
0.0253436 0.525201 0.808688
0.0755857 0.525534 0.806852
0.125264 0.5263 0.805465
0.175163 0.526062 0.804916
0.225183 0.525969 0.805817
0.275221 0.525705 0.807395
0.325253 0.525554 0.808186
0.375167 0.525314 0.808762
0.425313 0.525254 0.809529
0.475378 0.524911 0.810457
0.525381 0.524848 0.811607
0.57536 0.524483 0.812324
0.625525 0.524273 0.813524
0.675566 0.52371 0.814217
0.725377 0.523323 0.81569
0.775514 0.523148 0.815636
0.825382 0.523681 0.814586
0.875448 0.524153 0.812719
0.925364 0.524412 0.81162
0.975498 0.5247 0.810565
0.0255508 0.57517 0.808436
0.0755182 0.575642 0.806491
0.125165 0.575958 0.805024
0.175186 0.576108 0.804298
0.225101 0.575821 0.805227
0.275226 0.575721 0.806531
0.325261 0.575503 0.807709
0.375137 0.575439 0.808526
0.425192 0.575265 0.809171
0.475305 0.575065 0.81007
0.52509 0.574921 0.810811
0.575376 0.574772 0.811954
0.625326 0.574415 0.813046
0.675682 0.57403 0.814308
0.725393 0.57334 0.81501
0.775444 0.573371 0.815031
0.825463 0.57375 0.813297
0.875318 0.57417 0.812281
0.925576 0.57434 0.811043
0.975403 0.57493 0.809636
0.0255212 0.625103 0.807161
0.0755316 0.62527 0.804773
0.125196 0.625941 0.804346
0.174992 0.625972 0.803369
0.225101 0.625816 0.805032
0.275056 0.625574 0.806226
0.325153 0.625501 0.806733
0.374859 0.625404 0.807753
0.425067 0.625269 0.808698
0.475151 0.625007 0.809631
0.52512 0.624759 0.810263
0.575245 0.624575 0.810562
0.62535 0.624486 0.811993
0.675593 0.623874 0.813196
0.725401 0.623678 0.81472
0.775428 0.62349 0.81469
0.825428 0.623951 0.812764
0.875501 0.624032 0.811027
0.925574 0.624575 0.809694
0.975583 0.624651 0.808529
0.0259115 0.675267 0.806376
0.0751282 0.675379 0.803673
0.12535 0.675811 0.803374
0.175105 0.675998 0.803053
0.225028 0.675825 0.803955
0.274932 0.675813 0.805329
0.324835 0.675491 0.806213
0.374778 0.675513 0.807337
0.424767 0.675105 0.808455
0.475005 0.675039 0.808986
0.524772 0.674684 0.809652
0.574998 0.674676 0.8107
0.62504 0.674461 0.812263
0.675924 0.674349 0.811588
0.725836 0.673685 0.814082
0.775322 0.674001 0.812944
0.825819 0.67414 0.811825
0.875546 0.674308 0.810439
0.925895 0.674424 0.808859
0.975821 0.674812 0.807072
0.0260455 0.724639 0.805176
0.0763426 0.725236 0.801396
0.124952 0.725503 0.804812
0.175348 0.725948 0.804053
0.225251 0.726013 0.805074
0.275031 0.72571 0.806648
0.325031 0.725561 0.806871
0.375026 0.725361 0.808348
0.425022 0.725148 0.809148
0.474904 0.724774 0.810052
0.525053 0.724605 0.810578
0.575146 0.724491 0.812234
0.625198 0.72456 0.81255
0.675289 0.723772 0.813353
0.726432 0.723758 0.813471
0.776286 0.723496 0.812778
0.826317 0.723759 0.810723
0.876313 0.723865 0.809414
0.926361 0.724026 0.807468
0.976252 0.724442 0.806493
0.0262773 0.774609 0.805037
0.0767695 0.774634 0.802851
0.12533 0.775098 0.804548
0.175872 0.775462 0.805665
0.225398 0.775666 0.807632
0.27578 0.775423 0.808327
0.325245 0.775246 0.809381
0.375626 0.774965 0.809955
0.42524 0.774752 0.811734
0.475566 0.774426 0.811866
0.525429 0.774416 0.813592
0.576061 0.774021 0.814055
0.625625 0.774127 0.816101
0.675995 0.774022 0.815373
0.726204 0.773885 0.814707
0.776219 0.773609 0.81251
0.826372 0.773839 0.810811
0.876443 0.773992 0.809577
0.92647 0.774317 0.808303
0.976398 0.774466 0.806805
0.0263615 0.824544 0.806772
0.0763944 0.824864 0.806174
0.125809 0.82499 0.807969
0.176076 0.825517 0.808867
0.22593 0.825573 0.809979
0.27596 0.825564 0.810226
0.325991 0.825263 0.811262
0.375914 0.825139 0.812041
0.425932 0.824898 0.813377
0.476035 0.824648 0.813921
0.526 0.824415 0.815532
0.576101 0.824301 0.816008
0.62621 0.824258 0.817848
0.676206 0.824222 0.817093
0.725989 0.823849 0.81611
0.776203 0.823642 0.814457
0.826116 0.823811 0.812416
0.87628 0.824262 0.811343
0.926228 0.82445 0.809931
0.976511 0.824505 0.808274
0.0260067 0.874678 0.808751
0.0763379 0.874905 0.80868
0.126028 0.875412 0.809224
0.176258 0.875708 0.810495
0.226254 0.875555 0.81155
0.276319 0.875408 0.81226
0.326291 0.875464 0.813256
0.376443 0.875218 0.814049
0.426348 0.875011 0.815286
0.476508 0.874607 0.81615
0.52625 0.874478 0.817179
0.576436 0.874307 0.818441
0.626283 0.874343 0.819337
0.676494 0.874122 0.818725
0.726024 0.874052 0.817203
0.776243 0.873825 0.815792
0.826071 0.873771 0.814592
0.876187 0.874014 0.813398
0.926172 0.874324 0.81172
0.976335 0.874323 0.810567
0.0261007 0.924792 0.810712
0.0760539 0.92495 0.810599
0.12627 0.925074 0.810631
0.176262 0.925496 0.812293
0.226637 0.925588 0.813516
0.276609 0.925556 0.814198
0.326805 0.92536 0.814971
0.37687 0.925329 0.816396
0.426858 0.924901 0.817187
0.476685 0.925038 0.818464
0.52671 0.92451 0.819299
0.576491 0.924341 0.820137
0.626347 0.924275 0.82121
0.676657 0.924366 0.821663
0.725429 0.924251 0.819342
0.776265 0.923946 0.818854
0.825798 0.924036 0.816326
0.876 0.924303 0.8155
0.925715 0.924378 0.813783
0.976232 0.924615 0.812688
0.0258247 0.974682 0.813913
0.0755654 0.975478 0.813793
0.12676 0.975429 0.812024
0.176614 0.975654 0.812535
0.226618 0.975665 0.813626
0.27675 0.975417 0.814572
0.32677 0.975414 0.815418
0.377018 0.975239 0.81644
0.426785 0.975192 0.817138
0.476967 0.974873 0.818371
0.526731 0.974746 0.819248
0.576514 0.97454 0.82021
0.62621 0.974471 0.820872
0.676385 0.973877 0.82368
0.725149 0.973951 0.81965
0.775698 0.973783 0.820743
0.825662 0.973623 0.818555
0.875356 0.974121 0.817512
0.92548 0.974258 0.815761
0.975682 0.974411 0.814941
0.0259214 0.0248826 0.942941
0.075993 0.0252316 0.94186
0.126285 0.0255265 0.940823
0.176293 0.0256167 0.940325
0.226136 0.025655 0.941098
0.276347 0.025702 0.941985
0.326249 0.0255333 0.94286
0.376525 0.0252883 0.944111
0.426463 0.0251768 0.945021
0.476426 0.0250129 0.946044
0.526185 0.0247736 0.946427
0.576113 0.0247324 0.947849
0.625701 0.0243615 0.94885
0.675893 0.023926 0.94833
0.725403 0.0236956 0.950621
0.775654 0.0237265 0.949994
0.825532 0.0240173 0.948791
0.87559 0.024226 0.947098
0.925536 0.0246906 0.946058
0.975508 0.0247664 0.944329
0.0260684 0.0749304 0.942935
0.0759861 0.0753537 0.941452
0.125976 0.075839 0.939901
0.175875 0.0761227 0.939104
0.225719 0.0760533 0.940718
0.27578 0.0758365 0.941232
0.326 0.0756916 0.942398
0.376101 0.0754881 0.942996
0.425947 0.0754925 0.944503
0.476033 0.0752713 0.944817
0.525818 0.0751345 0.946006
0.575624 0.0746716 0.947177
0.625494 0.0744277 0.947924
0.675787 0.0738807 0.948428
0.725474 0.0735299 0.950152
0.775673 0.073739 0.949363
0.825827 0.0740556 0.948241
0.875821 0.0743416 0.946816
0.925908 0.0745299 0.945302
0.975998 0.0748428 0.944227
0.0263549 0.125151 0.942444
0.0761281 0.125379 0.941188
0.125712 0.125905 0.939012
0.175551 0.126495 0.938979
0.225433 0.126142 0.939445
0.275575 0.126069 0.940664
0.325515 0.125729 0.941542
0.375715 0.125798 0.942464
0.425693 0.125548 0.943474
0.475676 0.125457 0.944239
0.525454 0.124928 0.945147
0.575506 0.124721 0.946333
0.625474 0.124461 0.947402
0.67572 0.123912 0.947955
0.725617 0.123342 0.949405
0.775734 0.123649 0.949159
0.825826 0.12383 0.947525
0.876093 0.124144 0.945901
0.926029 0.12451 0.944611
0.976329 0.124746 0.943395
0.0262969 0.175038 0.9417
0.0762995 0.175489 0.939941
0.125718 0.176182 0.937967
0.175428 0.176251 0.938517
0.225585 0.176301 0.939093
0.275513 0.175837 0.940001
0.325488 0.17568 0.940869
0.375447 0.175622 0.941788
0.42548 0.175543 0.942641
0.475357 0.175265 0.943021
0.52544 0.175041 0.944416
0.575478 0.174705 0.945508
0.625495 0.174203 0.946672
0.67565 0.173683 0.947528
0.725629 0.173178 0.948964
0.775855 0.173344 0.948575
0.826008 0.173771 0.947035
0.87612 0.174147 0.945334
0.926345 0.174443 0.944234
0.97621 0.17481 0.942678
0.0261061 0.22525 0.940917
0.076004 0.225574 0.939868
0.125618 0.226375 0.937519
0.175271 0.226652 0.937862
0.22531 0.226275 0.938984
0.275364 0.226057 0.939541
0.325278 0.225846 0.940015
0.375433 0.225676 0.941129
0.42544 0.22536 0.94182
0.47546 0.225098 0.942868
0.525279 0.224831 0.943731
0.575357 0.224631 0.944883
0.625389 0.22432 0.946244
0.675612 0.2237 0.946459
0.725753 0.223051 0.948514
0.775992 0.223283 0.948203
0.826054 0.223739 0.946431
0.876224 0.224082 0.944889
0.926176 0.224392 0.943626
0.976217 0.224828 0.942425
0.0263208 0.275344 0.940299
0.0760295 0.275837 0.938907
0.125557 0.276345 0.937328
0.175287 0.276555 0.936592
0.225442 0.276174 0.938097
0.275363 0.276 0.938523
0.325245 0.275818 0.93989
0.37524 0.275478 0.940404
0.425517 0.275345 0.941615
0.475251 0.274957 0.942168
0.52539 0.274778 0.943526
0.575191 0.274371 0.944412
0.625349 0.274127 0.945041
0.675675 0.273635 0.945938
0.725518 0.272915 0.947856
0.775764 0.27333 0.947027
0.826044 0.273646 0.946273
0.876057 0.274001 0.944462
0.926154 0.274465 0.943245
0.976155 0.274871 0.941554
0.0260339 0.325527 0.940361
0.0761603 0.325734 0.93864
0.125585 0.326269 0.936964
0.175337 0.32649 0.936433
0.225098 0.326154 0.937647
0.275431 0.326121 0.93826
0.325173 0.325754 0.939099
0.375345 0.325586 0.940183
0.425182 0.325298 0.940565
0.475314 0.325041 0.94148
0.525231 0.324752 0.94259
0.575216 0.324536 0.943498
0.625223 0.324127 0.94468
0.675597 0.323523 0.945769
0.725617 0.322992 0.947188
0.775884 0.323259 0.946843
0.825935 0.323751 0.945583
0.87617 0.324086 0.944025
0.925958 0.324633 0.942461
0.976078 0.324991 0.941326
0.0259994 0.375421 0.939259
0.0759153 0.375826 0.937583
0.125359 0.376511 0.936174
0.17516 0.37657 0.936
0.225106 0.376274 0.937174
0.275122 0.376017 0.937571
0.325325 0.375863 0.938724
0.375261 0.375511 0.939105
0.425344 0.375374 0.940191
0.475222 0.375062 0.94074
0.525293 0.37484 0.941442
0.575024 0.374469 0.942944
0.62528 0.374124 0.94387
0.675539 0.373484 0.944788
0.72555 0.372984 0.946427
0.775789 0.373323 0.945816
0.825901 0.373581 0.944894
0.875904 0.374202 0.943434
0.925991 0.374568 0.941813
0.976031 0.375063 0.940391
0.0258278 0.425366 0.938872
0.0758532 0.425846 0.937555
0.125399 0.426364 0.935388
0.175226 0.42667 0.935201
0.22501 0.426252 0.936205
0.275105 0.426029 0.936781
0.325223 0.425735 0.937895
0.375354 0.425552 0.938713
0.425319 0.425246 0.939356
0.475308 0.425195 0.94014
0.525068 0.424957 0.941096
0.575248 0.424675 0.942236
0.625225 0.424106 0.943438
0.675423 0.423644 0.9439
0.725386 0.423187 0.945786
0.775776 0.423175 0.94562
0.825664 0.423801 0.944399
0.875894 0.424178 0.942913
0.925667 0.424688 0.941709
0.97593 0.425158 0.94037
0.0258789 0.475385 0.938654
0.0757984 0.475887 0.937107
0.125328 0.476396 0.934871
0.175077 0.47641 0.934698
0.225127 0.476236 0.935886
0.275166 0.475899 0.936365
0.325157 0.475733 0.937029
0.375195 0.47547 0.937743
0.425379 0.475419 0.938622
0.475031 0.474982 0.939637
0.525102 0.474943 0.94094
0.575095 0.474687 0.942169
0.625308 0.474137 0.942753
0.675475 0.473543 0.943756
0.725463 0.473065 0.945551
0.775647 0.473374 0.944957
0.825721 0.473861 0.943786
0.875602 0.474343 0.942238
0.925861 0.47475 0.940779
0.975801 0.475121 0.93989
0.0257804 0.52546 0.938043
0.0757207 0.525859 0.936517
0.125237 0.526331 0.934542
0.175065 0.526547 0.933878
0.224984 0.526068 0.934885
0.275091 0.526 0.935657
0.325146 0.525785 0.936653
0.37518 0.525516 0.937518
0.425152 0.525329 0.938647
0.475129 0.525198 0.939571
0.524979 0.525014 0.940487
0.575159 0.524781 0.941567
0.625251 0.524233 0.942484
0.675492 0.523884 0.943201
0.725436 0.523177 0.945137
0.775719 0.523392 0.944786
0.825696 0.523943 0.943147
0.875678 0.524224 0.941543
0.925546 0.524849 0.94033
0.975827 0.525057 0.939166
0.0258062 0.575344 0.936784
0.0756953 0.575603 0.934944
0.125278 0.576231 0.933291
0.175094 0.576333 0.933382
0.225007 0.576023 0.934635
0.274912 0.575888 0.935234
0.32501 0.575715 0.936499
0.37497 0.575503 0.937035
0.425029 0.575387 0.937908
0.474991 0.575176 0.93905
0.524997 0.575105 0.939673
0.575196 0.574748 0.940951
0.625163 0.574322 0.94153
0.675498 0.573772 0.942812
0.725526 0.573303 0.944752
0.775634 0.573506 0.943958
0.825784 0.57392 0.942342
0.87556 0.57438 0.940917
0.925739 0.574657 0.939756
0.975809 0.575013 0.938703
0.0258198 0.62533 0.936079
0.0757296 0.625742 0.934946
0.125088 0.626136 0.932519
0.175142 0.626293 0.932501
0.224959 0.625976 0.933704
0.274906 0.626019 0.934618
0.324834 0.625607 0.93599
0.374908 0.625746 0.936632
0.424802 0.625209 0.937509
0.474751 0.625308 0.938503
0.524857 0.625012 0.939433
0.574975 0.624871 0.940438
0.62521 0.624633 0.94147
0.675311 0.623961 0.942332
0.725458 0.623401 0.943814
0.775754 0.623476 0.943413
0.825736 0.624261 0.941523
0.875781 0.624344 0.940199
0.925608 0.624724 0.938801
0.975873 0.62501 0.93765
0.0258565 0.675304 0.935118
0.0760393 0.675678 0.933452
0.124819 0.67621 0.931328
0.17498 0.676186 0.932363
0.224827 0.675992 0.933239
0.274754 0.67579 0.934666
0.324617 0.675609 0.935462
0.374533 0.675561 0.936002
0.424635 0.675426 0.936912
0.474521 0.675113 0.937911
0.524892 0.675042 0.938905
0.574753 0.674742 0.939864
0.625259 0.67444 0.941506
0.675355 0.674026 0.943
0.72561 0.673583 0.943899
0.775704 0.673805 0.942753
0.825901 0.674234 0.94079
0.876008 0.674404 0.939558
0.925953 0.674577 0.938059
0.97591 0.67489 0.936835
0.0262536 0.724741 0.933244
0.0765137 0.725034 0.932987
0.125329 0.725462 0.930808
0.175147 0.72588 0.932975
0.225067 0.725825 0.933885
0.274903 0.725773 0.934967
0.324765 0.725549 0.93604
0.374793 0.725399 0.937241
0.424597 0.725075 0.937945
0.474815 0.724961 0.938776
0.524875 0.724679 0.939582
0.575109 0.724617 0.940485
0.625246 0.724559 0.942404
0.675478 0.724244 0.94269
0.726205 0.723631 0.94234
0.776228 0.723488 0.940879
0.826481 0.723717 0.9394
0.876456 0.724022 0.937825
0.926524 0.724158 0.936682
0.976288 0.724334 0.935511
0.0265589 0.774421 0.93374
0.0764302 0.774733 0.933345
0.125964 0.775239 0.935158
0.175661 0.775439 0.935993
0.225529 0.775449 0.936239
0.275419 0.775334 0.937607
0.325209 0.775069 0.93846
0.375258 0.775069 0.940163
0.425366 0.774662 0.940191
0.475284 0.77448 0.941787
0.525626 0.774195 0.942136
0.575567 0.774118 0.943779
0.626006 0.774103 0.944175
0.676007 0.774247 0.944745
0.726169 0.773728 0.942261
0.776524 0.773461 0.941362
0.826608 0.773643 0.940205
0.876696 0.773751 0.938583
0.926751 0.774018 0.937172
0.976644 0.774272 0.935472
0.0264763 0.824366 0.935754
0.076386 0.824719 0.935612
0.125889 0.825142 0.936907
0.175763 0.825451 0.937912
0.225767 0.825415 0.938809
0.275867 0.825403 0.939468
0.32585 0.825121 0.94026
0.375734 0.824977 0.941022
0.42586 0.82467 0.942133
0.47562 0.824396 0.943422
0.525993 0.824194 0.944593
0.575886 0.824243 0.945869
0.625909 0.824103 0.946646
0.676212 0.824242 0.94625
0.726088 0.82392 0.944214
0.776388 0.823611 0.943068
0.826429 0.823728 0.941797
0.876373 0.823786 0.94018
0.926455 0.824086 0.939166
0.976482 0.824145 0.937524
0.0264015 0.874364 0.937664
0.0762483 0.874748 0.937321
0.125987 0.875323 0.938949
0.175916 0.875333 0.940026
0.2262 0.875296 0.940347
0.276147 0.875292 0.941211
0.326232 0.875185 0.942169
0.376187 0.874926 0.942706
0.42637 0.874538 0.944017
0.476323 0.874394 0.944944
0.526256 0.874193 0.946276
0.576189 0.874077 0.947383
0.626022 0.874281 0.948505
0.676292 0.874188 0.948047
0.726228 0.873732 0.945661
0.776289 0.8736 0.944841
0.826238 0.873737 0.943808
0.876216 0.87394 0.942081
0.926378 0.874027 0.941155
0.976196 0.87432 0.93911
0.0263349 0.924673 0.940345
0.0760124 0.924992 0.939058
0.126034 0.925087 0.941473
0.176385 0.925368 0.941192
0.226613 0.925422 0.942268
0.276525 0.925412 0.94314
0.326712 0.925229 0.944245
0.376726 0.925019 0.944444
0.426924 0.924792 0.945569
0.476644 0.924671 0.946453
0.526516 0.924416 0.94804
0.576307 0.924401 0.948925
0.626117 0.924244 0.950054
0.67616 0.924029 0.949476
0.726353 0.923845 0.948421
0.77598 0.923995 0.946217
0.825976 0.923983 0.945541
0.875693 0.924065 0.944061
0.925831 0.924302 0.942547
0.976096 0.924347 0.941321
0.0256564 0.974574 0.942724
0.0756451 0.974945 0.942861
0.126753 0.97525 0.942454
0.176754 0.975638 0.942534
0.226785 0.975687 0.942807
0.276845 0.97561 0.943554
0.326938 0.975571 0.944407
0.376985 0.97507 0.945432
0.426831 0.97518 0.946209
0.477033 0.974901 0.947434
0.526739 0.974652 0.948138
0.576455 0.974634 0.949375
0.626266 0.974373 0.950278
0.67657 0.973768 0.949594
0.725471 0.974047 0.951578
0.775564 0.973776 0.949423
0.825495 0.973983 0.948343
0.875324 0.974139 0.94659
0.925284 0.974367 0.945095
0.975459 0.974513 0.943795
0.0306377 0.024184 0.00558786
0.0015418 0.0247198 0.0586222
0.0288942 0.00129715 0.0710035
0.0519955 0.0289874 0.0704454
0.0747802 0.0302196 0.00456872
0.0757713 9.91542e-04 0.0571229
0.102104 0.023868 0.0544833
0.13173 0.0268209 0.00469462
0.151724 0.0252832 0.0751486
0.173635 0.0205827 0.00651493
0.202088 0.0221784 0.0602619
0.231834 0.0266469 0.00716196
0.252263 0.0258613 0.077672
0.274201 0.0206146 0.00820958
0.302473 0.0218317 0.0622437
0.352306 0.0255358 0.0796587
0.33202 0.0264147 0.00924529
0.374367 0.0204768 0.0100714
0.402373 0.0213961 0.0642802
0.431954 0.0259705 0.0110758
0.452208 0.0251563 0.0814635
0.474344 0.0200289 0.0115896
0.502115 0.0211672 0.0661971
0.531624 0.0257166 0.0131956
0.573788 0.0196925 0.013941
0.55193 0.024869 0.083674
0.631589 0.025276 0.0145372
0.601882 0.0209926 0.0676535
0.651604 0.0247338 0.0855627
0.673734 0.0183856 0.0155047
0.701287 0.0198279 0.0685982
0.730838 0.0219944 0.0135686
0.751556 0.0273799 0.0786999
0.77463 0.0285038 0.012208
0.80157 0.0238905 0.0643486
0.851361 0.0279856 0.0751232
0.830171 0.0232686 0.0108052
0.901446 0.0241607 0.0613018
0.874529 0.0288076 0.00950112
0.874852 1.00039 0.0629246
0.951437 0.0284354 0.072881
0.930234 0.0238271 0.00823778
0.928801 4.79366e-04 0.0736132
0.974719 0.0296758 0.00662928
0.974837 0.00102686 0.0595608
0.0257103 0.0510095 0.0581102
0.00181348 0.0786003 0.0709425
0.0252657 0.0793673 0.00538592
0.0801482 0.0509987 0.0709892
0.0521063 0.0746951 0.0570854
0.0806776 0.0732236 0.00398914
0.125547 0.0500595 0.0725281
0.101679 0.0789462 0.0694497
0.123929 0.0714252 0.00437242
0.129968 0.0773671 0.124929
0.151448 0.0729704 0.0607131
0.178842 0.0498167 0.0621789
0.180129 0.0771602 0.00551686
0.201465 0.0761996 0.0741353
0.224589 0.0711136 0.00681717
0.225684 0.0496307 0.075708
0.251692 0.072436 0.0634972
0.279557 0.0496351 0.0641149
0.301916 0.076024 0.0755327
0.280071 0.0769072 0.00754431
0.326031 0.0495551 0.0776749
0.351963 0.0721424 0.0655077
0.324984 0.0707466 0.00821046
0.379673 0.04928 0.0662824
0.401797 0.0757194 0.0782431
0.380573 0.0767321 0.00938722
0.425927 0.0493383 0.0789546
0.42476 0.0707149 0.0103211
0.45196 0.0719683 0.0673691
0.479545 0.0489727 0.0675791
0.480352 0.0764489 0.0113514
0.501737 0.0753254 0.0800948
0.525586 0.0487859 0.0813294
0.524517 0.0703905 0.0126614
0.579183 0.0487395 0.0699404
0.580012 0.0759414 0.013522
0.551598 0.0715866 0.0693139
0.625431 0.0484467 0.0822359
0.624577 0.0703697 0.0141494
0.601667 0.0748558 0.0819308
0.651783 0.070888 0.0706044
0.679504 0.0479029 0.0684434
0.680384 0.0761813 0.0145394
0.701507 0.0748904 0.0833628
0.725252 0.0488995 0.0662079
0.725098 0.0775259 0.0134184
0.751845 0.0729959 0.0660259
0.779469 0.049629 0.0767844
0.801714 0.0774286 0.0757083
0.78007 0.0727973 0.0120224
0.825113 0.0787494 0.0105806
0.825364 0.0500925 0.0630738
0.851649 0.0738315 0.0624912
0.879367 0.0502503 0.0735883
0.901667 0.0784002 0.0731473
0.880354 0.0736502 0.00933887
0.925349 0.0506062 0.0605824
0.925184 0.0790478 0.00786822
0.951853 0.0743989 0.0600833
0.979302 0.0506657 0.0712192
0.980764 0.073946 0.00640608
0.0299062 0.1009 0.0694425
0.00213901 0.124454 0.0577446
0.0308477 0.124419 0.00467329
0.0755683 0.101177 0.0550286
0.0521448 0.128905 0.0688953
0.0746742 0.130577 0.0033641
0.0801934 0.12413 0.124879
0.128944 0.10069 0.0581538
0.1017 0.124523 0.0544725
0.130404 0.128407 0.00372846
0.175286 0.100331 0.0746237
0.151273 0.126528 0.0736236
0.174084 0.121429 0.0050578
0.201418 0.122832 0.0613663
0.229079 0.10002 0.0627461
0.230295 0.127177 0.00627417
0.25144 0.126206 0.075439
0.274239 0.12096 0.00722379
0.275476 0.0999999 0.0761386
0.301738 0.122155 0.0633177
0.329375 0.0997215 0.0645007
0.351505 0.126008 0.0770082
0.330567 0.127014 0.00783436
0.375533 0.0998174 0.0777273
0.374336 0.121135 0.008633
0.401551 0.122183 0.0651276
0.429305 0.0994058 0.0663877
0.43055 0.12678 0.00971099
0.451466 0.125643 0.0790009
0.475542 0.0995176 0.0796312
0.47423 0.120712 0.0104842
0.501506 0.121724 0.0675432
0.528822 0.0992136 0.0685552
0.530298 0.126394 0.0117035
0.575359 0.098935 0.0818276
0.57419 0.119925 0.012502
0.551345 0.125075 0.0806597
0.629005 0.0986287 0.0704678
0.630406 0.125548 0.0135896
0.60135 0.121065 0.0690276
0.674687 0.118216 0.0143611
0.651716 0.124383 0.082663
0.675387 0.0981625 0.0853401
0.70166 0.119791 0.0690238
0.729558 0.0986688 0.0790482
0.730595 0.121549 0.012958
0.751819 0.126614 0.0772358
0.775136 0.128219 0.0114697
0.775708 0.0994721 0.0645049
0.801802 0.123384 0.0630263
0.829542 0.0999154 0.0749835
0.851857 0.127756 0.0740512
0.830495 0.123036 0.00981089
0.875589 0.100292 0.0615284
0.902042 0.12405 0.0605042
0.875236 0.128787 0.0086309
0.929725 0.10043 0.071985
0.930678 0.123743 0.0070992
0.952008 0.128468 0.0715561
0.975832 0.100738 0.0584639
0.975293 0.129591 0.00601066
0.025831 0.151078 0.0577234
0.00215322 0.178885 0.069177
0.0251041 0.179487 0.00398623
0.0798913 0.151432 0.0693768
0.0519888 0.174925 0.0556411
0.0806765 0.173521 0.00229661
0.0750589 0.180255 0.124109
0.125177 0.150834 0.0724412
0.101425 0.179566 0.0689473
0.123517 0.171923 0.0034897
0.129758 0.177798 0.124207
0.151293 0.173072 0.0595983
0.178518 0.150364 0.0609777
0.180222 0.177728 0.0047171
0.201342 0.176393 0.0734398
0.22507 0.150263 0.0742951
0.224149 0.171428 0.00532941
0.251458 0.172462 0.0618091
0.279192 0.149866 0.0631787
0.301402 0.176201 0.075362
0.280188 0.177167 0.00638659
0.325234 0.149896 0.0767577
0.324242 0.170933 0.007274
0.35146 0.172201 0.063807
0.378958 0.149758 0.0652165
0.380194 0.176905 0.00796361
0.401371 0.17593 0.077186
0.425277 0.149608 0.0782758
0.424168 0.170953 0.0091458
0.451342 0.17201 0.0667493
0.478934 0.149425 0.0667758
0.480216 0.17647 0.0100556
0.501256 0.175563 0.0791593
0.525068 0.149261 0.0801772
0.524224 0.170292 0.0105543
0.578835 0.148842 0.0683853
0.580143 0.176094 0.0121286
0.551437 0.171324 0.0681036
0.625344 0.148334 0.0813896
0.624429 0.16975 0.0129598
0.601471 0.174783 0.0810066
0.651435 0.170764 0.0694525
0.67938 0.147955 0.0673838
0.680429 0.176093 0.0135137
0.70167 0.174582 0.0824918
0.725366 0.177087 0.0122584
0.725686 0.148512 0.0658134
0.752019 0.172714 0.0647027
0.77963 0.149296 0.0760687
0.801846 0.177187 0.0746249
0.780296 0.172436 0.0108927
0.825813 0.149699 0.0619463
0.852117 0.173502 0.0610914
0.825091 0.178323 0.00938965
0.879885 0.150027 0.0725266
0.90196 0.177843 0.0721574
0.880875 0.173114 0.00749067
0.92579 0.150441 0.0594809
0.952319 0.174337 0.058639
0.925306 0.178899 0.00681753
0.980167 0.150852 0.0704108
0.981004 0.173931 0.00511323
0.0298749 0.201142 0.0684283
0.00222735 0.224557 0.0560288
0.0311048 0.224537 0.00326622
0.0752994 0.201384 0.0532369
0.0801682 0.224066 0.123295
0.1288 0.200951 0.0573246
0.101378 0.224613 0.0531325
0.124548 0.222608 0.123778
0.174963 0.200656 0.0731372
0.173779 0.221792 0.0040226
0.15108 0.227004 0.0722911
0.179471 0.22699 0.124947
0.201163 0.22305 0.0608658
0.228879 0.200064 0.0613678
0.251228 0.226458 0.0742031
0.275122 0.200187 0.0747858
0.301397 0.222406 0.0626316
0.274142 0.221264 0.00552064
0.328976 0.1999 0.0635778
0.351219 0.226095 0.0753992
0.330099 0.227156 0.006394
0.375182 0.199927 0.0764858
0.374198 0.220899 0.00717606
0.401432 0.222295 0.06424
0.42905 0.199684 0.0652193
0.451217 0.225721 0.077993
0.430194 0.226691 0.00829464
0.475045 0.19932 0.0784744
0.474092 0.220385 0.00928561
0.501256 0.221427 0.0662183
0.52883 0.198982 0.0673283
0.52987 0.226191 0.0106277
0.575147 0.198773 0.0808824
0.574073 0.219999 0.01122
0.551192 0.224954 0.0796452
0.628877 0.198359 0.0691126
0.601183 0.220917 0.068534
0.630048 0.225464 0.012178
0.674656 0.218252 0.0131901
0.675248 0.198025 0.0834789
0.651734 0.224391 0.0809775
0.701629 0.219476 0.0678053
0.729523 0.198351 0.0781649
0.730689 0.221237 0.0118455
0.752008 0.226409 0.0760042
0.77572 0.199095 0.0632631
0.802094 0.222864 0.0616517
0.775343 0.227804 0.0103495
0.829769 0.199577 0.0732766
0.830758 0.222779 0.00875801
0.875791 0.19986 0.0595523
0.902105 0.223899 0.0586846
0.929919 0.200336 0.0707464
0.930648 0.223792 0.00614926
0.952121 0.228392 0.0701654
0.97602 0.200779 0.0569907
0.0255357 0.251247 0.0563279
0.0518574 0.229363 0.0676539
0.0797974 0.251609 0.0686384
0.0745353 0.230782 0.00207292
0.124616 0.251007 0.0712518
0.129902 0.22859 0.00261293
0.123426 0.272033 0.00257962
0.178651 0.25058 0.0595528
0.224933 0.250458 0.0735518
0.22388 0.27166 0.00420864
0.229985 0.227462 0.00505406
0.278797 0.250043 0.0617246
0.325028 0.249824 0.0750995
0.324081 0.271034 0.00621647
0.351195 0.272198 0.0625541
0.378727 0.249564 0.0634284
0.42512 0.249646 0.0766439
0.424048 0.270636 0.0077021
0.451344 0.271593 0.0643289
0.478891 0.249207 0.0649544
0.525109 0.248966 0.0789459
0.52404 0.270208 0.0100367
0.578809 0.248615 0.0673035
0.551259 0.271107 0.0667265
0.625285 0.248401 0.0796941
0.624221 0.269708 0.0112143
0.679463 0.247738 0.0665331
0.651533 0.270371 0.0685062
0.725759 0.248202 0.0643626
0.752047 0.272222 0.063204
0.779903 0.249032 0.0745195
0.851975 0.227539 0.0728499
0.825784 0.24961 0.0610684
0.875204 0.228788 0.00709064
0.879648 0.249852 0.0716356
0.925929 0.250381 0.0583593
0.975288 0.229629 0.00479545
0.980121 0.250747 0.0692014
0.0298071 0.301337 0.0667475
0.00187499 0.279018 0.068487
0.0249474 0.279635 0.00311128
0.0300819 0.274949 0.124245
0.0520308 0.275108 0.0550556
0.0750808 0.301568 0.0523434
0.0751277 0.280469 0.123203
0.10145 0.279878 0.0679387
0.128879 0.301128 0.0565304
0.129675 0.278113 0.123041
0.151133 0.273154 0.0578157
0.174799 0.30073 0.0722836
0.180049 0.277923 0.00355242
0.201152 0.27678 0.073065
0.228782 0.30045 0.0605119
0.251173 0.272691 0.060783
0.301289 0.276287 0.0743424
0.274959 0.300158 0.0735899
0.279972 0.27717 0.00482993
0.328744 0.299813 0.0624081
0.380105 0.276886 0.00711363
0.401226 0.275901 0.0762231
0.375064 0.299696 0.0757008
0.429035 0.299332 0.063941
0.480087 0.276455 0.00843642
0.474986 0.299079 0.0776678
0.501195 0.275426 0.0781978
0.528739 0.298805 0.066151
0.579954 0.275808 0.0109294
0.574931 0.298693 0.0791864
0.601174 0.274683 0.079944
0.628729 0.298328 0.067486
0.675378 0.297775 0.0820209
0.680598 0.275848 0.0124096
0.674682 0.317957 0.0118357
0.701673 0.274395 0.081565
0.725225 0.277081 0.0111188
0.729778 0.298101 0.0766219
0.780547 0.272118 0.00937672
0.775801 0.298942 0.0617194
0.801934 0.27712 0.0737469
0.85198 0.273467 0.0597385
0.825231 0.27828 0.00846412
0.82985 0.299584 0.0723506
0.880754 0.273221 0.00691849
0.901994 0.278062 0.0709629
0.875687 0.299951 0.0586613
0.952065 0.274198 0.0570081
0.929908 0.300365 0.0695681
0.924952 0.27904 0.00565735
0.980874 0.27414 0.00386047
0.975495 0.300869 0.0563155
0.0253029 0.351418 0.0551699
0.0019778 0.324949 0.0554998
0.0253718 0.329265 0.123922
0.0305785 0.324783 0.00234494
0.0519066 0.329572 0.0665477
0.0795458 0.351669 0.0675225
0.0798513 0.324285 0.122415
0.0744514 0.331114 0.00112902
0.10141 0.324804 0.0523304
0.124719 0.351134 0.0698951
0.12999 0.328583 0.0016226
0.124552 0.32281 0.122452
0.151226 0.327408 0.0712584
0.17877 0.350497 0.0585398
0.173727 0.321601 0.00268388
0.17959 0.327242 0.123779
0.201222 0.322792 0.0588849
0.224923 0.35041 0.0719849
0.224676 0.32225 0.125026
0.251225 0.326519 0.0730115
0.230103 0.327676 0.00351002
0.274145 0.321423 0.00444585
0.301249 0.322473 0.061062
0.278764 0.350043 0.061149
0.279489 0.32657 0.125768
0.324974 0.349973 0.0738828
0.351167 0.325959 0.0747704
0.330046 0.327024 0.00571931
0.374024 0.320959 0.00640822
0.40134 0.32171 0.0635557
0.378907 0.349566 0.0628729
0.424883 0.349433 0.0758531
0.451255 0.325575 0.0762684
0.429911 0.326648 0.00718228
0.474045 0.320362 0.00814253
0.478881 0.349152 0.0643163
0.501253 0.321432 0.06502
0.524864 0.348957 0.077552
0.529977 0.326042 0.00914027
0.573844 0.319676 0.010198
0.551092 0.325129 0.0786745
0.57868 0.348663 0.0658885
0.601186 0.320934 0.0665717
0.629982 0.325405 0.0106482
0.625164 0.348216 0.0784086
0.651464 0.324197 0.0796033
0.679338 0.347607 0.0653643
0.701715 0.319624 0.0666486
0.725664 0.348366 0.0635005
0.730721 0.321144 0.0105106
0.751827 0.326476 0.074434
0.774981 0.327903 0.0091684
0.779754 0.34901 0.0737228
0.801977 0.322985 0.0608978
0.825691 0.349606 0.0595305
0.851923 0.327561 0.0718365
0.830657 0.322873 0.00763994
0.879782 0.349974 0.0706181
0.902011 0.324068 0.0583861
0.87513 0.328696 0.00645021
0.925698 0.350625 0.0571403
0.951816 0.328477 0.0690221
0.930735 0.323952 0.00480675
0.97955 0.350833 0.0677629
0.97495 0.329537 0.00362882
0.0298337 0.401337 0.0655403
0.00185854 0.379037 0.0673583
0.02999 0.374884 0.123165
0.024838 0.379894 1.00172
0.0518054 0.375189 0.0533668
0.0749518 0.401546 0.0513566
0.0749248 0.380563 0.122325
0.101292 0.379737 0.0665956
0.128691 0.401112 0.0548124
0.129447 0.378301 0.122041
0.151015 0.373387 0.0571255
0.174803 0.400804 0.0711406
0.174438 0.372213 0.123111
0.179878 0.377795 0.00251457
0.201099 0.376956 0.071725
0.223846 0.371729 0.00344877
0.228604 0.40046 0.059418
0.251262 0.372871 0.0598651
0.22943 0.376935 0.124289
0.275016 0.400182 0.0726678
0.301142 0.376415 0.0730994
0.279911 0.377289 0.00418405
0.274892 0.37196 0.125101
0.328872 0.399842 0.0602502
0.351263 0.372213 0.0612889
0.323842 0.370776 0.00461416
0.375118 0.399601 0.0742868
0.401242 0.375708 0.0747206
0.380218 0.376749 0.00556549
0.428817 0.399377 0.0626426
0.451186 0.3717 0.0632294
0.423951 0.370488 0.00654781
0.47475 0.399244 0.0760824
0.480168 0.376294 0.0075636
0.501166 0.375482 0.0771194
0.528629 0.399026 0.0641972
0.523885 0.37007 0.00840564
0.579977 0.376015 0.00906461
0.551217 0.371271 0.0650544
0.575029 0.398662 0.0776429
0.60121 0.374565 0.0780465
0.628724 0.398192 0.0664349
0.624198 0.369727 0.0100332
0.651543 0.370492 0.0663754
0.67521 0.397798 0.0812429
0.680511 0.37559 0.0112281
0.701533 0.374317 0.0807926
0.725173 0.37704 0.0100108
0.729621 0.398298 0.0753732
0.752069 0.372366 0.0618114
0.775727 0.398988 0.0610669
0.780538 0.372308 0.00817826
0.801789 0.377061 0.0725285
0.824925 0.378141 0.00741683
0.829641 0.399571 0.0714395
0.851987 0.373613 0.0590923
0.875552 0.399995 0.0579161
0.901816 0.378091 0.0696952
0.880783 0.373212 0.00573283
0.929651 0.400396 0.0684654
0.951925 0.374564 0.0561053
0.924996 0.379246 0.00410185
0.975602 0.400944 0.0549485
0.980693 0.374217 0.00275144
0.975364 0.37903 0.124082
0.0254278 0.451209 0.0543777
0.00173879 0.424893 0.0545027
0.0252522 0.429133 0.122631
0.0303671 0.424931 0.00128131
0.0518869 0.429383 0.0652862
0.0796965 0.451659 0.0669628
0.0800389 0.424178 0.121105
0.0742845 0.431138 0.999534
0.101074 0.424777 0.0509392
0.124515 0.451111 0.0687587
0.124327 0.422854 0.121473
0.150994 0.427322 0.0703097
0.17848 0.45059 0.0574917
0.179456 0.42741 0.122542
0.173771 0.421856 1.00168
0.201087 0.423037 0.0578596
0.22476 0.450427 0.0707539
0.224731 0.422443 0.123551
0.251117 0.426583 0.0715718
0.230061 0.427571 0.00278423
0.27388 0.421221 0.00305672
0.278836 0.450021 0.0591076
0.301188 0.422434 0.0593116
0.279435 0.42646 0.124465
0.324884 0.449828 0.0728236
0.351184 0.426006 0.0728522
0.330041 0.427132 0.00368045
0.378784 0.449636 0.0609499
0.401234 0.422021 0.0622005
0.374115 0.420851 0.00491144
0.424715 0.449503 0.0748805
0.430197 0.426608 0.00604556
0.451038 0.425739 0.0758859
0.478771 0.449152 0.0632295
0.474092 0.420386 0.00693817
0.501092 0.421387 0.0636773
0.529874 0.426272 0.0078452
0.524767 0.448951 0.0765653
0.551146 0.425084 0.0771414
0.578774 0.448704 0.0646467
0.573826 0.419788 0.00840397
0.630075 0.425376 0.00969672
0.601067 0.420889 0.0652399
0.624938 0.448353 0.0776291
0.651373 0.424154 0.0784321
0.674389 0.418022 0.010787
0.679196 0.447764 0.0638475
0.701478 0.419406 0.0652493
0.72555 0.44837 0.0624993
0.730519 0.42131 0.00924962
0.751638 0.42641 0.0736223
0.774857 0.427775 0.00806952
0.779437 0.449019 0.0721201
0.801733 0.423144 0.0600209
0.825427 0.449579 0.0582524
0.851534 0.427636 0.0703802
0.830169 0.422943 0.00664038
0.901952 0.424054 0.0572593
0.879487 0.449986 0.0693673
0.87507 0.428696 0.00530643
0.951749 0.428584 0.0677726
0.925511 0.450641 0.0557314
0.930442 0.423719 0.00347751
0.979567 0.450843 0.0671756
0.975057 0.42973 0.00245285
0.979671 0.42409 0.123717
0.0299452 0.47481 0.122363
0.00172293 0.478991 0.066524
0.0518579 0.475045 0.0527186
0.0747623 0.48057 0.120584
0.101173 0.479748 0.0651052
0.1294 0.478033 0.120923
0.123223 0.472046 0.999762
0.150955 0.473196 0.0560133
0.17454 0.472331 0.121981
0.179915 0.477811 0.00123896
0.200924 0.476652 0.0698237
0.223733 0.47153 0.00195368
0.251191 0.472504 0.0584738
0.229195 0.476768 0.122834
0.301019 0.47629 0.0724579
0.27992 0.477294 0.00243118
0.274687 0.471817 0.123571
0.351185 0.471998 0.0599726
0.323721 0.470973 0.00327328
0.401127 0.475902 0.0735374
0.379882 0.476746 0.00421454
0.451056 0.471641 0.0623662
0.423923 0.470439 0.00516824
0.479746 0.476357 0.006426
0.474821 0.499249 0.0749524
0.501054 0.475439 0.0756708
0.523817 0.470109 0.00710499
0.528493 0.498972 0.0634595
0.580133 0.475836 0.00837572
0.551016 0.471249 0.0640408
0.574786 0.498811 0.076844
0.624068 0.469706 0.009036
0.60107 0.47491 0.0774064
0.628704 0.498278 0.0651198
0.651432 0.470573 0.0658767
0.675339 0.49772 0.0797178
0.680432 0.475622 0.00967843
0.701456 0.474333 0.0792032
0.724945 0.477164 0.00902825
0.729539 0.498352 0.0747334
0.751579 0.47265 0.0608322
0.780187 0.472539 0.00727672
0.80157 0.477181 0.0714516
0.775467 0.499183 0.0599342
0.824829 0.478549 0.00615711
0.851598 0.473505 0.0573594
0.829449 0.499745 0.0705654
0.901725 0.47812 0.0684719
0.880321 0.473419 0.00454251
0.951755 0.474539 0.055003
0.924861 0.479167 0.00294312
0.975035 0.479025 0.123122
0.980547 0.474174 0.0019346
0.0297011 0.5012 0.0648861
0.0250619 0.5292 0.121567
0.00179433 0.524765 0.0534398
0.0748389 0.501572 0.0500947
0.0518099 0.52956 0.0644551
0.0799998 0.524114 0.120097
0.128709 0.501017 0.054108
0.101214 0.524469 0.0498757
0.12431 0.522647 0.120204
0.174742 0.500702 0.0695704
0.150968 0.527111 0.0689684
0.179337 0.527132 0.121299
0.201003 0.522847 0.0567277
0.22449 0.521959 0.122327
0.228658 0.500326 0.0581634
0.251008 0.526391 0.0706172
0.229832 0.527497 0.00125576
0.274858 0.500041 0.0711579
0.301126 0.522267 0.0588986
0.2793 0.526594 0.123044
0.32876 0.499669 0.0598808
0.35102 0.525845 0.0725724
0.329926 0.52684 0.00326984
0.324622 0.521537 0.124096
0.374622 0.499592 0.0729951
0.401014 0.521803 0.060515
0.373949 0.520731 0.00361907
0.379428 0.526138 0.124993
0.428839 0.499333 0.061394
0.450965 0.525747 0.0745528
0.429811 0.526542 0.00467083
0.47377 0.520373 0.00591691
0.501048 0.521698 0.0627136
0.529768 0.526256 0.00660605
0.573933 0.519868 0.00762904
0.551069 0.525084 0.0754039
0.601129 0.520989 0.0643883
0.630151 0.525426 0.00836655
0.651506 0.524303 0.0769263
0.674578 0.518091 0.00941281
0.701506 0.519682 0.0644769
0.730605 0.521437 0.00864268
0.75182 0.526611 0.0726529
0.774926 0.528066 0.0068942
0.801727 0.523257 0.0586742
0.85156 0.527794 0.0693828
0.830268 0.523054 0.00539013
0.875316 0.500041 0.0564174
0.901608 0.524087 0.0553079
0.874754 0.528865 0.00395633
0.879644 0.523542 0.12494
0.929338 0.500571 0.0672278
0.951574 0.528571 0.0663661
0.93032 0.523821 0.00260261
0.92494 0.528605 0.123943
0.975291 0.500936 0.0539063
0.979663 0.524333 0.122369
0.0251801 0.551364 0.0527941
0.00176189 0.578974 0.0649885
0.0298273 0.574802 0.120904
0.0248365 0.579745 0.999252
0.0797099 0.551582 0.0652479
0.0515673 0.574903 0.0512826
0.0746648 0.58038 0.119479
0.124507 0.551011 0.0675754
0.10108 0.579792 0.0639613
0.129405 0.577823 0.119706
0.150924 0.573248 0.0548211
0.178523 0.550513 0.0561752
0.174302 0.571985 0.120911
0.200958 0.576702 0.0691299
0.22467 0.550352 0.0699971
0.250933 0.572356 0.0569318
0.229188 0.576623 0.121565
0.278646 0.549891 0.0577575
0.30071 0.576217 0.0705746
0.279589 0.577112 0.0014134
0.274264 0.571471 0.122683
0.324704 0.549826 0.0713751
0.351078 0.572075 0.0589116
0.323712 0.570807 0.00250006
0.32905 0.57611 0.12324
0.378524 0.549491 0.0598447
0.400635 0.575795 0.0729324
0.379929 0.576779 0.00346574
0.374463 0.571337 0.124563
0.424689 0.549508 0.0735044
0.451015 0.571648 0.0611894
0.423706 0.570524 0.00443915
0.429092 0.57596 0.125301
0.478502 0.549298 0.0617171
0.47958 0.576479 0.00563011
0.500877 0.575592 0.0749522
0.524894 0.549233 0.0752078
0.523702 0.570499 0.00630291
0.578661 0.548663 0.0631595
0.551066 0.571386 0.0625802
0.579824 0.576105 0.0073998
0.625113 0.548484 0.0767711
0.601112 0.574924 0.0763707
0.624069 0.569948 0.00811155
0.679313 0.547849 0.0630384
0.651454 0.570683 0.0647905
0.680453 0.575951 0.0088046
0.70164 0.57449 0.0783577
0.725154 0.577501 0.00781323
0.725461 0.548519 0.0610941
0.751811 0.572619 0.0598716
0.779695 0.549324 0.071236
0.801588 0.577496 0.0705325
0.78036 0.572639 0.0061254
0.825323 0.549798 0.0570876
0.851456 0.573765 0.0564114
0.824566 0.578689 0.00461537
0.879262 0.550123 0.0683428
0.901576 0.578304 0.0673215
0.880194 0.573476 0.0033157
0.874925 0.578179 0.12425
0.925346 0.550536 0.0546341
0.951783 0.574376 0.0533613
0.929645 0.573924 0.122985
0.92446 0.579252 0.00191716
0.979584 0.550949 0.06588
0.974922 0.579 0.121809
0.0295837 0.601188 0.0635329
0.00167752 0.624499 0.0519169
0.0252089 0.629159 0.119899
0.0747262 0.601394 0.0485536
0.0515842 0.629342 0.0624424
0.0794323 0.623769 0.118826
0.128467 0.600914 0.0528327
0.101048 0.624263 0.048985
0.124323 0.622571 0.119072
0.174675 0.600558 0.0683593
0.15078 0.626953 0.0672667
0.178938 0.626889 0.120162
0.17375 0.62153 0.999078
0.200899 0.622887 0.055972
0.224445 0.622062 0.121317
0.22842 0.600173 0.0568628
0.250746 0.626345 0.0693644
0.274524 0.600032 0.07018
0.30095 0.622227 0.057779
0.279028 0.626279 0.122093
0.273759 0.621135 7.45113e-04
0.328483 0.59978 0.0580235
0.35071 0.626126 0.0717899
0.329803 0.62713 0.00224796
0.32416 0.621474 0.123115
0.374393 0.599723 0.0722621
0.40063 0.621982 0.0598399
0.373438 0.620907 0.00318285
0.379061 0.626127 0.124232
0.428418 0.599399 0.0604212
0.450608 0.625571 0.0729087
0.429457 0.626601 0.00371466
0.424235 0.621198 0.124991
0.474479 0.599304 0.0744775
0.473656 0.620257 0.00493162
0.500714 0.621514 0.0615626
0.5285 0.599257 0.0622518
0.529519 0.626287 0.0057272
0.574861 0.598922 0.0757699
0.57377 0.619897 0.00662075
0.550632 0.625454 0.0751081
0.628552 0.598496 0.0641127
0.600922 0.621407 0.0634938
0.629702 0.625674 0.00773384
0.675487 0.597975 0.0785158
0.6517 0.624662 0.0766741
0.674711 0.61854 0.00832176
0.701572 0.619955 0.0632668
0.729575 0.59851 0.0733991
0.730774 0.621577 0.00737996
0.751895 0.626801 0.0719082
0.775107 0.627964 0.0058713
0.775329 0.599237 0.0593093
0.801725 0.623181 0.0577294
0.829581 0.599797 0.0692271
0.851573 0.628038 0.0676798
0.83002 0.623044 0.00395733
0.875147 0.600269 0.0553297
0.901623 0.623872 0.0551344
0.874894 0.628943 0.00265765
0.879416 0.623639 0.123961
0.929489 0.60052 0.0665306
0.951609 0.628315 0.0648015
0.925235 0.628557 0.122729
0.929996 0.62345 0.00109177
0.975407 0.600794 0.0517852
0.979495 0.624026 0.121237
0.0252789 0.651019 0.0507921
0.0306297 0.674341 0.119287
0.0018148 0.678702 0.0654829
0.0797906 0.651241 0.0641947
0.0516062 0.673977 0.0483935
0.0740145 0.680256 0.117817
0.124402 0.650711 0.0666525
0.129607 0.677921 0.118142
0.100928 0.679608 0.0634976
0.150779 0.672813 0.0527618
0.178368 0.650296 0.0546896
0.173998 0.672171 0.119543
0.200656 0.67648 0.0687695
0.224394 0.650223 0.0687104
0.229215 0.676782 0.12062
0.250737 0.672469 0.0559261
0.274074 0.671654 0.121319
0.278294 0.649848 0.0571092
0.300493 0.676188 0.0700912
0.279617 0.67728 1.00061
0.324378 0.649901 0.070609
0.350438 0.672342 0.0582187
0.32868 0.67653 0.122545
0.32322 0.671075 0.00165711
0.378268 0.649632 0.0589958
0.400453 0.676083 0.071887
0.373996 0.671545 0.123482
0.37949 0.677052 0.00284956
0.424266 0.64958 0.0722774
0.450433 0.671829 0.0600823
0.423237 0.670798 0.00336373
0.428617 0.676134 0.124394
0.478187 0.649248 0.0605773
0.479266 0.676688 0.00460535
0.500415 0.675623 0.0740944
0.524201 0.649184 0.0745944
0.523397 0.670411 0.00543897
0.578184 0.64897 0.06246
0.550579 0.671577 0.0618324
0.579831 0.676177 0.00651704
0.62516 0.64883 0.0760723
0.623968 0.670015 0.00769502
0.600955 0.675056 0.0766204
0.651425 0.67126 0.0637149
0.679198 0.648181 0.062684
0.680723 0.675866 0.0086186
0.701881 0.67491 0.07877
0.725693 0.648871 0.0596323
0.724122 0.678101 0.00755433
0.751601 0.673335 0.0579761
0.779639 0.649598 0.0700797
0.801894 0.677964 0.0713198
0.781185 0.672359 0.0050668
0.825294 0.650065 0.0561191
0.851815 0.673297 0.0537115
0.823999 0.678815 0.00322242
0.8797 0.650176 0.0669822
0.901752 0.678182 0.0686369
0.874387 0.678402 0.12374
0.881237 0.672889 0.00155613
0.925331 0.650503 0.0535598
0.951756 0.673677 0.0507647
0.930655 0.673428 0.122223
0.923836 0.679103 1.0004
0.979602 0.650778 0.0647347
0.974338 0.679014 0.120892
0.980953 0.673594 0.999044
0.0296918 0.700449 0.0637938
9.85851e-04 0.723835 0.0681527
0.0742024 0.700511 0.0449773
0.0740088 0.722941 0.117628
0.128653 0.700386 0.0497049
0.100786 0.722579 0.0530813
0.124747 0.720996 0.117724
0.174538 0.700332 0.0661906
0.178529 0.726686 0.118848
0.150488 0.726736 0.0636622
0.200522 0.722752 0.0530019
0.2233 0.721489 0.119872
0.228398 0.70008 0.0547904
0.250259 0.726427 0.0684527
0.274024 0.700039 0.0691598
0.300077 0.72235 0.0548645
0.278648 0.726639 0.121257
0.327892 0.700005 0.0574746
0.323166 0.721446 0.122064
0.350026 0.726201 0.0700842
0.374017 0.69978 0.0713779
0.399908 0.72214 0.0571149
0.378146 0.726357 0.123189
0.427955 0.699587 0.0587967
0.423141 0.721089 0.123727
0.450184 0.72585 0.0719858
0.474049 0.699452 0.0736071
0.472448 0.720515 0.00368632
0.500062 0.721604 0.0585939
0.478449 0.725968 0.125209
0.527972 0.699168 0.0605784
0.523252 0.720736 0.125898
0.574317 0.698848 0.0746676
0.572844 0.720001 0.00538858
0.55014 0.725369 0.0731826
0.628234 0.698674 0.0626889
0.600265 0.721345 0.061417
0.628866 0.726504 0.00710975
0.676931 0.720508 0.00830502
0.676251 0.698377 0.0766811
0.650645 0.724149 0.072014
0.70113 0.722469 0.0744203
0.722558 0.72132 0.00777389
0.728658 0.698899 0.0749415
0.774963 0.699332 0.0560031
0.801148 0.72313 0.0734539
0.829864 0.699723 0.0699505
0.82232 0.721663 0.00450128
0.851276 0.727379 0.0583954
0.828182 0.727859 0.125349
0.874683 0.69983 0.0534283
0.901244 0.723277 0.0707168
0.929969 0.699806 0.0665792
0.92197 0.721827 0.00174096
0.974827 0.70028 0.0507398
0.972773 0.723284 0.121715
0.0275958 0.7285 0.119491
0.0230518 0.750121 0.0551112
0.0508995 0.727845 0.0527019
0.0770982 0.750128 0.0665981
0.122142 0.749825 0.0650396
0.177057 0.750065 0.048731
0.150068 0.771429 0.0643231
0.177442 0.771398 0.119585
0.221407 0.75011 0.064445
0.249644 0.77147 0.0663675
0.229497 0.727882 0.999393
0.276559 0.749994 0.0506643
0.277015 0.771084 0.12121
0.321512 0.749774 0.0666794
0.349422 0.771244 0.0685961
0.376382 0.749543 0.052486
0.376842 0.770811 0.123494
0.421423 0.749422 0.0684261
0.427619 0.770088 0.00229464
0.449443 0.770733 0.0702354
0.428847 0.727136 0.00317371
0.476445 0.749075 0.0543867
0.528894 0.726849 0.00468999
0.521207 0.749005 0.0712749
0.527471 0.769788 0.00450319
0.576563 0.748704 0.0567844
0.549508 0.770316 0.0723495
0.621858 0.748785 0.072731
0.627396 0.769683 0.0067632
0.676357 0.749125 0.0613667
0.649684 0.770865 0.0743458
0.722703 0.749638 0.0632596
0.750923 0.726563 0.0624142
0.7784 0.728152 0.00567984
0.776649 0.749355 0.0754981
0.823207 0.749365 0.061213
0.878698 0.728516 0.00307228
0.877402 0.749586 0.0729971
0.871933 0.772189 0.00490953
0.951261 0.727353 0.0551526
0.923514 0.749756 0.0581749
0.928315 0.728165 0.122398
0.977159 0.749907 0.0701612
0.971926 0.772708 0.00188861
0.978831 0.728835 2.95e-04
0.0222142 0.773531 0.121149
0.0267877 0.80007 0.0700771
6.72251e-04 0.777601 0.0572223
0.0280876 0.778892 1.00052
0.0506808 0.773493 0.0691592
0.0729421 0.799795 0.0534218
0.0775834 0.778369 0.119431
0.100556 0.776884 0.0476186
0.126763 0.799433 0.0491097
0.121321 0.777239 0.118583
0.171957 0.799593 0.0637018
0.199847 0.776488 0.0487928
0.226127 0.799499 0.0518594
0.220711 0.776335 0.120208
0.271809 0.799476 0.0659679
0.299527 0.776125 0.0515935
0.326057 0.799173 0.0547175
0.320572 0.77631 0.122664
0.399411 0.775675 0.052884
0.371631 0.799075 0.0675277
0.426028 0.798742 0.056232
0.420634 0.775603 0.124344
0.4717 0.798571 0.0697565
0.470188 0.776083 0.0039486
0.499629 0.7753 0.0552475
0.525997 0.798395 0.0580566
0.570146 0.775594 0.0059187
0.571797 0.798263 0.0719103
0.599789 0.775005 0.0572696
0.626011 0.798462 0.0602855
0.670649 0.776304 0.00833951
0.672213 0.799092 0.0752578
0.700059 0.777747 0.0639252
0.726229 0.799866 0.079717
0.727091 0.77923 0.0094482
0.771631 0.772137 0.00797137
0.750294 0.773313 0.0777821
0.773155 0.799539 0.0646861
0.800625 0.776898 0.0634316
0.850815 0.773247 0.0743567
0.826596 0.799407 0.0762914
0.827857 0.778363 0.0066928
0.90084 0.777189 0.0603023
0.873184 0.799613 0.0618696
0.950831 0.773625 0.0714983
0.926783 0.799812 0.0732046
0.928073 0.778808 0.0036824
0.97318 0.799998 0.0590937
0.97737 0.778202 0.122914
0.0229417 0.850271 0.0591018
0.0271959 0.828383 0.122929
0.0217766 0.822993 0.00221545
4.00418e-04 0.824161 0.0714456
0.0506085 0.827854 0.0568082
0.0769122 0.850008 0.0699929
0.0721665 0.822934 0.12117
0.0781717 0.829209 6.88894e-04
0.126799 0.820488 0.12056
0.100557 0.821292 0.0647458
0.121949 0.849514 0.0673817
0.150031 0.826063 0.0530358
0.176491 0.849626 0.0539847
0.172055 0.825997 0.121703
0.199956 0.82157 0.0646178
0.221921 0.849494 0.0670184
0.226203 0.821416 0.122314
0.221438 0.826751 0.00105918
0.249833 0.825976 0.0548222
0.271951 0.826089 0.123523
0.299945 0.821581 0.0666023
0.276293 0.849405 0.0556049
0.276585 0.82086 0.00162388
0.322278 0.849263 0.0683026
0.349945 0.825552 0.0563123
0.32147 0.826204 0.00269357
0.326348 0.821113 0.124384
0.399923 0.820934 0.0681252
0.376443 0.848755 0.0564595
0.376457 0.820285 0.00348063
0.372073 0.825652 0.125069
0.421983 0.848842 0.0701525
0.449887 0.825142 0.0583031
0.421495 0.825873 0.00431238
0.476426 0.819684 0.00563175
0.476426 0.848383 0.0590825
0.499837 0.820478 0.0702038
0.522153 0.848202 0.072041
0.52172 0.825427 0.00696902
0.576636 0.819483 0.00788737
0.549936 0.824573 0.0608543
0.57635 0.848162 0.0608871
0.599831 0.820357 0.0725148
0.622025 0.848439 0.075337
0.621544 0.82555 0.00911222
0.676572 0.820227 0.00968276
0.649878 0.825047 0.0629117
0.67621 0.849186 0.0642669
0.721123 0.821722 0.0102706
0.700139 0.823337 0.0800834
0.722413 0.849928 0.065052
0.750205 0.827288 0.0661315
0.776511 0.849578 0.0782295
0.80055 0.82343 0.0775986
0.777431 0.828225 0.00951746
0.82171 0.822221 0.00805439
0.822923 0.849696 0.0653005
0.850344 0.827066 0.0634759
0.900582 0.823604 0.0748101
0.876459 0.849708 0.0761256
0.877801 0.828516 0.00687026
0.922784 0.850158 0.0619524
0.950591 0.82757 0.0601405
0.921477 0.8226 0.00497386
0.976745 0.850139 0.0733432
0.977808 0.829041 0.00369937
0.972203 0.823486 0.124404
0.0264419 0.900743 0.0733096
0.0275117 0.87894 0.00396862
3.40748e-04 0.877808 0.0611679
0.0222706 0.873989 0.124535
0.0505166 0.874189 0.07083
0.0729931 0.900321 0.0570208
0.0720229 0.872383 0.00199203
0.0770237 0.878367 0.123099
0.100515 0.876327 0.0525329
0.126463 0.899434 0.0537163
0.121997 0.876802 0.1229
0.127318 0.869973 9.47548e-04
0.149962 0.871402 0.0660588
0.172297 0.899462 0.06764
0.176745 0.871595 0.123645
0.20008 0.875966 0.0541905
0.226592 0.899432 0.0561188
0.226927 0.870665 0.00267917
0.250227 0.871454 0.0680881
0.271651 0.876053 0.00369428
0.272854 0.899298 0.0689783
0.300385 0.875392 0.0568647
0.276839 0.871115 0.125158
0.326823 0.899118 0.0583879
0.350468 0.871159 0.0694123
0.327157 0.87053 0.00451489
0.372838 0.899001 0.0707985
0.400367 0.875168 0.0581216
0.371543 0.875915 0.00522779
0.426989 0.89858 0.05981
0.45034 0.870537 0.071292
0.42733 0.86991 0.00607245
0.472792 0.89843 0.0731469
0.47147 0.875275 0.0075266
0.500334 0.874692 0.0598852
0.526852 0.898261 0.0617936
0.52716 0.869609 0.00856598
0.550194 0.870314 0.0735348
0.572516 0.898276 0.075011
0.571508 0.874972 0.00975073
0.600136 0.874508 0.0625586
0.626357 0.898376 0.0635018
0.626721 0.869486 0.0105259
0.671193 0.876091 0.011844
0.650003 0.870921 0.0761997
0.672287 0.899147 0.0793127
0.700209 0.878236 0.0673713
0.726452 0.899806 0.0832841
0.727067 0.879342 0.0121225
0.750376 0.87356 0.0795964
0.771828 0.872339 0.0110208
0.773042 0.899716 0.0682718
0.800418 0.877198 0.0670427
0.827516 0.878651 0.01003
0.826283 0.899945 0.0793225
0.850355 0.87383 0.0772875
0.872692 0.900182 0.0653722
0.90027 0.877411 0.0642086
0.871973 0.872571 0.00877011
0.926273 0.900206 0.0763167
0.950321 0.874183 0.07429
0.927428 0.878864 0.00739432
0.972782 0.900565 0.0628808
0.971843 0.873193 0.00566588
0.0219031 0.950768 0.0614707
0.0203232 0.923518 0.0062542
1.30432e-04 0.924634 0.0773536
0.0501574 0.92847 0.0588301
0.0773102 0.95067 0.0728214
0.0786179 0.929898 0.00435494
0.100249 0.921736 0.0689666
0.122454 0.949431 0.070252
0.121183 0.927061 0.00321438
0.126959 0.920881 0.124128
0.150345 0.925829 0.0553199
0.177049 0.949341 0.0565705
0.177313 0.920676 0.00364109
0.200358 0.921583 0.0684522
0.223411 0.949209 0.0700412
0.222039 0.926131 0.0045073
0.250865 0.925537 0.057143
0.277534 0.949314 0.0588777
0.300801 0.921381 0.0703907
0.277619 0.920624 0.00505464
0.322201 0.926023 0.00628916
0.323558 0.949158 0.0722469
0.350891 0.925073 0.0593671
0.377599 0.948846 0.0603574
0.401081 0.921089 0.0718122
0.377747 0.920339 0.00668806
0.42378 0.948702 0.0733082
0.451047 0.924758 0.0611952
0.422415 0.92541 0.00788303
0.477677 0.919837 0.00906492
0.477697 0.948397 0.0623784
0.500788 0.920493 0.0746265
0.522128 0.925135 0.0101213
0.523247 0.948394 0.0754898
0.550482 0.924522 0.0627847
0.577314 0.948185 0.064921
0.577297 0.919637 0.0110911
0.621261 0.925289 0.0119542
0.600364 0.920392 0.0767899
0.62288 0.948374 0.0775192
0.650151 0.925027 0.0643099
0.677272 0.919795 0.0131391
0.676938 0.948536 0.0669883
0.700359 0.923063 0.0852293
0.720674 0.921651 0.0139441
0.722393 0.949629 0.06745
0.750109 0.927428 0.0668385
0.777042 0.949702 0.0819989
0.778427 0.928491 0.0126967
0.800268 0.923901 0.0828535
0.820345 0.922791 0.0117103
0.850035 0.927823 0.0646308
0.822107 0.949883 0.0666762
0.878148 0.929175 0.0100223
0.900064 0.924038 0.0792608
0.876598 0.950024 0.0797622
0.949887 0.928264 0.0621278
0.921814 0.950318 0.0641939
0.920362 0.923325 0.00904904
0.976742 0.95058 0.0773227
0.978107 0.929593 0.00749647
0.024085 0.979994 0.00647484
6.48938e-04 0.978652 0.0727416
0.0507158 0.975276 0.0617096
0.0779841 0.973378 0.00576468
0.129381 -1.30717e-04 0.0595297
0.101418 0.97706 0.0644046
0.126792 0.97124 0.0050128
0.175629 -1.98837e-04 0.0758452
0.151229 0.971594 0.0693997
0.172608 0.976547 0.00560945
0.201377 0.975152 0.0599754
0.228454 0.970667 0.00635929
0.230212 0.999727 0.0619682
0.251577 0.971666 0.0723291
0.272954 0.975993 0.00705964
0.27574 -4.20479e-04 0.077527
0.301675 0.975279 0.0605192
0.330431 0.999397 0.0638889
0.351752 0.971209 0.0741215
0.328813 0.970339 0.00786896
0.375844 0.999079 0.079141
0.372922 0.975659 0.00871374
0.401821 0.974902 0.0624837
0.430444 0.998919 0.0662275
0.428886 0.969953 0.00967711
0.451633 0.970963 0.0759241
0.475572 0.998895 0.0809386
0.472919 0.975293 0.0106617
0.530346 0.998678 0.0677485
0.501529 0.974786 0.0641593
0.528881 0.969786 0.0115404
0.575298 0.998647 0.0832545
0.572611 0.974859 0.0127135
0.55149 0.970389 0.0781055
0.629786 0.998494 0.0692452
0.628021 0.969479 0.0136483
0.601195 0.974643 0.0661267
0.674501 0.998449 0.0870394
0.673572 0.975903 0.0148431
0.650938 0.970509 0.0794493
0.700771 0.976904 0.0778261
0.724948 0.979581 0.0142932
0.72917 0.999568 0.0808978
0.751077 0.973706 0.0689369
0.775665 0.999945 0.0665614
0.779433 0.973397 0.0127549
0.801057 0.97766 0.0783226
0.828959 1.00004 0.0762109
0.823729 0.979121 0.0114962
0.850806 0.974009 0.06359
0.900637 0.978079 0.0751124
0.879228 0.973646 0.00990743
0.923596 0.979393 0.00880743
0.950688 0.974398 0.0613067
0.979641 0.974178 0.00746471
0.0250935 0.0290956 0.126819
0.00154603 0.0283129 0.192362
0.0254908 7.27636e-04 0.180748
0.029828 0.0243614 0.247949
0.0806832 0.0235865 0.125571
0.0517298 0.0247521 0.178765
0.0796721 0.00114093 0.191635
0.0752613 0.0297947 0.246756
0.124817 0.0218367 0.126187
0.101775 0.0289087 0.190979
0.130887 0.0270558 0.246374
0.125927 2.10653e-04 0.193488
0.180807 0.0263784 0.12722
0.152244 0.0220308 0.180811
0.175159 0.0214586 0.24796
0.202358 0.0256456 0.196902
0.225038 0.0212218 0.1279
0.25239 0.0216904 0.182909
0.231223 0.0262054 0.248902
0.281172 0.0260691 0.128804
0.302481 0.025583 0.198779
0.32506 0.0209837 0.129613
0.352402 0.0214532 0.184762
0.381393 0.0255816 0.130584
0.402647 0.0254453 0.200536
0.425007 0.0207393 0.131671
0.452225 0.0212152 0.186582
0.480945 0.0252504 0.132664
0.502323 0.0248747 0.202742
0.5249 0.0202984 0.133481
0.580707 0.025081 0.134562
0.552134 0.0208356 0.18836
0.624378 0.0201863 0.135357
0.601882 0.0246248 0.204529
0.651762 0.0203547 0.190069
0.680622 0.0256488 0.135891
0.701452 0.0246796 0.20736
0.724358 0.0275115 0.134815
0.751248 0.0229634 0.187134
0.779624 0.0232511 0.133897
0.801241 0.0274323 0.198098
0.778859 0.99971 0.198867
0.824745 0.0282172 0.132376
0.851206 0.023721 0.184714
0.879421 0.023738 0.130823
0.901135 0.0278694 0.194653
0.924717 0.0285028 0.129519
0.951144 0.0244756 0.181943
0.924738 1.00024 0.183381
0.979714 0.0240678 0.128349
0.978308 5.19674e-04 0.193437
0.974974 0.0285477 0.249354
0.0297536 0.0745568 0.126485
0.0292286 0.050682 0.191056
0.0017739 0.0746836 0.180889
0.0256292 0.0785867 0.247896
0.0751271 0.0798897 0.125361
0.0758259 0.0509446 0.177162
0.051926 0.0784145 0.190187
0.0801414 0.0740309 0.246343
0.129549 0.0504123 0.180584
0.10173 0.0745088 0.176638
0.125436 0.072766 0.246395
0.174959 0.071796 0.126483
0.175915 0.0497484 0.195056
0.151751 0.0764891 0.193033
0.179606 0.0763942 0.247272
0.201654 0.072216 0.183424
0.225814 0.0716503 0.248142
0.229595 0.076268 0.127565
0.229934 0.0496284 0.183817
0.252076 0.0758368 0.195163
0.275605 0.0716843 0.1283
0.276201 0.0494942 0.196257
0.302122 0.0721234 0.185395
0.279889 0.0759464 0.249346
0.330091 0.0760541 0.129228
0.330197 0.0493014 0.185965
0.352067 0.0755065 0.197334
0.376197 0.0492032 0.198417
0.375559 0.0714949 0.130145
0.402063 0.0717344 0.187531
0.430066 0.0756841 0.131311
0.430157 0.04917 0.188216
0.452005 0.0753779 0.199651
0.475342 0.0710443 0.132294
0.475953 0.0487545 0.20039
0.501861 0.0711492 0.188721
0.529669 0.0487093 0.189556
0.529856 0.0751907 0.133211
0.575695 0.0484686 0.202277
0.575346 0.0705341 0.133948
0.551975 0.0748809 0.201363
0.629256 0.0483307 0.191357
0.629607 0.0748499 0.134704
0.601574 0.0709214 0.190921
0.675484 0.0479193 0.205406
0.67524 0.0691859 0.135152
0.651873 0.0744155 0.20235
0.70144 0.0699778 0.191383
0.729618 0.0717156 0.134993
0.729071 0.0486458 0.201107
0.751432 0.0766765 0.198813
0.775152 0.0774827 0.133352
0.775229 0.0493186 0.187201
0.801373 0.0734195 0.186454
0.829544 0.0732017 0.13191
0.828976 0.0496405 0.196665
0.851527 0.0774404 0.195495
0.875379 0.0780959 0.130437
0.87532 0.0500011 0.183816
0.901625 0.0739936 0.183145
0.92959 0.0739699 0.129175
0.92889 0.0502877 0.193767
0.951691 0.0780139 0.192798
0.925145 0.0781369 0.250453
0.975587 0.0788467 0.127676
0.975465 0.0505139 0.180967
0.0255311 0.1288 0.126291
0.0259759 0.100813 0.180111
0.00189387 0.128328 0.191357
0.0300249 0.124545 0.247608
0.0797473 0.101219 0.190978
0.0520158 0.124813 0.178585
0.0751897 0.130136 0.246322
0.124585 0.122405 0.124946
0.125601 0.100703 0.192208
0.101645 0.129409 0.190166
0.130198 0.127398 0.245741
0.179739 0.126814 0.126183
0.151619 0.122735 0.181109
0.179381 0.100204 0.182177
0.17507 0.121761 0.247124
0.224885 0.121913 0.127268
0.201674 0.126228 0.194665
0.225647 0.0998252 0.19523
0.251684 0.122114 0.18363
0.229986 0.126251 0.247808
0.27994 0.126271 0.128092
0.279554 0.0998343 0.18519
0.301862 0.125866 0.196707
0.2752 0.121819 0.248932
0.32511 0.12137 0.129108
0.325627 0.0995661 0.197438
0.351857 0.121816 0.186309
0.330084 0.125933 0.250224
0.379724 0.12607 0.130077
0.379735 0.0996139 0.187119
0.401814 0.125575 0.198551
0.425091 0.121261 0.130777
0.425701 0.0991719 0.199446
0.451765 0.121433 0.188062
0.479961 0.125843 0.131969
0.479646 0.0991605 0.188499
0.501797 0.125175 0.200548
0.524951 0.121077 0.132814
0.525509 0.0988109 0.200872
0.551681 0.120987 0.189994
0.57973 0.125316 0.133606
0.579515 0.0986937 0.190037
0.625018 0.120393 0.13425
0.625529 0.0983388 0.202134
0.601685 0.124802 0.20194
0.651874 0.120311 0.191029
0.679758 0.0979117 0.189333
0.680239 0.125325 0.134906
0.701615 0.124258 0.20451
0.725235 0.126517 0.134234
0.72549 0.0985621 0.188081
0.751604 0.122652 0.186384
0.779182 0.0992606 0.197413
0.779832 0.12283 0.13271
0.801744 0.12714 0.196617
0.825184 0.127914 0.131187
0.825582 0.0995864 0.184775
0.851596 0.123471 0.183425
0.879991 0.123576 0.130044
0.879249 0.0998689 0.194285
0.901779 0.12771 0.193933
0.925537 0.128275 0.12855
0.925671 0.100164 0.182046
0.951874 0.124406 0.181234
0.929706 0.123645 0.249881
0.980143 0.124136 0.127076
0.979398 0.100651 0.191844
0.0301305 0.17483 0.125556
0.0295653 0.150894 0.189835
0.00211947 0.174732 0.179365
0.0253587 0.178869 0.247048
0.0756096 0.151432 0.176402
0.0800535 0.174245 0.24557
0.0518962 0.178853 0.189373
0.129512 0.150912 0.180282
0.101545 0.174762 0.176142
0.125209 0.173107 0.245716
0.174815 0.17231 0.125366
0.175454 0.150316 0.194048
0.151637 0.176916 0.192889
0.179718 0.176805 0.246857
0.201406 0.172527 0.182173
0.225134 0.172145 0.247618
0.229712 0.176731 0.126487
0.229466 0.150112 0.183355
0.251689 0.176163 0.195321
0.274878 0.171903 0.12708
0.275521 0.149846 0.195502
0.301625 0.172042 0.18436
0.279854 0.176298 0.248463
0.32988 0.176317 0.128363
0.329539 0.149632 0.185364
0.351604 0.175853 0.197389
0.325191 0.171423 0.24948
0.374821 0.171672 0.129376
0.375607 0.149602 0.197767
0.401673 0.171618 0.186897
0.429514 0.176031 0.130345
0.429436 0.149452 0.187578
0.451547 0.175451 0.198537
0.474952 0.171027 0.131485
0.475392 0.149186 0.20008
0.501666 0.171106 0.188615
0.52956 0.175337 0.132311
0.52933 0.148839 0.189792
0.574958 0.170403 0.132895
0.57533 0.148687 0.201577
0.551662 0.174859 0.200955
0.629704 0.174811 0.133565
0.629476 0.148215 0.190568
0.601608 0.170556 0.189933
0.675187 0.169108 0.134052
0.675748 0.147942 0.203858
0.651762 0.174177 0.201837
0.701536 0.169772 0.189755
0.729866 0.171579 0.133829
0.729208 0.148424 0.19963
0.751622 0.176411 0.197607
0.775319 0.177278 0.132583
0.775546 0.149011 0.185581
0.801682 0.173086 0.184881
0.829693 0.173162 0.130421
0.829435 0.149544 0.195273
0.851827 0.177232 0.193927
0.875536 0.177919 0.129243
0.875636 0.149825 0.18289
0.901928 0.173867 0.181943
0.879766 0.173351 0.250627
0.930141 0.173887 0.128136
0.929445 0.150329 0.192757
0.951847 0.178101 0.191867
0.975539 0.178797 0.126853
0.975858 0.150578 0.180129
0.979827 0.174015 0.247997
0.0257212 0.201025 0.179189
0.0298474 0.224735 0.246577
0.0797421 0.201519 0.190632
0.0519198 0.225129 0.178042
0.125357 0.200935 0.191525
0.179357 0.20042 0.182075
0.151387 0.222844 0.180388
0.175294 0.222424 0.245971
0.224727 0.222056 0.125955
0.225313 0.199976 0.194251
0.201556 0.226366 0.193495
0.25141 0.222359 0.183112
0.229604 0.226415 0.246977
0.279296 0.199806 0.184081
0.275202 0.221709 0.24808
0.301575 0.226004 0.195284
0.279627 0.226491 0.126929
0.324793 0.221691 0.127864
0.325458 0.199565 0.196307
0.35155 0.221788 0.18514
0.329622 0.2261 0.249194
0.379553 0.199577 0.18612
0.401608 0.225768 0.197832
0.379498 0.226282 0.128744
0.375121 0.221492 0.249853
0.424888 0.221288 0.129827
0.425379 0.199322 0.198317
0.451595 0.22121 0.187082
0.479493 0.199112 0.187484
0.479428 0.225669 0.130297
0.52541 0.198746 0.199874
0.524835 0.220732 0.131519
0.501587 0.225055 0.199313
0.57932 0.198463 0.189222
0.551449 0.220991 0.188861
0.579365 0.225311 0.132479
0.625016 0.220499 0.132814
0.625416 0.198252 0.200355
0.601459 0.224707 0.200917
0.65171 0.220333 0.189712
0.679537 0.197785 0.188387
0.680208 0.225257 0.133479
0.70171 0.224189 0.202908
0.725706 0.198186 0.18753
0.725235 0.226294 0.132844
0.751663 0.222407 0.18511
0.779418 0.199041 0.196396
0.780081 0.222413 0.131664
0.801837 0.22689 0.195749
0.825805 0.199365 0.183662
0.851921 0.2234 0.181749
0.88021 0.223288 0.128362
0.879601 0.199719 0.193181
0.925796 0.200276 0.180889
0.95181 0.224235 0.179682
0.980187 0.224155 0.126143
0.979531 0.200607 0.190818
0.0253971 0.229015 0.12514
0.00182488 0.228587 0.190431
0.0296173 0.250997 0.188641
0.0753503 0.230292 0.245133
0.0756103 0.251539 0.175259
0.129913 0.227803 0.244551
0.101598 0.229581 0.189033
0.129186 0.251217 0.178583
0.125044 0.272999 0.244538
0.174377 0.272318 0.124246
0.175221 0.250531 0.19296
0.224945 0.271881 0.246241
0.201287 0.272509 0.180879
0.229236 0.250144 0.182256
0.275317 0.249866 0.194594
0.301474 0.271971 0.183481
0.329294 0.249657 0.184061
0.325117 0.27138 0.248372
0.375214 0.249512 0.196123
0.374805 0.271438 0.128049
0.429399 0.249269 0.186529
0.47529 0.24888 0.198735
0.47482 0.270767 0.129846
0.501354 0.27098 0.187157
0.529093 0.248886 0.18824
0.575318 0.248385 0.200797
0.574761 0.270345 0.131631
0.629115 0.248185 0.189874
0.601402 0.270624 0.18881
0.675655 0.247698 0.202936
0.675189 0.26891 0.133012
0.701696 0.269666 0.188638
0.729402 0.248062 0.198252
0.729992 0.271174 0.132264
0.77562 0.248853 0.184492
0.801801 0.272863 0.183415
0.825228 0.227662 0.130212
0.829536 0.249256 0.194356
0.830001 0.273146 0.129313
0.901878 0.227892 0.192671
0.875698 0.249765 0.181122
0.9254 0.228434 0.127344
0.929656 0.250094 0.191424
0.975713 0.250574 0.178802
0.975206 0.228718 0.247689
0.0255635 0.301148 0.177669
0.00188415 0.274606 0.17787
0.0253269 0.278747 0.245932
0.0799588 0.2744 0.244549
0.0518709 0.279029 0.188556
0.0796525 0.301615 0.189557
0.101533 0.275165 0.174866
0.125423 0.301253 0.190597
0.151499 0.277056 0.192465
0.179276 0.30053 0.180291
0.179504 0.276986 0.245231
0.225149 0.300398 0.193566
0.229534 0.276888 0.125489
0.251425 0.276281 0.194205
0.274704 0.272009 0.126194
0.27927 0.299972 0.182796
0.279754 0.276374 0.247313
0.329405 0.276056 0.12719
0.351442 0.275894 0.195559
0.325297 0.299606 0.1951
0.401485 0.271588 0.18566
0.37923 0.299427 0.184312
0.379618 0.275813 0.249274
0.429656 0.2759 0.1289
0.425389 0.29905 0.196778
0.451624 0.275338 0.197913
0.479318 0.298986 0.186727
0.529502 0.275404 0.131131
0.525172 0.298743 0.198843
0.551467 0.274695 0.199646
0.579107 0.298522 0.188152
0.629364 0.2746 0.132464
0.625365 0.298218 0.199768
0.651769 0.274001 0.200643
0.6796 0.297718 0.186859
0.725658 0.298178 0.186032
0.75153 0.276249 0.196632
0.775415 0.277047 0.131198
0.779452 0.298872 0.195345
0.851757 0.277208 0.193122
0.825776 0.299343 0.182122
0.901806 0.273883 0.180293
0.875397 0.278128 0.127948
0.879449 0.29971 0.192171
0.929988 0.273811 0.126687
0.925662 0.30018 0.179437
0.95175 0.278097 0.190655
0.975446 0.278938 0.125669
0.979589 0.300585 0.189883
0.979955 0.273981 0.24684
0.0293586 0.351126 0.187374
0.0015643 0.328746 0.188846
0.0294007 0.324968 0.245085
0.0518582 0.325099 0.176708
0.0754139 0.351615 0.174015
0.0751312 0.330373 0.243761
0.101515 0.329782 0.187371
0.129178 0.351325 0.17716
0.129774 0.32818 0.243589
0.151448 0.323286 0.179268
0.175245 0.350623 0.191563
0.174894 0.322356 0.244823
0.201409 0.326619 0.192765
0.229236 0.350301 0.181392
0.229797 0.32671 0.246195
0.251467 0.322418 0.181868
0.2753 0.349918 0.193696
0.301526 0.326094 0.194778
0.275207 0.321752 0.246953
0.32483 0.321656 0.126734
0.351337 0.321703 0.183709
0.329173 0.349651 0.182533
0.329674 0.326073 0.24788
0.379483 0.326055 0.127616
0.375093 0.349327 0.195806
0.401397 0.325379 0.196056
0.375086 0.32113 0.248746
0.424805 0.321105 0.128535
0.429224 0.349199 0.184682
0.45155 0.321298 0.185818
0.429529 0.32546 0.249321
0.479455 0.325677 0.129347
0.47519 0.349092 0.197332
0.50146 0.325174 0.198241
0.524776 0.320675 0.130192
0.529184 0.348695 0.186505
0.551369 0.320646 0.187611
0.579567 0.325172 0.131089
0.575279 0.348415 0.199281
0.624957 0.320239 0.131695
0.601468 0.324462 0.199611
0.629274 0.347977 0.188222
0.651633 0.320129 0.188007
0.675478 0.347483 0.202027
0.680002 0.324895 0.132262
0.701665 0.324171 0.20158
0.725159 0.326253 0.131862
0.729508 0.348202 0.196877
0.751713 0.322267 0.183581
0.779961 0.322375 0.130329
0.775437 0.348829 0.182949
0.801719 0.32657 0.194307
0.825456 0.32745 0.129071
0.82932 0.349179 0.193139
0.851845 0.323314 0.181379
0.829746 0.322696 0.250556
0.880021 0.323344 0.127361
0.875674 0.349747 0.180112
0.901718 0.327575 0.1915
0.875198 0.327709 0.248993
0.925371 0.328427 0.126221
0.929509 0.350258 0.189894
0.951774 0.324108 0.178544
0.929668 0.323621 0.247606
0.979977 0.324262 0.12461
0.97554 0.350712 0.17748
0.975186 0.328732 0.246444
0.0255653 0.401143 0.176696
0.025244 0.378976 0.244665
0.00176742 0.374773 0.176653
0.051739 0.37908 0.187364
0.0795776 0.40161 0.188352
0.0797469 0.374382 0.243506
0.101433 0.374888 0.173586
0.125289 0.401105 0.18943
0.124855 0.373016 0.243393
0.151374 0.377184 0.19083
0.179138 0.400623 0.178815
0.179482 0.376937 0.24432
0.201292 0.372633 0.180131
0.225269 0.37225 0.245154
0.225136 0.40026 0.192468
0.251441 0.376141 0.19245
0.279257 0.399945 0.181486
0.301522 0.372005 0.18214
0.27963 0.376303 0.246258
0.32967 0.376365 0.12585
0.325258 0.399531 0.193893
0.351448 0.375692 0.19465
0.325054 0.371293 0.247215
0.374908 0.371457 0.127056
0.379205 0.399462 0.183446
0.401387 0.371645 0.184684
0.379539 0.37576 0.248371
0.429396 0.375835 0.127751
0.425221 0.399124 0.195995
0.451428 0.375321 0.196785
0.424967 0.371056 0.249106
0.474699 0.370936 0.128871
0.479194 0.39897 0.185174
0.501442 0.370971 0.185783
0.529379 0.375543 0.129188
0.5251 0.398816 0.197946
0.57497 0.370512 0.130667
0.551407 0.374715 0.197837
0.579201 0.398377 0.187346
0.629507 0.374552 0.13098
0.601324 0.370493 0.187397
0.625406 0.398009 0.198524
0.675171 0.368728 0.131859
0.65165 0.37388 0.199413
0.679577 0.397572 0.186305
0.701518 0.36936 0.187487
0.725361 0.398111 0.184361
0.730041 0.371344 0.131317
0.751764 0.376411 0.195413
0.775322 0.377137 0.129995
0.779328 0.398879 0.194092
0.801633 0.372941 0.18228
0.829974 0.373035 0.128664
0.825493 0.399385 0.181408
0.851619 0.37713 0.192171
0.825135 0.377114 0.249667
0.875246 0.378056 0.12704
0.879029 0.399762 0.191016
0.901695 0.373812 0.17902
0.879761 0.373316 0.248209
0.93007 0.373952 0.125435
0.925513 0.400268 0.178752
0.951634 0.378069 0.18935
0.925034 0.378073 0.246781
0.979462 0.400772 0.188457
0.979644 0.374049 0.24571
0.0293699 0.45103 0.186653
0.0296185 0.42476 0.244101
0.00155666 0.428541 0.187447
0.0518692 0.425172 0.175453
0.0749675 0.430574 0.242903
0.075341 0.451637 0.172365
0.101338 0.429569 0.187129
0.129169 0.451081 0.176911
0.129627 0.427983 0.242477
0.151194 0.422886 0.178
0.17496 0.450564 0.190694
0.174767 0.422328 0.243495
0.201375 0.42673 0.19146
0.22909 0.450187 0.180149
0.229882 0.426599 0.244739
0.251424 0.422239 0.18022
0.275239 0.449919 0.19242
0.301409 0.426072 0.193182
0.274882 0.421605 0.245719
0.324774 0.421607 0.125304
0.329152 0.449875 0.181966
0.351394 0.421779 0.182577
0.32963 0.425927 0.246545
0.379566 0.426112 0.126416
0.375176 0.449457 0.194242
0.40142 0.425698 0.195295
0.374957 0.421317 0.24736
0.424588 0.421162 0.1273
0.429111 0.449196 0.183694
0.451379 0.42117 0.184919
0.429624 0.425487 0.248614
0.479397 0.425768 0.128117
0.475135 0.449001 0.196009
0.475016 0.420778 0.249367
0.524721 0.420586 0.129069
0.50144 0.425163 0.197325
0.529326 0.448657 0.185481
0.529597 0.425074 0.250486
0.579343 0.424932 0.129909
0.551383 0.420675 0.186285
0.575288 0.448414 0.197631
0.624786 0.420142 0.130311
0.601417 0.424343 0.198339
0.629205 0.448039 0.186753
0.651571 0.420075 0.187693
0.675376 0.447601 0.200524
0.67983 0.42495 0.130868
0.701406 0.424159 0.200297
0.724964 0.426512 0.130473
0.72925 0.44811 0.196248
0.75151 0.422248 0.182672
0.775513 0.448772 0.182042
0.779785 0.422402 0.129197
0.801483 0.42682 0.193424
0.82509 0.427582 0.128148
0.829084 0.449358 0.191663
0.851523 0.423604 0.180367
0.829312 0.423059 0.249208
0.879608 0.423409 0.126194
0.901455 0.427678 0.190314
0.875514 0.449754 0.179143
0.874977 0.427936 0.247811
0.925364 0.42845 0.125061
0.92941 0.450166 0.189347
0.951703 0.42424 0.178154
0.92945 0.423911 0.246368
0.975484 0.450631 0.176345
0.974987 0.428682 0.245002
0.024993 0.478865 0.243493
0.00147567 0.474771 0.175632
0.0515482 0.479093 0.18673
0.0799448 0.474235 0.242185
0.101291 0.474802 0.172129
0.124659 0.472939 0.24199
0.151332 0.477121 0.189747
0.179559 0.477008 0.24352
0.201246 0.472601 0.17908
0.22484 0.472116 0.243834
0.251256 0.476237 0.191024
0.301352 0.471962 0.180888
0.279575 0.476332 0.244675
0.329517 0.476178 0.124542
0.351346 0.475901 0.193775
0.32501 0.471668 0.245899
0.324977 0.499647 0.19258
0.374717 0.471407 0.125664
0.401278 0.471452 0.182911
0.379598 0.475871 0.246784
0.37923 0.499449 0.182297
0.429218 0.47598 0.126714
0.451374 0.475362 0.195532
0.425129 0.470939 0.247743
0.42509 0.499144 0.194868
0.474652 0.470934 0.127793
0.479415 0.475483 0.248506
0.479003 0.499122 0.183727
0.501448 0.471052 0.185217
0.529238 0.475394 0.128628
0.525324 0.498718 0.196715
0.525107 0.470454 0.24974
0.574719 0.4704 0.129277
0.551495 0.474902 0.197083
0.579267 0.498609 0.185599
0.579621 0.474885 0.250306
0.629493 0.474726 0.129754
0.601354 0.47062 0.185842
0.625366 0.498169 0.197053
0.67505 0.468842 0.130719
0.651618 0.474058 0.198499
0.679653 0.497636 0.184715
0.701459 0.469503 0.186389
0.725552 0.498151 0.183714
0.729739 0.471531 0.130582
0.751439 0.476155 0.194776
0.774975 0.477113 0.128511
0.801483 0.473121 0.180753
0.779036 0.499034 0.192653
0.829677 0.472982 0.127013
0.851535 0.47709 0.190682
0.824936 0.477486 0.248446
0.825501 0.499337 0.179979
0.875242 0.477854 0.125764
0.901541 0.473695 0.178075
0.879504 0.473238 0.247024
0.879168 0.499789 0.189664
0.92971 0.473818 0.124533
0.95157 0.478199 0.188014
0.924955 0.478201 0.245929
0.979524 0.47414 0.244575
0.0254223 0.501129 0.175079
0.0295599 0.524607 0.242368
0.00145101 0.52852 0.186211
0.0794873 0.501594 0.187187
0.0518027 0.52512 0.173589
0.0750323 0.530272 0.241499
0.12506 0.50118 0.188482
0.101425 0.529808 0.18531
0.129668 0.527918 0.241073
0.179104 0.500379 0.177824
0.151368 0.522737 0.176456
0.174793 0.522088 0.242314
0.225008 0.500119 0.19075
0.20127 0.526498 0.189922
0.22948 0.526535 0.243348
0.251075 0.522085 0.17909
0.279014 0.499918 0.180053
0.301189 0.526031 0.191771
0.27469 0.521597 0.244192
0.351364 0.521591 0.181211
0.329321 0.525855 0.245423
0.401272 0.525529 0.193634
0.374791 0.521178 0.246184
0.424578 0.521039 0.125954
0.451277 0.521246 0.183252
0.429541 0.525636 0.247504
0.479188 0.525739 0.126895
0.475009 0.520729 0.248379
0.524757 0.52095 0.127937
0.501335 0.525093 0.195526
0.529702 0.52519 0.248943
0.579529 0.525214 0.128715
0.551367 0.520877 0.184724
0.624916 0.520439 0.12932
0.601574 0.52451 0.19695
0.651602 0.520206 0.185601
0.680006 0.524954 0.129702
0.725266 0.526439 0.129415
0.701527 0.524185 0.199024
0.751603 0.522479 0.182059
0.729816 0.521573 0.250918
0.779761 0.522844 0.127946
0.801523 0.526586 0.191674
0.774906 0.527093 0.24949
0.825162 0.527631 0.126911
0.851539 0.523507 0.179152
0.829257 0.522935 0.247792
0.901427 0.527725 0.188912
0.87487 0.527698 0.246434
0.925461 0.500296 0.177664
0.929394 0.523701 0.245148
0.951391 0.524327 0.176408
0.979142 0.500847 0.187444
0.975061 0.528784 0.243716
0.0292277 0.551131 0.185083
0.0249377 0.579003 0.242136
0.00148643 0.574737 0.174195
0.0752327 0.551528 0.171114
0.0515095 0.579022 0.185438
0.0797705 0.57397 0.241084
0.129214 0.551075 0.174997
0.101383 0.574777 0.171228
0.124709 0.572863 0.240912
0.174901 0.550396 0.189585
0.151238 0.5771 0.188535
0.179471 0.576735 0.241983
0.201142 0.572513 0.177316
0.224671 0.571923 0.2428
0.228889 0.550098 0.178806
0.25108 0.576195 0.190585
0.274946 0.549732 0.191207
0.301162 0.571722 0.179409
0.279343 0.576036 0.243784
0.329093 0.54953 0.180449
0.351075 0.57579 0.192646
0.324624 0.57117 0.24475
0.375006 0.549307 0.192702
0.401233 0.571341 0.181806
0.379234 0.575643 0.245596
0.429 0.549099 0.182351
0.45117 0.575386 0.193949
0.424639 0.571026 0.24673
0.474544 0.570838 0.126563
0.475034 0.548956 0.195353
0.479294 0.575332 0.247558
0.501046 0.571162 0.183415
0.529239 0.575687 0.127551
0.529162 0.548868 0.184028
0.524904 0.570592 0.24814
0.574705 0.57054 0.128098
0.575364 0.548619 0.196222
0.551329 0.575039 0.195972
0.57943 0.575084 0.248893
0.629514 0.574903 0.128855
0.629318 0.548274 0.185985
0.601438 0.570851 0.185107
0.675593 0.547679 0.198811
0.651717 0.57452 0.197382
0.675121 0.569019 0.12952
0.701598 0.569957 0.18479
0.729088 0.548334 0.195023
0.730033 0.571718 0.129341
0.751778 0.576446 0.193284
0.775277 0.577321 0.127907
0.775553 0.548952 0.181326
0.801544 0.573158 0.179764
0.829652 0.573252 0.126246
0.829131 0.549512 0.191388
0.85142 0.577317 0.190103
0.824817 0.577678 0.247503
0.875271 0.549884 0.178282
0.901442 0.573974 0.176602
0.879517 0.573591 0.245914
0.928981 0.550328 0.187642
0.951365 0.578103 0.187018
0.924821 0.57855 0.244401
0.975434 0.550746 0.175026
0.979529 0.574163 0.243229
0.025271 0.601051 0.173838
0.0293369 0.624477 0.24171
0.00144646 0.628287 0.184752
0.0791748 0.601299 0.185998
0.0514797 0.624988 0.173191
0.074855 0.630121 0.240376
0.125014 0.600948 0.187231
0.101239 0.62947 0.184287
0.129416 0.627752 0.240177
0.15115 0.622628 0.17569
0.174744 0.621962 0.241276
0.179113 0.600348 0.17678
0.201134 0.626357 0.189001
0.224926 0.599985 0.189563
0.229139 0.626461 0.242114
0.251066 0.62212 0.17816
0.274624 0.621588 0.242868
0.278796 0.599633 0.179034
0.300995 0.625738 0.190656
0.32482 0.599408 0.191585
0.350825 0.621613 0.179917
0.329056 0.625778 0.244142
0.378678 0.599313 0.180985
0.400765 0.625601 0.192833
0.374397 0.621212 0.245238
0.424595 0.599129 0.19322
0.450855 0.621242 0.182123
0.429048 0.625581 0.246095
0.478882 0.625793 0.126229
0.47877 0.599064 0.182957
0.474429 0.620825 0.247071
0.524381 0.620885 0.126827
0.500871 0.6253 0.195098
0.524959 0.59894 0.195696
0.529202 0.625206 0.247928
0.578958 0.625385 0.127773
0.578991 0.598624 0.184203
0.551006 0.621076 0.183751
0.575033 0.620388 0.248529
0.625032 0.620514 0.128325
0.625605 0.598444 0.195957
0.601229 0.624735 0.195936
0.68019 0.625089 0.129319
0.651776 0.620708 0.185083
0.679782 0.597954 0.183892
0.701938 0.624567 0.198153
0.725266 0.626861 0.128586
0.72576 0.598504 0.182857
0.751699 0.62302 0.181902
0.779724 0.623057 0.126944
0.779391 0.599265 0.192078
0.801576 0.627129 0.190921
0.775118 0.627515 0.248424
0.82534 0.627984 0.125514
0.825455 0.599606 0.179303
0.851575 0.623752 0.178382
0.829564 0.623276 0.246974
0.879072 0.599945 0.188302
0.90145 0.627797 0.187375
0.875247 0.627935 0.245392
0.925353 0.600293 0.175965
0.951568 0.624256 0.175917
0.929131 0.623843 0.244223
0.979177 0.600605 0.185773
0.975157 0.628712 0.242451
0.0291052 0.650922 0.184295
0.0240299 0.678881 0.241124
0.001679 0.67433 0.171161
0.0752277 0.651261 0.170157
0.0800205 0.673491 0.239759
0.0514899 0.678887 0.185561
0.128979 0.650734 0.173368
0.101035 0.674475 0.16794
0.124202 0.6719 0.239908
0.175067 0.650221 0.188067
0.15091 0.676791 0.188125
0.179202 0.676529 0.240609
0.20099 0.672237 0.175945
0.224385 0.671788 0.24173
0.22891 0.649987 0.177738
0.250842 0.676114 0.189671
0.274731 0.649683 0.189807
0.300641 0.671872 0.178126
0.278933 0.676157 0.242703
0.328483 0.649516 0.179537
0.350531 0.675706 0.191352
0.324092 0.671338 0.243662
0.374497 0.649444 0.192005
0.400501 0.671562 0.180519
0.378693 0.675866 0.245082
0.428522 0.649261 0.181234
0.450585 0.675387 0.193544
0.424149 0.670904 0.245689
0.473927 0.671009 0.125488
0.474475 0.649118 0.194385
0.478822 0.675426 0.246906
0.500691 0.671155 0.182706
0.528773 0.67581 0.126374
0.528497 0.648986 0.183293
0.524224 0.670653 0.247638
0.574281 0.670547 0.127313
0.57494 0.648668 0.195751
0.550729 0.674928 0.19509
0.629708 0.675436 0.128275
0.629074 0.648491 0.184149
0.601039 0.670868 0.183917
0.624722 0.670293 0.248953
0.675217 0.669777 0.12884
0.675846 0.648168 0.197572
0.65171 0.674529 0.197329
0.701806 0.670315 0.184219
0.724685 0.677339 0.249437
0.729217 0.648801 0.194428
0.730728 0.671917 0.128383
0.751767 0.676861 0.194113
0.774672 0.677796 0.126376
0.775723 0.649556 0.179693
0.801865 0.673566 0.177584
0.780539 0.673114 0.247893
0.830653 0.673171 0.125074
0.829473 0.649754 0.189991
0.851855 0.677798 0.191234
0.824697 0.677935 0.246427
0.875631 0.650206 0.177042
0.901821 0.673836 0.174619
0.880724 0.673476 0.244886
0.929437 0.650496 0.187135
0.924366 0.678705 0.243461
0.951826 0.678315 0.188425
0.97547 0.650623 0.173811
0.9807 0.674089 0.241817
0.0245698 0.700543 0.171348
0.0231029 0.724138 0.241056
0.0794985 0.700768 0.184915
0.0508239 0.724063 0.184952
0.124574 0.700176 0.186805
0.127461 0.727247 0.239327
0.178557 0.699955 0.175247
0.15051 0.722107 0.1748
0.17404 0.721655 0.239909
0.2244 0.699806 0.188574
0.200402 0.726091 0.186839
0.22844 0.726298 0.241188
0.250244 0.722131 0.17572
0.273368 0.721504 0.242
0.278226 0.699775 0.177143
0.300153 0.725881 0.189344
0.324015 0.699725 0.19062
0.350021 0.721784 0.178418
0.328179 0.725962 0.243622
0.378006 0.699506 0.179284
0.373097 0.720888 0.244198
0.400044 0.725334 0.190568
0.424153 0.699102 0.192106
0.450115 0.721278 0.179616
0.428027 0.725515 0.244975
0.47825 0.698945 0.181096
0.473207 0.720525 0.245699
0.500041 0.725094 0.192819
0.524142 0.698942 0.194621
0.52796 0.725202 0.246967
0.57795 0.725444 0.12691
0.578199 0.698475 0.182752
0.550046 0.721113 0.181704
0.573645 0.720401 0.247406
0.624307 0.720166 0.127644
0.625016 0.698301 0.195692
0.600222 0.724355 0.193251
0.650637 0.720965 0.185982
0.679751 0.698146 0.184655
0.676251 0.726474 0.129528
0.725813 0.698934 0.181202
0.70109 0.726613 0.188437
0.724226 0.72282 0.249207
0.751228 0.724026 0.19385
0.773381 0.722756 0.126941
0.779686 0.699566 0.191736
0.825344 0.69962 0.177148
0.851243 0.723902 0.192608
0.823443 0.723313 0.246692
0.873133 0.722864 0.124208
0.87986 0.699837 0.189388
0.925231 0.700049 0.173582
0.951152 0.72382 0.189976
0.923115 0.723619 0.243893
0.979827 0.7003 0.186675
9.22044e-04 0.728317 0.176269
0.0264977 0.750374 0.187726
0.07656 0.72938 0.239691
0.0725806 0.750196 0.173036
0.0718781 0.772519 0.24082
0.100765 0.728165 0.175954
0.127174 0.749776 0.168395
0.127301 0.770366 0.240071
0.100541 0.7708 0.185285
0.171764 0.749864 0.18452
0.199889 0.771621 0.186748
0.227153 0.771301 0.241944
0.226502 0.749801 0.171779
0.271608 0.749791 0.18635
0.2997 0.771463 0.18847
0.326151 0.749583 0.173507
0.326841 0.770932 0.243949
0.371371 0.74936 0.188555
0.399454 0.771168 0.190441
0.426099 0.749044 0.175951
0.42666 0.770674 0.246148
0.476791 0.770295 0.125172
0.471351 0.749077 0.190785
0.499502 0.770789 0.192739
0.526097 0.748836 0.177802
0.526699 0.770314 0.24781
0.576885 0.770114 0.127313
0.571813 0.748681 0.192696
0.625997 0.748584 0.179938
0.599637 0.770812 0.193925
0.677025 0.770676 0.129789
0.672528 0.749163 0.195638
0.72692 0.727714 0.128544
0.726462 0.750025 0.197756
0.721408 0.77268 0.129842
0.773029 0.749973 0.18366
0.801252 0.727442 0.181817
0.77779 0.727852 0.247775
0.827097 0.749802 0.19497
0.901415 0.727612 0.178793
0.878069 0.728241 0.245323
0.873267 0.749799 0.18116
0.922601 0.773086 0.124329
0.927204 0.749953 0.19168
0.977852 0.728625 0.242341
0.972765 0.75022 0.178076
0.0227037 0.800012 0.178496
0.0270594 0.77836 0.242442
0.050449 0.777998 0.175938
0.0767672 0.799726 0.188991
0.121721 0.799296 0.186741
0.149869 0.775905 0.170652
0.176193 0.799358 0.174049
0.170998 0.776163 0.241192
0.222165 0.799464 0.186186
0.249719 0.775773 0.172397
0.270861 0.776122 0.242786
0.276064 0.79928 0.17511
0.349504 0.775419 0.174436
0.322212 0.79935 0.188073
0.370756 0.775542 0.244731
0.375827 0.79891 0.17753
0.449448 0.775075 0.176433
0.422069 0.798775 0.18981
0.47056 0.775382 0.246931
0.47563 0.798445 0.179291
0.520678 0.775327 0.126618
0.522232 0.798383 0.19215
0.549596 0.774569 0.17882
0.576003 0.798336 0.181482
0.570964 0.775163 0.248756
0.620827 0.775159 0.128419
0.622406 0.798297 0.19415
0.649893 0.774393 0.181561
0.676075 0.79895 0.184494
0.700057 0.773179 0.200274
0.721985 0.799923 0.18571
0.750146 0.777706 0.185626
0.800597 0.773709 0.196448
0.77703 0.777535 0.128805
0.77646 0.799752 0.197331
0.82239 0.772717 0.12739
0.850748 0.777481 0.183326
0.822849 0.799746 0.184041
0.827112 0.778091 0.248305
0.877385 0.77767 0.126005
0.9008 0.773859 0.193534
0.876827 0.799945 0.194863
0.872608 0.77328 0.246813
0.950609 0.778001 0.179697
0.922757 0.800102 0.181296
0.927344 0.778207 0.24541
0.97221 0.773796 0.244102
5.20529e-04 0.774267 0.190446
0.976588 0.800189 0.191638
0.0265412 0.850222 0.191513
0.0225158 0.823748 0.243762
3.97386e-04 0.827808 0.180165
0.0504342 0.823756 0.190044
0.072537 0.849883 0.176927
0.0769288 0.828049 0.242319
0.100416 0.826226 0.172539
0.126324 0.849268 0.173422
0.121895 0.826532 0.242397
0.150012 0.821482 0.186123
0.172468 0.849531 0.186831
0.176559 0.821572 0.242929
0.200112 0.825741 0.175673
0.222373 0.826033 0.243549
0.226319 0.849503 0.176061
0.250085 0.821856 0.187006
0.272562 0.849538 0.188537
0.299932 0.825588 0.17738
0.27642 0.821312 0.244418
0.326534 0.849278 0.178044
0.350093 0.821595 0.188636
0.322147 0.825832 0.245601
0.372759 0.84909 0.190457
0.399974 0.824851 0.179271
0.376463 0.821068 0.24636
0.426157 0.820671 0.125849
0.449959 0.821175 0.190416
0.426255 0.848823 0.180111
0.422101 0.825352 0.247523
0.471947 0.825194 0.127315
0.472574 0.848786 0.192477
0.476465 0.820582 0.248359
0.499954 0.824568 0.181449
0.526028 0.820229 0.127759
0.526188 0.84831 0.181711
0.522253 0.824961 0.249468
0.572081 0.824823 0.129414
0.550011 0.820925 0.192683
0.572483 0.848411 0.194178
0.626467 0.820203 0.130301
0.600211 0.8244 0.18349
0.626226 0.848471 0.184447
0.650062 0.821163 0.195454
0.671905 0.826075 0.131725
0.672573 0.849206 0.198409
0.700132 0.827705 0.187664
0.726178 0.849918 0.201291
0.72663 0.828656 0.131483
0.749992 0.823651 0.198947
0.772307 0.823114 0.130215
0.772264 0.849743 0.187558
0.800417 0.827438 0.186437
0.827065 0.827907 0.129136
0.850415 0.823826 0.195743
0.826386 0.849868 0.197726
0.822412 0.823359 0.249951
0.872314 0.82303 0.127473
0.872538 0.849892 0.184555
0.900506 0.827795 0.183424
0.876822 0.828097 0.24869
0.927041 0.828264 0.125893
0.926408 0.8502 0.195027
0.950392 0.824172 0.193184
0.92241 0.823706 0.246942
0.972599 0.850221 0.18133
0.976743 0.82835 0.245488
0.0223942 0.900669 0.181872
0.0267543 0.878152 0.245261
2.69058e-04 0.874285 0.19287
0.0502683 0.877798 0.179524
0.0762197 0.900237 0.191362
0.0719109 0.873026 0.243736
0.100235 0.871341 0.18755
0.122347 0.89947 0.189668
0.126658 0.870685 0.24365
0.150194 0.875648 0.176162
0.176404 0.899665 0.177557
0.172223 0.876062 0.244508
0.222067 0.876196 0.124165
0.200339 0.871999 0.18843
0.222931 0.899721 0.189493
0.226898 0.871511 0.24515
0.250383 0.875652 0.17761
0.272492 0.87614 0.246247
0.276766 0.899391 0.178581
0.300554 0.871676 0.189567
0.32243 0.875805 0.125918
0.323326 0.899382 0.191686
0.35067 0.875195 0.178981
0.327112 0.871419 0.247064
0.377015 0.870873 0.126564
0.376879 0.899093 0.18074
0.400497 0.871248 0.191839
0.372537 0.875473 0.248122
0.422376 0.875133 0.12804
0.423141 0.898844 0.193036
0.450552 0.874791 0.18148
0.427243 0.87075 0.248963
0.476901 0.870361 0.128643
0.476894 0.89857 0.18273
0.472454 0.875196 0.249908
0.500401 0.870899 0.193443
0.522154 0.874744 0.129797
0.523014 0.898595 0.19547
0.576797 0.870275 0.13082
0.550333 0.874519 0.183503
0.576583 0.898345 0.184605
0.622095 0.874976 0.132092
0.600298 0.870816 0.196031
0.622756 0.898626 0.197534
0.650262 0.874763 0.186173
0.676212 0.899353 0.188003
0.676586 0.871104 0.133034
0.700208 0.873366 0.202465
0.722339 0.900004 0.188252
0.722059 0.872529 0.132648
0.750083 0.877607 0.18877
0.776742 0.877623 0.131749
0.776359 0.899847 0.200115
0.800239 0.873531 0.198961
0.822212 0.873225 0.130709
0.822228 0.900031 0.187361
0.850142 0.877721 0.186513
0.876684 0.878121 0.129279
0.876178 0.900177 0.197582
0.900157 0.873773 0.196288
0.922189 0.87369 0.127814
0.922174 0.90029 0.184805
0.95022 0.877967 0.183748
0.97674 0.878383 0.126402
0.976201 0.90063 0.19498
0.972421 0.873952 0.246946
0.0275262 0.929186 0.126451
0.0263147 0.950547 0.196161
0.0212937 0.923865 0.247369
0.999965 0.928422 0.181909
0.0711943 0.923623 0.124606
0.0500459 0.924982 0.193867
0.0728467 0.950426 0.180261
0.0770087 0.928385 0.245743
0.100247 0.926169 0.174957
0.125766 0.949423 0.179208
0.121683 0.926585 0.245582
0.17213 0.926154 0.124737
0.150347 0.922106 0.189475
0.173664 0.949398 0.190933
0.177006 0.921644 0.246144
0.200667 0.925604 0.178189
0.222757 0.926366 0.246714
0.227098 0.921452 0.125437
0.227557 0.94944 0.17914
0.251011 0.921788 0.190216
0.272855 0.925951 0.126525
0.273871 0.949543 0.192351
0.301174 0.925327 0.180287
0.27757 0.921584 0.247511
0.327458 0.921269 0.12749
0.327664 0.949347 0.181243
0.351148 0.921773 0.192507
0.322938 0.926227 0.248781
0.372932 0.925514 0.128386
0.37391 0.949191 0.194044
0.401193 0.925012 0.182069
0.377669 0.921245 0.249556
0.427558 0.920682 0.129495
0.427801 0.948991 0.183128
0.451055 0.921065 0.194603
0.472829 0.92481 0.130609
0.473964 0.948835 0.195893
0.50089 0.924737 0.18395
0.527195 0.920421 0.131051
0.527259 0.948634 0.185713
0.572253 0.924818 0.132415
0.550685 0.920805 0.196615
0.57337 0.948527 0.198012
0.627008 0.920233 0.13334
0.600475 0.92457 0.185672
0.626474 0.948615 0.187871
0.671666 0.926052 0.134574
0.650336 0.921121 0.199553
0.673155 0.948773 0.202738
0.700619 0.928138 0.18929
0.727324 0.9496 0.2059
0.727585 0.928815 0.134345
0.75024 0.923618 0.203446
0.771253 0.923302 0.133271
0.772267 0.949663 0.189279
0.800122 0.927998 0.187412
0.827413 0.928454 0.132183
0.826743 0.949736 0.201971
0.849922 0.924045 0.201015
0.871177 0.923652 0.130864
0.871898 0.950037 0.186871
0.899941 0.928336 0.184957
0.927254 0.928672 0.129386
0.926306 0.950284 0.199079
0.949791 0.924305 0.197771
0.971098 0.923951 0.127945
0.972009 0.950335 0.184231
0.977146 0.928751 0.24868
0.0281794 0.974546 0.127634
5.15175e-04 0.97483 0.183213
0.0244898 0.978905 0.248865
0.0756649 0.979332 0.126507
0.0509936 0.978198 0.190924
0.0778952 0.973798 0.247682
0.125254 0.976653 0.126484
0.10093 0.973638 0.184073
0.125821 0.971812 0.247219
0.180222 -1.35283e-04 0.183111
0.177706 0.971294 0.126806
0.151453 0.974879 0.183713
0.174251 0.976178 0.247841
0.226109 0.999743 0.19695
0.223663 0.976042 0.127235
0.201747 0.971954 0.191818
0.251689 0.975297 0.182153
0.280349 0.999612 0.184614
0.278554 0.971252 0.128346
0.301817 0.971744 0.194625
0.273994 0.976144 0.249518
0.326045 0.999524 0.198986
0.32369 0.9759 0.128999
0.3519 0.975212 0.183548
0.38065 0.999286 0.186315
0.378691 0.970844 0.13006
0.401901 0.971184 0.195812
0.426051 0.999086 0.200605
0.423833 0.975235 0.130718
0.451791 0.97489 0.184932
0.480222 0.998897 0.18827
0.478524 0.970628 0.131566
0.525714 0.998941 0.202523
0.501704 0.97128 0.198129
0.523459 0.975036 0.132638
0.579956 0.998652 0.190211
0.57811 0.970241 0.134043
0.551386 0.974637 0.187411
0.625018 0.998638 0.204329
0.623106 0.975045 0.134794
0.601147 0.971105 0.199819
0.679648 0.998325 0.189844
0.650833 0.974542 0.190883
0.676721 0.969371 0.136063
0.724918 0.999271 0.188089
0.700982 0.971125 0.199006
0.727929 0.972187 0.135246
0.750797 0.977151 0.199942
0.774496 0.977988 0.134377
0.800823 0.973807 0.187589
0.824735 0.999889 0.185798
0.82898 0.973494 0.132715
0.850525 0.977575 0.197737
0.878619 1.00012 0.195653
0.873837 0.978288 0.13157
0.900526 0.974081 0.184813
0.928524 0.973926 0.129782
0.950342 0.977772 0.195201
0.974064 0.978999 0.128736
0.97844 0.973765 0.249727
0.0249376 0.028677 0.369118
0.00126609 0.0242478 0.30125
0.0287263 8.36313e-04 0.313177
0.0518331 0.0285922 0.312797
0.0804766 0.0236989 0.3677
0.0756784 0.0011416 0.299162
0.101947 0.024497 0.297795
0.125082 0.0219722 0.367938
0.129203 3.49651e-04 0.301076
0.151929 0.0255749 0.315792
0.181233 0.0266356 0.369128
0.176186 1.46975e-05 0.316898
0.202451 0.0220081 0.303359
0.225364 0.0213461 0.37021
0.252505 0.0258928 0.318832
0.275177 0.0213076 0.249786
0.302629 0.0215422 0.305024
0.281346 0.0261252 0.371244
0.331331 0.0258235 0.251007
0.352536 0.025622 0.320862
0.325197 0.0208628 0.372169
0.330668 0.999571 0.306848
0.375359 0.0210186 0.2516
0.402532 0.0212024 0.306536
0.381381 0.0259985 0.373186
0.431193 0.0254386 0.252734
0.452479 0.0250638 0.323031
0.47516 0.0206004 0.253524
0.531075 0.0253583 0.254757
0.502334 0.0208525 0.308829
0.574699 0.0202624 0.255548
0.552221 0.0250319 0.325253
0.630789 0.0251305 0.255994
0.601875 0.0205194 0.31015
0.674268 0.0189736 0.257189
0.651676 0.0245474 0.326474
0.701231 0.0195072 0.311961
0.729954 0.0215115 0.256923
0.751265 0.026901 0.321936
0.774501 0.0274929 0.255332
0.801114 0.0230137 0.307061
0.775168 0.999202 0.309018
0.829346 0.0230169 0.253802
0.851066 0.02748 0.318135
0.828615 0.999618 0.319219
0.874656 0.0279734 0.252157
0.901135 0.0237238 0.304546
0.879238 0.0230471 0.373428
0.929454 0.0235838 0.251096
0.951281 0.0278794 0.315152
0.924537 0.0280347 0.37203
0.979565 0.0234267 0.370402
0.0254332 0.0505645 0.301338
0.0298047 0.0741814 0.368855
0.0016082 0.0782916 0.312643
0.0799606 0.0511494 0.313002
0.0520297 0.0746104 0.300326
0.0754414 0.0797744 0.367977
0.126058 0.0503407 0.313406
0.101825 0.0791583 0.311724
0.130155 0.077028 0.367473
0.151967 0.0725182 0.303426
0.175746 0.0714967 0.368601
0.179554 0.0496662 0.303842
0.201947 0.0758765 0.314711
0.22626 0.0495925 0.316581
0.229938 0.0760887 0.369768
0.252043 0.0720983 0.306182
0.280042 0.0494948 0.306192
0.302233 0.0755588 0.317142
0.276043 0.0714382 0.370501
0.325877 0.0713567 0.250421
0.326326 0.0490475 0.319195
0.352131 0.0715043 0.307952
0.330067 0.0755803 0.371851
0.379982 0.075709 0.251192
0.379961 0.049119 0.308204
0.402185 0.0751734 0.319796
0.375965 0.0708957 0.372831
0.425844 0.0711265 0.252337
0.426378 0.04889 0.320478
0.452209 0.0715279 0.310036
0.430114 0.0754386 0.373679
0.480226 0.0753123 0.2532
0.480093 0.0487055 0.310031
0.525654 0.0707975 0.254267
0.502099 0.0750328 0.321767
0.526023 0.0487957 0.322442
0.530283 0.0751568 0.375785
0.5799 0.0750829 0.255062
0.579867 0.0484966 0.311805
0.552102 0.071102 0.311469
0.625505 0.0482767 0.323765
0.62544 0.0703914 0.255408
0.601846 0.0746803 0.323185
0.651748 0.0700967 0.313199
0.679584 0.0479477 0.311105
0.679772 0.0751521 0.256514
0.701323 0.0748278 0.325458
0.724895 0.0483739 0.308896
0.724928 0.0766073 0.256013
0.751256 0.0721761 0.308155
0.779071 0.049058 0.320121
0.779264 0.0726743 0.254692
0.80125 0.077044 0.318456
0.774617 0.0771268 0.376142
0.82513 0.077502 0.253058
0.824886 0.0494232 0.306448
0.851418 0.0733661 0.305105
0.829319 0.0727184 0.374311
0.879389 0.073432 0.251599
0.879045 0.0496919 0.316604
0.901456 0.0776269 0.315676
0.874848 0.0779915 0.372771
0.925206 0.0500659 0.303955
0.951523 0.0740551 0.302998
0.92945 0.0734427 0.371313
0.979552 0.0740047 0.249221
0.979068 0.0503802 0.314067
0.974967 0.078497 0.370074
0.0295843 0.100524 0.312184
0.0254468 0.128453 0.368487
0.00174119 0.124093 0.300699
0.0758794 0.101198 0.298153
0.0520987 0.128892 0.311673
0.080417 0.123721 0.367205
0.129319 0.100653 0.301749
0.101899 0.124851 0.297315
0.125228 0.122466 0.367258
0.151727 0.126269 0.314874
0.175782 0.0998824 0.315865
0.180104 0.126578 0.368211
0.201795 0.1222 0.303703
0.225529 0.121527 0.36905
0.229681 0.09966 0.304931
0.252066 0.125847 0.317079
0.276022 0.0995686 0.31697
0.301947 0.121923 0.30612
0.280146 0.12572 0.370448
0.329578 0.0993112 0.307231
0.351812 0.12535 0.319149
0.325348 0.12087 0.37165
0.375376 0.121362 0.251141
0.375891 0.099176 0.319676
0.401901 0.121406 0.308637
0.380011 0.125425 0.372368
0.42992 0.125655 0.252124
0.429579 0.099122 0.309149
0.451909 0.125166 0.320968
0.42562 0.120827 0.373322
0.475428 0.120873 0.25281
0.475853 0.0989167 0.321975
0.480267 0.125318 0.374241
0.52982 0.124978 0.253903
0.501866 0.120987 0.310184
0.529617 0.0987519 0.311237
0.525571 0.120618 0.375133
0.575419 0.120415 0.25458
0.575881 0.0985233 0.323262
0.552035 0.124492 0.322554
0.629963 0.12468 0.255212
0.629587 0.098187 0.312416
0.601927 0.120607 0.311393
0.675102 0.11904 0.256139
0.652046 0.12417 0.324158
0.675244 0.0977628 0.32609
0.701498 0.119717 0.312071
0.729224 0.0983736 0.321683
0.729774 0.121514 0.255902
0.75144 0.126496 0.320236
0.775079 0.0989612 0.307495
0.775111 0.1271 0.253954
0.801407 0.12268 0.306285
0.829592 0.12309 0.252701
0.829081 0.0992289 0.317024
0.851455 0.127124 0.315948
0.824717 0.127347 0.373684
0.875167 0.127887 0.251009
0.875285 0.0997481 0.304255
0.901638 0.123656 0.303569
0.879488 0.122967 0.372761
0.929275 0.100021 0.314517
0.951662 0.12789 0.313636
0.925046 0.128066 0.370954
0.975446 0.128659 0.24869
0.975276 0.100315 0.301423
0.979647 0.123722 0.369612
0.0254797 0.150688 0.301055
0.0296012 0.174323 0.368149
0.00169859 0.178563 0.312132
0.0800634 0.151318 0.31202
0.0519989 0.17508 0.299677
0.0754323 0.180119 0.366676
0.125933 0.150833 0.312859
0.130369 0.177712 0.36691
0.101697 0.179518 0.311009
0.151787 0.172983 0.302534
0.179455 0.149917 0.303099
0.175357 0.172046 0.367565
0.201718 0.17619 0.315304
0.225701 0.149829 0.315508
0.229959 0.176313 0.368812
0.251774 0.172276 0.3048
0.279582 0.149796 0.306047
0.301749 0.175705 0.317357
0.275355 0.171487 0.370018
0.325674 0.149272 0.318562
0.351681 0.171736 0.306642
0.329876 0.175706 0.371019
0.379776 0.175719 0.250815
0.37952 0.149093 0.308252
0.401858 0.175351 0.319545
0.375523 0.171203 0.371773
0.425322 0.171144 0.251615
0.425465 0.149017 0.320013
0.451739 0.171263 0.309028
0.429888 0.175326 0.372913
0.479715 0.175408 0.252432
0.479556 0.148927 0.309821
0.475386 0.170419 0.37424
0.525481 0.170611 0.253333
0.501812 0.174728 0.320921
0.525771 0.148528 0.321574
0.579707 0.174875 0.254136
0.579557 0.148456 0.310738
0.55187 0.170853 0.310731
0.625433 0.170208 0.254518
0.625756 0.14816 0.322864
0.60189 0.174378 0.322745
0.679803 0.174972 0.255214
0.651822 0.170111 0.311812
0.679607 0.147812 0.309947
0.701464 0.174269 0.324645
0.725057 0.17627 0.254859
0.72533 0.148232 0.309007
0.75152 0.172227 0.307058
0.779673 0.172485 0.253492
0.779185 0.148829 0.318308
0.801531 0.176759 0.31735
0.774754 0.177064 0.374566
0.825211 0.177361 0.252121
0.825462 0.149151 0.305925
0.851589 0.173155 0.304426
0.829532 0.172565 0.373481
0.87914 0.149482 0.31509
0.901546 0.177697 0.314608
0.874866 0.177751 0.371855
0.925314 0.178168 0.249438
0.925659 0.149998 0.30234
0.951738 0.173923 0.301874
0.929543 0.173527 0.370448
0.979518 0.150364 0.313359
0.975175 0.178488 0.369334
0.0295288 0.200945 0.31088
0.00176026 0.224473 0.300069
0.0756044 0.201448 0.296672
0.0802108 0.224068 0.366148
0.129525 0.201112 0.300756
0.125272 0.222774 0.366346
0.101648 0.225035 0.296774
0.175643 0.200398 0.314561
0.179882 0.226843 0.367438
0.151792 0.226769 0.313594
0.201597 0.222577 0.303416
0.225288 0.221909 0.368286
0.229409 0.200047 0.304342
0.251738 0.225887 0.315341
0.275589 0.199702 0.316793
0.301788 0.222109 0.305564
0.279947 0.226104 0.36933
0.329299 0.199522 0.306139
0.351748 0.225308 0.317798
0.325317 0.221093 0.370698
0.375613 0.19925 0.318477
0.401629 0.22155 0.307543
0.379878 0.225561 0.371549
0.429796 0.225505 0.251118
0.42924 0.199079 0.308565
0.451848 0.22486 0.319871
0.425403 0.220914 0.372612
0.475273 0.220643 0.252156
0.47571 0.198715 0.320753
0.479832 0.225174 0.373224
0.529634 0.225133 0.252756
0.501749 0.220948 0.309946
0.529568 0.198519 0.309958
0.575192 0.220227 0.253527
0.575725 0.198366 0.322444
0.551753 0.224661 0.321666
0.580114 0.224814 0.374816
0.629562 0.224343 0.253962
0.629453 0.198079 0.311536
0.601762 0.220576 0.310626
0.675234 0.218897 0.254511
0.675528 0.197545 0.324787
0.651876 0.223747 0.322059
0.701301 0.219531 0.310748
0.729192 0.198133 0.320233
0.729775 0.221301 0.254584
0.751476 0.226427 0.318569
0.775269 0.198676 0.305727
0.801614 0.222794 0.304712
0.779448 0.222111 0.373631
0.774988 0.227003 0.252829
0.829998 0.222834 0.251401
0.82939 0.199294 0.316108
0.851565 0.22731 0.315281
0.824833 0.227224 0.372482
0.875392 0.199835 0.303038
0.879463 0.222972 0.371273
0.901596 0.223478 0.30244
0.929971 0.223754 0.248858
0.929498 0.200048 0.313511
0.9754 0.200484 0.300477
0.979735 0.22379 0.368487
0.0253672 0.228789 0.367574
0.0257471 0.250931 0.300244
0.0519768 0.228963 0.310063
0.0795351 0.251475 0.311201
0.125696 0.25104 0.312349
0.179142 0.250406 0.302602
0.175556 0.272369 0.366936
0.225572 0.250021 0.314575
0.251505 0.272298 0.303728
0.279016 0.24981 0.304983
0.275207 0.271673 0.368703
0.325714 0.249509 0.317252
0.35167 0.271599 0.305758
0.379323 0.249296 0.306884
0.375273 0.271201 0.370935
0.425154 0.271004 0.250283
0.425719 0.248966 0.318965
0.451584 0.27127 0.307455
0.479492 0.248666 0.308533
0.475173 0.270498 0.372616
0.524972 0.270626 0.252094
0.525431 0.248551 0.320779
0.579294 0.248447 0.310015
0.551759 0.270818 0.309375
0.575393 0.270088 0.374007
0.625631 0.247902 0.321248
0.625361 0.270221 0.253231
0.651765 0.269821 0.310803
0.679753 0.247502 0.308896
0.725342 0.248083 0.307709
0.751422 0.272346 0.30599
0.779053 0.248759 0.317003
0.779527 0.272462 0.252328
0.825307 0.249188 0.304064
0.829555 0.272345 0.372218
0.875258 0.227824 0.249834
0.879481 0.249694 0.31404
0.925011 0.227968 0.370036
0.951747 0.228081 0.312498
0.925575 0.249951 0.301902
0.979532 0.250476 0.31225
0.029536 0.274497 0.3672
0.0291382 0.301089 0.309385
0.00153922 0.27845 0.311155
0.05188 0.275182 0.298465
0.0756975 0.301549 0.295902
0.075227 0.280317 0.365835
0.10156 0.279559 0.309588
0.129294 0.301294 0.299629
0.13012 0.277796 0.365499
0.151593 0.273249 0.30126
0.175628 0.300473 0.313678
0.201635 0.276289 0.314081
0.229339 0.30012 0.302842
0.229899 0.276435 0.3678
0.301739 0.275757 0.316248
0.275588 0.299708 0.315499
0.329535 0.299462 0.305035
0.33007 0.27591 0.369915
0.401669 0.275247 0.318518
0.375399 0.299224 0.317482
0.429374 0.299063 0.306892
0.429828 0.275351 0.371685
0.479638 0.275159 0.251453
0.475544 0.298702 0.319286
0.501625 0.274826 0.32006
0.529223 0.298692 0.309088
0.529871 0.274823 0.37326
0.57962 0.274958 0.252779
0.57564 0.298411 0.320911
0.601807 0.274369 0.320928
0.629471 0.297985 0.309956
0.675312 0.297496 0.323535
0.679807 0.274734 0.253798
0.701357 0.274107 0.323257
0.72502 0.276066 0.253658
0.729236 0.297973 0.318855
0.774594 0.276943 0.373235
0.775153 0.298762 0.304657
0.801439 0.276675 0.316319
0.851449 0.273197 0.303128
0.825067 0.277515 0.250965
0.829299 0.299134 0.315133
0.879756 0.273209 0.249391
0.875269 0.299598 0.302024
0.901676 0.277696 0.31333
0.875 0.277563 0.370625
0.925293 0.278006 0.248275
0.929636 0.273434 0.3696
0.951725 0.273953 0.300784
0.92949 0.299971 0.312096
0.975392 0.300538 0.299348
0.974858 0.278601 0.368362
0.0255217 0.351101 0.298502
0.0248987 0.329001 0.366414
0.00158259 0.324585 0.299141
0.0517148 0.328928 0.308807
0.0793668 0.351578 0.310373
0.0800796 0.324266 0.365314
0.101398 0.325209 0.295373
0.125655 0.35106 0.311139
0.125071 0.322895 0.365361
0.151558 0.326942 0.312343
0.179097 0.350395 0.301171
0.180014 0.326854 0.366131
0.201602 0.322612 0.301988
0.225458 0.350046 0.313636
0.225215 0.321978 0.366931
0.251879 0.326117 0.314937
0.279297 0.349689 0.303421
0.301706 0.321812 0.304418
0.280028 0.326193 0.368368
0.325476 0.349368 0.316404
0.351686 0.325541 0.316721
0.325424 0.321199 0.369265
0.401642 0.321383 0.305953
0.379234 0.349352 0.305706
0.379974 0.325613 0.370154
0.4255 0.34892 0.317152
0.451703 0.325005 0.317834
0.425268 0.320908 0.370931
0.475097 0.320885 0.250449
0.479322 0.348893 0.307014
0.479779 0.325167 0.371947
0.529686 0.325022 0.251499
0.501549 0.321073 0.307966
0.525549 0.348671 0.319594
0.525212 0.320323 0.372742
0.574998 0.32027 0.252367
0.551644 0.324527 0.320379
0.579234 0.348256 0.309014
0.579934 0.324754 0.373598
0.629872 0.32428 0.253064
0.601739 0.320388 0.309732
0.625623 0.347866 0.320457
0.625352 0.319959 0.374117
0.675071 0.318672 0.253197
0.651912 0.323854 0.321804
0.679686 0.347358 0.307985
0.680174 0.324758 0.375003
0.701499 0.319347 0.308883
0.725445 0.347959 0.306582
0.724513 0.326302 0.3744
0.730001 0.321327 0.253316
0.751474 0.326042 0.318009
0.774998 0.327013 0.251354
0.779187 0.348623 0.315469
0.801427 0.322594 0.304167
0.77935 0.32206 0.373006
0.825212 0.349197 0.302652
0.851565 0.32721 0.314617
0.824757 0.327151 0.371425
0.879341 0.34961 0.312816
0.901659 0.323503 0.301397
0.879445 0.322926 0.370357
0.925356 0.350032 0.300522
0.924936 0.327946 0.368698
0.951532 0.328158 0.311756
0.979349 0.350559 0.31057
0.979501 0.323791 0.367516
0.0289036 0.40091 0.308255
0.0293744 0.374573 0.365836
0.00139016 0.37853 0.30986
0.0515781 0.375187 0.297668
0.0754993 0.40171 0.294828
0.0751406 0.380461 0.364734
0.101593 0.379646 0.309006
0.129314 0.401083 0.298746
0.129962 0.377904 0.364575
0.151432 0.372992 0.300371
0.175482 0.400514 0.31209
0.175307 0.37224 0.365071
0.201582 0.37644 0.312846
0.229279 0.40007 0.301742
0.230009 0.376451 0.366459
0.25178 0.372165 0.302358
0.275136 0.371499 0.368028
0.275353 0.399712 0.314166
0.301698 0.375715 0.3152
0.329377 0.399431 0.303798
0.351527 0.371672 0.30499
0.3298 0.375948 0.368605
0.375488 0.399252 0.315971
0.401739 0.375309 0.317342
0.375162 0.371049 0.369629
0.429344 0.39913 0.30592
0.451544 0.371073 0.306373
0.429974 0.375231 0.3702
0.479574 0.375497 0.249946
0.475532 0.3988 0.318068
0.4752 0.370619 0.371302
0.525232 0.370541 0.250645
0.50172 0.374909 0.318472
0.529274 0.398538 0.307454
0.529895 0.375045 0.372287
0.579643 0.374689 0.251844
0.551703 0.370688 0.308315
0.575646 0.398206 0.319838
0.575547 0.370026 0.373141
0.625238 0.370089 0.252217
0.629365 0.397942 0.309034
0.601707 0.374201 0.320003
0.629862 0.374138 0.3738
0.67991 0.374771 0.252839
0.651818 0.369911 0.309377
0.67548 0.397458 0.322326
0.674963 0.368487 0.374109
0.72496 0.376081 0.252473
0.701532 0.373887 0.322389
0.729201 0.398012 0.31822
0.751446 0.372202 0.304537
0.729584 0.370974 0.373918
0.779553 0.37219 0.251011
0.774629 0.376915 0.372183
0.775109 0.398602 0.303538
0.801378 0.376587 0.314959
0.829217 0.399073 0.313639
0.851693 0.373103 0.3015
0.829513 0.372429 0.370707
0.875122 0.399671 0.301132
0.901349 0.377659 0.312298
0.874753 0.377624 0.369868
0.929102 0.400054 0.310841
0.951493 0.374011 0.299458
0.929384 0.373445 0.368515
0.975213 0.40058 0.297743
0.974964 0.378766 0.366735
0.024609 0.428866 0.365134
0.0253539 0.451037 0.297363
0.00138257 0.424654 0.297129
0.0515591 0.42882 0.308238
0.0795643 0.451645 0.309023
0.0799834 0.424102 0.364217
0.101385 0.425128 0.294373
0.125381 0.450996 0.309709
0.124981 0.422812 0.364224
0.151431 0.426961 0.311591
0.179094 0.450418 0.299964
0.179731 0.426857 0.36514
0.201563 0.422696 0.300307
0.225354 0.421939 0.36586
0.225514 0.450107 0.312741
0.251667 0.426023 0.313394
0.301577 0.422091 0.302758
0.279163 0.449854 0.301939
0.279822 0.426257 0.366738
0.325653 0.44946 0.314545
0.351679 0.425271 0.314889
0.325072 0.421257 0.367723
0.379246 0.449274 0.303838
0.401553 0.421285 0.304754
0.379831 0.425672 0.368648
0.425232 0.449054 0.31659
0.451557 0.42511 0.316979
0.425231 0.420807 0.369732
0.479326 0.448895 0.30601
0.479715 0.425166 0.370936
0.501602 0.421204 0.306729
0.525541 0.448535 0.318121
0.525229 0.420382 0.371599
0.57521 0.420507 0.250994
0.551699 0.424632 0.318648
0.579253 0.448385 0.307329
0.5799 0.424721 0.372332
0.62959 0.424304 0.251519
0.601626 0.420453 0.308413
0.625546 0.447961 0.319176
0.625161 0.419895 0.372965
0.675135 0.418835 0.252283
0.651704 0.423775 0.319945
0.679703 0.447586 0.307035
0.679895 0.424756 0.373977
0.701374 0.419502 0.308331
0.725364 0.448059 0.305627
0.724509 0.426264 0.373147
0.729612 0.421304 0.25235
0.751336 0.42612 0.31643
0.774956 0.426852 0.250589
0.779095 0.448777 0.315077
0.801334 0.422673 0.302849
0.77926 0.422304 0.371717
0.825056 0.449398 0.301893
0.851241 0.427188 0.312755
0.824645 0.427152 0.370136
0.879075 0.449594 0.311997
0.901365 0.423537 0.300182
0.879299 0.422999 0.368945
0.925252 0.450165 0.299393
0.951248 0.427884 0.310284
0.924622 0.428182 0.367733
0.979005 0.450371 0.308799
0.979311 0.423816 0.366036
0.0293554 0.474526 0.364308
0.00129005 0.478497 0.308297
0.0517657 0.475123 0.296349
0.0751718 0.48036 0.363684
0.101558 0.479697 0.307328
0.129731 0.477822 0.363205
0.15139 0.473276 0.299193
0.175 0.472111 0.364361
0.201645 0.476421 0.312117
0.22988 0.476459 0.365447
0.25152 0.472302 0.301502
0.275237 0.471547 0.366217
0.301502 0.475688 0.313413
0.351581 0.471734 0.303189
0.329869 0.475895 0.367631
0.401661 0.475394 0.315857
0.375164 0.471149 0.36805
0.375296 0.49928 0.314864
0.429833 0.475502 0.369498
0.451527 0.471313 0.305316
0.429149 0.499186 0.304578
0.4752 0.470704 0.370208
0.475477 0.498694 0.316664
0.501688 0.474934 0.317447
0.529799 0.475035 0.370975
0.529338 0.498667 0.306157
0.551605 0.470842 0.307177
0.57564 0.498216 0.318851
0.575251 0.469879 0.37199
0.624962 0.469972 0.250643
0.6017 0.474383 0.319607
0.629232 0.497892 0.307719
0.629988 0.474143 0.372476
0.680008 0.474723 0.251529
0.651651 0.469963 0.307754
0.675392 0.497577 0.320966
0.67487 0.468641 0.373011
0.724814 0.476048 0.251361
0.701287 0.473988 0.321542
0.729104 0.498097 0.316809
0.751329 0.472162 0.303444
0.729536 0.471323 0.372699
0.779584 0.472244 0.24984
0.774367 0.477085 0.371316
0.801199 0.477144 0.313936
0.774965 0.498739 0.302329
0.851269 0.473284 0.30057
0.829241 0.472746 0.369707
0.829059 0.49926 0.312351
0.901142 0.477656 0.310963
0.874465 0.477803 0.368219
0.874987 0.4997 0.29942
0.929199 0.473432 0.367087
0.95135 0.474135 0.297946
0.974654 0.478643 0.365278
0.0290844 0.500919 0.307125
0.0248302 0.528707 0.363777
0.00142298 0.524464 0.296351
0.0755152 0.50155 0.293556
0.0515406 0.52885 0.306963
0.0799295 0.523915 0.362932
0.129125 0.501165 0.297263
0.1014 0.525064 0.293281
0.124908 0.523003 0.362743
0.17523 0.500454 0.311482
0.151439 0.526768 0.309533
0.179525 0.526883 0.363927
0.201356 0.522444 0.299621
0.224958 0.521641 0.364752
0.229127 0.50004 0.300793
0.251432 0.526102 0.31199
0.275392 0.499723 0.312753
0.301322 0.521676 0.301881
0.279662 0.525996 0.365816
0.329258 0.49945 0.302586
0.351455 0.525512 0.313907
0.325127 0.521051 0.366838
0.401344 0.521537 0.303997
0.379593 0.52559 0.3683
0.425125 0.520926 0.368697
0.451489 0.525152 0.316006
0.47979 0.524999 0.369465
0.50159 0.521071 0.305486
0.525295 0.520412 0.370249
0.575069 0.520318 0.249503
0.551804 0.524641 0.317604
0.579879 0.524752 0.371116
0.629616 0.524428 0.250007
0.601598 0.52072 0.30659
0.625354 0.520256 0.371254
0.67499 0.518885 0.250829
0.651773 0.523923 0.318692
0.680029 0.524947 0.372222
0.701454 0.519668 0.306507
0.724402 0.526492 0.371892
0.751243 0.526442 0.315581
0.801229 0.522842 0.301975
0.779111 0.522256 0.370261
0.851276 0.527203 0.311801
0.824795 0.527133 0.36928
0.901262 0.523541 0.298576
0.879276 0.523104 0.367524
0.92913 0.499982 0.309785
0.951341 0.528066 0.308933
0.924544 0.528149 0.366339
0.975199 0.50058 0.296952
0.979359 0.523739 0.364964
0.0252507 0.550917 0.295342
0.0294398 0.574276 0.363217
0.00138417 0.578486 0.307075
0.0794328 0.551296 0.308139
0.0514987 0.574913 0.294597
0.0749977 0.580143 0.362077
0.125517 0.551016 0.308323
0.101524 0.579371 0.306206
0.129692 0.577555 0.362155
0.151404 0.572935 0.297426
0.174927 0.572071 0.36318
0.179162 0.550267 0.298772
0.201299 0.576408 0.310186
0.22533 0.549948 0.311279
0.229507 0.576335 0.364359
0.251364 0.572124 0.300297
0.274937 0.571413 0.365052
0.279128 0.549561 0.300971
0.301283 0.575645 0.312401
0.325088 0.549202 0.313442
0.351109 0.571328 0.302135
0.329456 0.575774 0.366302
0.379032 0.549218 0.303185
0.401233 0.575186 0.314449
0.37482 0.570704 0.367679
0.425317 0.548962 0.315233
0.451312 0.571331 0.303976
0.429489 0.575391 0.368036
0.479079 0.548752 0.304903
0.475021 0.570552 0.368849
0.501359 0.574655 0.316422
0.525422 0.548476 0.316976
0.529619 0.574977 0.369715
0.57932 0.548436 0.305999
0.551408 0.570909 0.306014
0.575178 0.570037 0.370501
0.625038 0.570502 0.249818
0.625593 0.548098 0.317304
0.601638 0.574416 0.317733
0.629717 0.574322 0.371075
0.680062 0.575032 0.250334
0.679534 0.547674 0.305401
0.651658 0.570422 0.306448
0.674935 0.568994 0.371496
0.725053 0.576355 0.250153
0.701379 0.574434 0.31999
0.725228 0.548313 0.304139
0.729614 0.571427 0.371392
0.751389 0.57257 0.302971
0.779562 0.572798 0.249114
0.774387 0.577028 0.369967
0.778845 0.549043 0.313536
0.801453 0.576899 0.313326
0.825222 0.549134 0.30079
0.851242 0.57341 0.299678
0.829517 0.572903 0.368384
0.879026 0.549773 0.310127
0.901294 0.577803 0.309808
0.874685 0.577781 0.366891
0.925048 0.550123 0.297326
0.951418 0.574093 0.296748
0.929344 0.573545 0.365508
0.979079 0.550416 0.307778
0.974737 0.578526 0.364135
0.028974 0.600877 0.306139
0.0250844 0.628558 0.36259
0.00133598 0.624426 0.29574
0.0753171 0.601197 0.29242
0.051625 0.628877 0.305355
0.0796594 0.623684 0.361733
0.128956 0.600857 0.296266
0.101271 0.624409 0.291961
0.124903 0.622338 0.36179
0.175086 0.600208 0.310218
0.151258 0.626451 0.308985
0.179413 0.626426 0.36257
0.201292 0.622186 0.298592
0.224869 0.621489 0.363651
0.22906 0.59996 0.299389
0.25127 0.625696 0.310742
0.275178 0.599503 0.311469
0.301054 0.621667 0.300395
0.279329 0.625997 0.36473
0.329052 0.599319 0.301656
0.350916 0.625496 0.31284
0.324622 0.621351 0.365598
0.374766 0.598982 0.313739
0.400851 0.621308 0.302643
0.379152 0.625263 0.366213
0.428798 0.598981 0.303105
0.451004 0.624935 0.314856
0.424533 0.620445 0.367415
0.475314 0.598755 0.315472
0.47922 0.62514 0.368358
0.501179 0.621196 0.304455
0.528873 0.598582 0.304948
0.525105 0.620279 0.369366
0.57546 0.598356 0.316919
0.551261 0.624415 0.31582
0.579501 0.62486 0.369776
0.629372 0.624568 0.249394
0.628995 0.598175 0.306322
0.60132 0.620847 0.305762
0.625228 0.620352 0.370162
0.675418 0.619373 0.249817
0.67558 0.597948 0.319261
0.651772 0.62416 0.317148
0.679812 0.625195 0.371205
0.70158 0.620137 0.305978
0.724671 0.626989 0.370789
0.729927 0.621934 0.250037
0.729144 0.598564 0.315888
0.751608 0.626707 0.314091
0.775257 0.599147 0.301933
0.801531 0.623475 0.30152
0.77911 0.622915 0.369443
0.829133 0.599557 0.311408
0.851475 0.627454 0.310467
0.8251 0.627529 0.368069
0.875188 0.599774 0.298643
0.901326 0.623969 0.298738
0.879211 0.623509 0.366879
0.929167 0.600127 0.308764
0.9513 0.627975 0.307147
0.924905 0.628287 0.364975
0.974989 0.600562 0.295464
0.979135 0.623722 0.363737
0.0252837 0.650852 0.294746
0.0303479 0.674189 0.362024
0.00153079 0.67861 0.308259
0.0794125 0.651252 0.307314
0.0514648 0.6746 0.292177
0.0740327 0.680238 0.36098
0.124669 0.650585 0.308552
0.129689 0.677442 0.360909
0.100985 0.679623 0.30612
0.151113 0.67215 0.296093
0.174575 0.671503 0.361902
0.179045 0.649991 0.29738
0.201108 0.675764 0.309768
0.224983 0.649667 0.310413
0.229313 0.675981 0.3632
0.250887 0.672054 0.299145
0.27443 0.671176 0.364379
0.278748 0.649523 0.300041
0.300668 0.675688 0.311409
0.324688 0.649359 0.312173
0.350628 0.671605 0.30091
0.328867 0.675564 0.365039
0.378415 0.649082 0.301865
0.400754 0.675027 0.313929
0.374106 0.670812 0.366113
0.424674 0.648822 0.314644
0.45072 0.671289 0.303391
0.428927 0.675483 0.367085
0.478338 0.648779 0.303804
0.474212 0.670558 0.368436
0.500733 0.674692 0.31563
0.524999 0.648612 0.316298
0.529052 0.674889 0.368803
0.579032 0.674877 0.248291
0.578667 0.648383 0.305212
0.550776 0.671032 0.304399
0.574708 0.670235 0.369521
0.625439 0.648434 0.316689
0.600974 0.674215 0.316984
0.6299 0.674774 0.370206
0.680534 0.675072 0.249552
0.65169 0.670488 0.305107
0.67484 0.66963 0.37083
0.679762 0.648114 0.304954
0.701805 0.674763 0.320121
0.725784 0.648896 0.303206
0.730584 0.672291 0.370576
0.75177 0.673628 0.300926
0.774218 0.67818 0.368973
0.779174 0.649644 0.312906
0.801829 0.677575 0.313647
0.825725 0.649808 0.299723
0.851885 0.673937 0.297259
0.830506 0.673538 0.367489
0.879365 0.650218 0.309657
0.901774 0.67824 0.310946
0.874415 0.678632 0.366022
0.92533 0.650449 0.296594
0.930657 0.673674 0.364716
0.951579 0.6742 0.294124
0.979197 0.650531 0.307023
0.974092 0.678941 0.363219
0.0293744 0.700536 0.305966
9.09406e-04 0.724443 0.308806
0.0743586 0.700736 0.289945
0.0737611 0.72333 0.360855
0.0507669 0.728268 0.296868
0.128633 0.700067 0.294196
0.100581 0.722302 0.297803
0.125147 0.72086 0.360602
0.175177 0.699846 0.30794
0.178722 0.726313 0.361764
0.150795 0.72583 0.305235
0.200551 0.72215 0.29621
0.223624 0.721314 0.3626
0.228312 0.699718 0.298253
0.250256 0.725693 0.30985
0.274499 0.699592 0.310798
0.300052 0.721976 0.298342
0.278462 0.725987 0.363922
0.327986 0.699422 0.300049
0.323276 0.721146 0.364422
0.350075 0.725226 0.311433
0.374191 0.699085 0.312734
0.399848 0.721303 0.300151
0.378317 0.725452 0.365765
0.427898 0.698915 0.301372
0.423228 0.72022 0.366326
0.449997 0.724738 0.313045
0.474397 0.698843 0.314817
0.478148 0.72515 0.367511
0.499935 0.721135 0.301984
0.528081 0.698537 0.303525
0.523529 0.720176 0.368124
0.574661 0.698268 0.315839
0.578127 0.724681 0.368971
0.550283 0.724291 0.314288
0.627729 0.724803 0.24847
0.62803 0.698122 0.305029
0.600112 0.720762 0.304357
0.62436 0.719958 0.36934
0.676284 0.720717 0.248996
0.676457 0.698043 0.314875
0.650487 0.723436 0.31231
0.676652 0.724552 0.369999
0.701129 0.722749 0.313061
0.729246 0.699216 0.315258
0.751041 0.727267 0.305262
0.773571 0.723413 0.368831
0.775498 0.699543 0.299445
0.801197 0.724215 0.313441
0.8297 0.699825 0.311265
0.875341 0.700017 0.296486
0.873211 0.723443 0.366712
0.901237 0.724232 0.311964
0.929955 0.700191 0.308975
0.97497 0.700443 0.293649
0.973003 0.723959 0.363716
0.0273594 0.728735 0.362239
0.0228664 0.750614 0.298638
0.0766738 0.750307 0.309072
0.122129 0.749543 0.306839
0.176678 0.749831 0.292751
0.177535 0.771316 0.362139
0.15003 0.771576 0.306911
0.221813 0.749777 0.306918
0.249775 0.771579 0.308932
0.276067 0.749713 0.294793
0.277233 0.771073 0.36453
0.321574 0.749419 0.308893
0.349706 0.771394 0.311163
0.376018 0.749091 0.296739
0.376932 0.770662 0.366009
0.421286 0.748715 0.310621
0.449548 0.770733 0.313072
0.475934 0.748847 0.298193
0.476933 0.770307 0.367993
0.521601 0.748661 0.312522
0.575939 0.748475 0.300031
0.549614 0.770536 0.314455
0.576998 0.770055 0.369655
0.626701 0.770045 0.249449
0.621893 0.748434 0.314167
0.675663 0.749033 0.304485
0.649579 0.770952 0.316622
0.677169 0.770399 0.371849
0.722416 0.750084 0.305866
0.721299 0.772516 0.371844
0.726644 0.727999 0.370317
0.776648 0.750137 0.316127
0.851368 0.727547 0.301779
0.827956 0.728108 0.367634
0.823484 0.750006 0.303674
0.877022 0.750052 0.314871
0.951138 0.727985 0.29862
0.92814 0.728489 0.365087
0.923254 0.750172 0.300526
0.976799 0.750384 0.311617
0.0218765 0.774173 0.363566
0.0263736 0.800301 0.31135
3.76374e-04 0.778155 0.299276
0.0504088 0.77399 0.310868
0.0726017 0.799849 0.295909
0.0772047 0.778873 0.362352
0.100315 0.775727 0.290418
0.126209 0.79916 0.292903
0.12128 0.777038 0.361753
0.172417 0.799533 0.306668
0.220793 0.776272 0.363253
0.19995 0.77572 0.292763
0.226202 0.799514 0.295936
0.272157 0.79951 0.308999
0.299671 0.775615 0.295025
0.320728 0.775819 0.364898
0.326063 0.799319 0.298029
0.399439 0.774943 0.297161
0.372205 0.799187 0.310434
0.42056 0.775377 0.366908
0.425958 0.79886 0.300408
0.47195 0.798647 0.31277
0.499428 0.774669 0.298837
0.52596 0.798451 0.301875
0.520716 0.77525 0.368936
0.572226 0.798432 0.313936
0.599668 0.774322 0.300837
0.621108 0.774981 0.37082
0.625943 0.79828 0.30376
0.671096 0.775798 0.251453
0.672466 0.799087 0.317706
0.726645 0.778517 0.250954
0.70012 0.777634 0.307004
0.726105 0.799989 0.321088
0.772252 0.773373 0.249714
0.750035 0.774017 0.318643
0.772587 0.799951 0.306974
0.800471 0.777857 0.305221
0.776681 0.778095 0.370455
0.85082 0.774119 0.315796
0.822309 0.773535 0.369229
0.826721 0.800151 0.317205
0.900739 0.777724 0.302662
0.873059 0.800174 0.304213
0.877297 0.778273 0.368302
0.922393 0.773846 0.366641
0.950412 0.774206 0.313268
0.926582 0.800388 0.314438
0.972522 0.800353 0.301599
0.977029 0.778622 0.365577
0.0224149 0.850326 0.301686
0.0267625 0.828632 0.365147
2.37076e-04 0.824474 0.312689
0.0503676 0.827832 0.299243
0.0763425 0.849874 0.310311
0.0721327 0.822966 0.363614
0.126711 0.820503 0.3631
0.100282 0.82127 0.307756
0.12226 0.849337 0.309361
0.150107 0.825464 0.296053
0.176606 0.84964 0.296916
0.172435 0.826159 0.363841
0.200292 0.821972 0.30739
0.222777 0.849715 0.308883
0.226754 0.821387 0.364642
0.250252 0.825795 0.297786
0.272388 0.826182 0.365851
0.276545 0.849643 0.298204
0.300129 0.821818 0.308809
0.323026 0.849444 0.310996
0.350119 0.825443 0.299305
0.326635 0.821342 0.366536
0.400044 0.821428 0.311008
0.376622 0.849224 0.300459
0.372281 0.825733 0.36762
0.426434 0.821053 0.368477
0.450153 0.82503 0.30171
0.422495 0.849167 0.312732
0.476398 0.848839 0.30189
0.472294 0.82528 0.369399
0.500114 0.820933 0.312749
0.526595 0.820558 0.370497
0.522516 0.848719 0.31474
0.576489 0.820564 0.250427
0.550116 0.824626 0.303577
0.576392 0.848544 0.304174
0.572432 0.825116 0.371522
0.622291 0.824974 0.251713
0.600191 0.821016 0.314956
0.622636 0.848711 0.317373
0.626894 0.820359 0.372609
0.676484 0.821128 0.25261
0.650151 0.824908 0.305692
0.676476 0.849261 0.307104
0.721631 0.822729 0.252633
0.700246 0.823314 0.321944
0.722214 0.849869 0.30835
0.726714 0.828724 0.374119
0.75007 0.827574 0.308548
0.772006 0.823487 0.372409
0.776676 0.827946 0.250983
0.776265 0.849905 0.320258
0.800202 0.823937 0.318246
0.822469 0.850045 0.307232
0.850395 0.827889 0.306206
0.826671 0.828283 0.371432
0.900461 0.824085 0.31607
0.876264 0.850214 0.317581
0.872184 0.82379 0.36994
0.922628 0.850245 0.30463
0.950382 0.8282 0.302962
0.92697 0.828719 0.368587
0.976477 0.850452 0.314902
0.97194 0.823855 0.367039
0.0261713 0.900387 0.313893
0.0222595 0.873876 0.366838
2.15951e-04 0.877986 0.303411
0.0501945 0.874099 0.312086
0.0724726 0.899909 0.299874
0.0766193 0.87802 0.364981
0.10009 0.875895 0.295268
0.126025 0.899409 0.296546
0.121764 0.876669 0.364681
0.150257 0.871702 0.30869
0.172968 0.899809 0.309697
0.177083 0.871805 0.365313
0.200557 0.875855 0.29749
0.222535 0.876512 0.365949
0.227075 0.89978 0.298462
0.25061 0.87205 0.309645
0.273174 0.899786 0.311692
0.300711 0.875536 0.299847
0.277367 0.871539 0.36708
0.326894 0.89966 0.300638
0.350698 0.871951 0.311527
0.322691 0.876323 0.368039
0.373093 0.899444 0.313288
0.400699 0.875389 0.301118
0.377396 0.871423 0.369067
0.427218 0.899261 0.302303
0.450512 0.871303 0.31414
0.422461 0.875977 0.37006
0.473127 0.899047 0.315632
0.477303 0.870816 0.370738
0.526949 0.870394 0.250723
0.500544 0.874967 0.303079
0.526845 0.898721 0.304791
0.522416 0.875339 0.371825
0.572411 0.87479 0.252272
0.550479 0.870934 0.316047
0.572819 0.898643 0.317311
0.577093 0.870708 0.372892
0.626793 0.870529 0.253155
0.600402 0.874746 0.305678
0.626714 0.898844 0.307031
0.622341 0.875286 0.374603
0.672156 0.875972 0.255064
0.650214 0.871326 0.319143
0.672658 0.899363 0.321734
0.700377 0.878032 0.310465
0.726716 0.878665 0.254365
0.726357 0.900182 0.324547
0.749875 0.873603 0.321664
0.772071 0.873184 0.252835
0.77213 0.900019 0.310139
0.799993 0.877704 0.309152
0.826541 0.878029 0.251571
0.826101 0.899873 0.320958
0.850159 0.873853 0.318812
0.821994 0.873186 0.372841
0.872163 0.873591 0.250273
0.872113 0.90017 0.307682
0.900014 0.877737 0.306668
0.876444 0.878371 0.372039
0.92643 0.878391 0.248965
0.926044 0.900448 0.317896
0.950125 0.874374 0.315115
0.92209 0.873818 0.370073
0.972283 0.900531 0.304497
0.97657 0.878614 0.368522
0.0220558 0.950353 0.303969
0.0273867 0.928602 0.368521
0.0498526 0.928156 0.300893
0.076222 0.949941 0.313962
0.0712828 0.922928 0.366255
0.100178 0.921579 0.310453
0.122106 0.949525 0.311227
0.126774 0.920866 0.365775
0.150271 0.925694 0.298535
0.176991 0.949634 0.299679
0.172642 0.926538 0.366914
0.200925 0.922184 0.310714
0.223802 0.949793 0.312534
0.227583 0.921669 0.367209
0.251227 0.92601 0.300279
0.273064 0.926415 0.368982
0.277599 0.949802 0.301715
0.30121 0.922183 0.31216
0.323776 0.949732 0.314655
0.351073 0.925638 0.301968
0.32761 0.92166 0.369475
0.377659 0.949333 0.303333
0.401129 0.921543 0.314682
0.372995 0.926258 0.370747
0.423119 0.925716 0.250568
0.451232 0.925373 0.304181
0.423655 0.949257 0.316278
0.427692 0.921241 0.37144
0.477551 0.920752 0.251651
0.477713 0.949157 0.304835
0.472896 0.925875 0.372488
0.501015 0.921126 0.316614
0.522738 0.925209 0.252747
0.523661 0.948942 0.318302
0.527564 0.920943 0.373604
0.577292 0.920644 0.253787
0.550838 0.924913 0.30612
0.577229 0.948729 0.307488
0.622156 0.925211 0.254711
0.600655 0.921055 0.319504
0.623 0.948664 0.320661
0.677605 0.920874 0.255955
0.650696 0.925274 0.307448
0.677159 0.949091 0.309395
0.721526 0.922426 0.255054
0.700352 0.923482 0.327205
0.722108 0.949737 0.310775
0.750027 0.928007 0.309797
0.77747 0.927957 0.254292
0.776944 0.949551 0.324456
0.799838 0.923402 0.323764
0.821232 0.923132 0.253351
0.821993 0.949456 0.309713
0.849715 0.927871 0.307348
0.877093 0.928368 0.251768
0.876431 0.949739 0.321733
0.899714 0.923895 0.320921
0.870933 0.92315 0.373461
0.92093 0.923604 0.250341
0.921408 0.950007 0.306823
0.949745 0.928404 0.304475
0.927144 0.928558 0.371816
-4.67196e-05 0.924385 0.317633
0.976667 0.950291 0.319106
0.97083 0.923638 0.370253
0.0284593 0.973859 0.369206
6.16689e-04 0.978119 0.314286
0.050669 0.975188 0.303393
0.0755602 0.978677 0.367696
0.101084 0.977423 0.307598
0.125403 0.978029 0.367705
0.151134 0.972211 0.310458
0.178014 0.971933 0.368573
0.228217 0.971605 0.248601
0.201747 0.975598 0.302678
0.223694 0.976711 0.369447
0.230352 -1.26577e-04 0.304092
0.251705 0.972003 0.314182
0.275903 -2.13895e-04 0.31873
0.301862 0.975621 0.303466
0.278725 0.971647 0.370511
0.328767 0.971296 0.25055
0.351922 0.971762 0.316344
0.32364 0.976649 0.371685
0.376002 0.99953 0.321189
0.373966 0.97604 0.251077
0.401782 0.975396 0.305177
0.378818 0.971385 0.372359
0.42866 0.970861 0.252432
0.430563 0.999113 0.308504
0.451841 0.971253 0.318298
0.423639 0.975949 0.373121
0.473602 0.975686 0.252909
0.475654 0.998992 0.323316
0.530309 0.998992 0.310934
0.501754 0.975087 0.307049
0.528432 0.970693 0.254262
0.523468 0.975789 0.375251
0.573368 0.975097 0.254957
0.575329 0.998817 0.32498
0.551518 0.970938 0.3204
0.629606 0.998748 0.312335
0.627931 0.970537 0.256319
0.601249 0.974952 0.309048
0.674424 0.998615 0.328975
0.650987 0.970824 0.322013
0.674021 0.976203 0.257492
0.700763 0.977057 0.320681
0.725037 0.978472 0.257042
0.729103 0.999152 0.32404
0.750766 0.973028 0.311148
0.778746 0.973066 0.255073
0.800759 0.977048 0.320821
0.82387 0.978041 0.254309
0.850474 0.973483 0.307153
0.828943 0.972741 0.37522
0.874528 0.999923 0.305708
0.878368 0.973507 0.252697
0.900448 0.97794 0.317947
0.923747 0.978565 0.251638
0.928672 9.65109e-05 0.315895
0.950431 0.973804 0.303984
0.928919 0.973161 0.372246
0.974668 3.11642e-04 0.302991
0.973688 0.978421 0.371017
0.030628 0.0229701 0.489845
0.001313 0.0276597 0.434623
0.0251328 3.52724e-04 0.421229
0.0517282 0.024189 0.419752
0.0748257 0.0299712 0.488166
0.0794514 5.8652e-04 0.433927
0.101907 0.0285778 0.433479
0.131625 0.0272944 0.489103
0.12557 1.93312e-04 0.436255
0.152371 0.0219014 0.422952
0.174472 0.0207913 0.491014
0.180039 3.46359e-05 0.424337
0.20224 0.026196 0.440018
0.252426 0.021615 0.425164
0.231615 0.0268719 0.492118
0.274436 0.0205761 0.493279
0.302317 0.0260356 0.442328
0.352432 0.0210021 0.427335
0.331916 0.0265748 0.494073
0.325484 0.999648 0.442676
0.402492 0.0257075 0.444407
0.374476 0.0202119 0.49493
0.380571 0.999554 0.428113
0.425055 0.0206769 0.374348
0.431754 0.0260128 0.495828
0.452339 0.0207773 0.42901
0.48132 0.025507 0.3752
0.474234 0.0198459 0.496497
0.524999 0.0204326 0.37601
0.502297 0.0253492 0.445943
0.531518 0.0259047 0.497561
0.581041 0.0252446 0.377304
0.552259 0.0204381 0.431322
0.573895 0.0196032 0.499361
0.624174 0.0204525 0.378059
0.601933 0.0251919 0.448611
0.631381 0.0253 0.499846
0.651734 0.0199746 0.432556
0.680464 0.0258373 0.378909
0.673205 0.0189452 0.501168
0.724031 0.0274659 0.377822
0.701197 0.0253452 0.45043
0.750977 0.0223413 0.428382
0.730337 0.0209975 0.499254
0.779626 0.0222215 0.376669
0.773755 0.0277237 0.497203
0.801148 0.0267453 0.441101
0.82459 0.0274181 0.375161
0.850827 0.023043 0.426443
0.829961 0.0219576 0.496024
0.901053 0.027005 0.43779
0.873859 0.028372 0.494207
0.878307 0.999304 0.439242
0.951048 0.0236328 0.423446
0.930019 0.0224158 0.492883
0.974152 0.0287437 0.491247
0.0289301 0.0503704 0.433955
0.0244468 0.0789544 0.489762
0.00137549 0.0739812 0.421749
0.075885 0.0508773 0.418951
0.051845 0.0782075 0.433262
0.0804928 0.0731644 0.488583
0.130013 0.0502661 0.422901
0.101797 0.0745618 0.419019
0.125589 0.0715088 0.489083
0.175928 0.0496366 0.4378
0.152225 0.076329 0.435905
0.180764 0.076525 0.490098
0.202053 0.071725 0.425843
0.225408 0.07083 0.490973
0.230169 0.0495762 0.426579
0.252198 0.0758172 0.438434
0.276044 0.0493525 0.439797
0.302209 0.0713844 0.428733
0.280421 0.0761308 0.492564
0.325723 0.0702296 0.49316
0.330497 0.0490849 0.42852
0.352405 0.0756841 0.44091
0.402096 0.0710985 0.430019
0.375984 0.0489338 0.442119
0.380826 0.0758057 0.494163
0.430352 0.0488659 0.430374
0.452456 0.075233 0.443169
0.425543 0.0700568 0.49468
0.475821 0.0706349 0.374745
0.476108 0.048663 0.443914
0.481061 0.0755889 0.496136
0.502235 0.0706138 0.431966
0.530192 0.0484315 0.432345
0.52553 0.0697105 0.496811
0.575754 0.0702012 0.376555
0.575719 0.048229 0.446025
0.552265 0.0748701 0.444141
0.580484 0.0752568 0.497993
0.629785 0.0746932 0.377362
0.630076 0.0481013 0.434661
0.60192 0.0701944 0.43397
0.625158 0.0697854 0.49861
0.674995 0.0688309 0.377984
0.674814 0.0478008 0.449089
0.651874 0.0745756 0.446089
0.7012 0.0696122 0.434074
0.723613 0.0778148 0.498435
0.72875 0.0484803 0.444926
0.729181 0.0715146 0.377191
0.750983 0.076372 0.441703
0.774823 0.0488792 0.42819
0.801172 0.0728396 0.427596
0.779777 0.0719435 0.496584
0.851302 0.076762 0.438316
0.828528 0.0492927 0.439627
0.824086 0.0780163 0.495785
0.874893 0.0494703 0.425211
0.901244 0.073393 0.424006
0.880158 0.0723857 0.493936
0.951318 0.0774004 0.435479
0.928467 0.0497126 0.43649
0.924004 0.078585 0.492284
0.975136 0.0499709 0.422363
0.980208 0.0727789 0.49079
0.0255446 0.100444 0.421961
0.0302443 0.123585 0.489323
0.00152726 0.127991 0.433819
0.0518104 0.124568 0.420343
0.079602 0.101127 0.434323
0.0749227 0.130775 0.487696
0.101959 0.129228 0.432609
0.126032 0.100452 0.435129
0.131032 0.127565 0.488359
0.152138 0.12238 0.423945
0.175153 0.120913 0.489435
0.180015 0.0998383 0.425033
0.202106 0.126051 0.437932
0.225679 0.0995409 0.438394
0.230689 0.126364 0.490554
0.252044 0.12149 0.426267
0.280098 0.0992596 0.427197
0.302043 0.125621 0.440281
0.275169 0.120492 0.491871
0.352013 0.12107 0.428431
0.325891 0.0989861 0.440913
0.330905 0.125883 0.492834
0.380178 0.0990808 0.429138
0.402229 0.125224 0.441432
0.37543 0.12028 0.493799
0.425794 0.0987207 0.442042
0.452091 0.120624 0.430567
0.43079 0.125601 0.494783
0.480111 0.0986761 0.430921
0.475297 0.119728 0.495411
0.502097 0.12499 0.44368
0.525701 0.0984474 0.444161
0.530743 0.125092 0.496517
0.580304 0.124892 0.376093
0.58005 0.0982766 0.433012
0.552119 0.120337 0.432135
0.575179 0.119366 0.497411
0.625335 0.120176 0.376669
0.601919 0.124557 0.445606
0.625303 0.0980921 0.445922
0.680011 0.12518 0.377556
0.651924 0.119773 0.433618
0.679991 0.0978311 0.432169
0.674371 0.118271 0.499219
0.724562 0.126593 0.376852
0.701368 0.12483 0.447964
0.724603 0.0984334 0.429121
0.751187 0.122405 0.428173
0.730135 0.12058 0.497784
0.779443 0.122297 0.375195
0.773947 0.127784 0.496187
0.801331 0.126437 0.439304
0.778656 0.0988933 0.440412
0.824994 0.0990482 0.426402
0.851201 0.122893 0.425214
0.830162 0.121914 0.495033
0.87893 0.0995345 0.437284
0.901488 0.127372 0.436388
0.874098 0.128176 0.493091
0.925112 0.0998244 0.423692
0.93035 0.122633 0.492238
0.951542 0.123785 0.422596
0.979117 0.100083 0.434765
0.974268 0.128892 0.490889
0.0290163 0.15064 0.432381
0.0246425 0.179161 0.488803
0.00152172 0.174248 0.420819
0.0758176 0.151069 0.417289
0.0518147 0.178301 0.431603
0.0808744 0.173265 0.487332
0.129906 0.150649 0.422343
0.101919 0.174764 0.417736
0.12531 0.171947 0.488082
0.175957 0.150023 0.436874
0.152131 0.176767 0.436306
0.180896 0.176868 0.489335
0.201933 0.172003 0.424738
0.225106 0.171026 0.489874
0.229687 0.149744 0.425861
0.251964 0.175684 0.438375
0.275724 0.149273 0.438864
0.301841 0.171496 0.427302
0.280753 0.176246 0.491559
0.329891 0.149155 0.427806
0.352083 0.175528 0.440308
0.325234 0.170314 0.492197
0.401874 0.170925 0.429564
0.375701 0.148915 0.440875
0.380638 0.17572 0.493333
0.429886 0.148766 0.430218
0.452095 0.17485 0.442187
0.425316 0.169936 0.494273
0.475766 0.148562 0.443435
0.480767 0.175537 0.495457
0.529919 0.174924 0.374646
0.501898 0.170606 0.431227
0.530152 0.148401 0.431814
0.525306 0.16962 0.495911
0.575364 0.170047 0.375289
0.55214 0.174687 0.443584
0.575803 0.148148 0.444234
0.580697 0.174949 0.496802
0.630076 0.174336 0.376094
0.629933 0.147964 0.433461
0.602041 0.170103 0.432155
0.625061 0.169286 0.49747
0.675023 0.168904 0.376791
0.675152 0.147795 0.447363
0.651858 0.174185 0.445544
0.680353 0.175681 0.498694
0.701183 0.169697 0.431913
0.723589 0.177225 0.496544
0.729553 0.171045 0.375981
0.728704 0.14822 0.442927
0.751263 0.176016 0.440723
0.775093 0.148735 0.426602
0.801391 0.172649 0.426242
0.780255 0.17155 0.495418
0.851309 0.176811 0.43756
0.829096 0.149024 0.438134
0.824093 0.177919 0.494268
0.87517 0.149421 0.424494
0.901281 0.173467 0.423229
0.880236 0.172366 0.492963
0.929055 0.149987 0.435708
0.951595 0.17746 0.434596
0.924102 0.178483 0.491657
0.975324 0.150161 0.421462
0.98033 0.172829 0.490331
0.0255644 0.20077 0.420913
0.0303158 0.223885 0.488475
0.0795307 0.201332 0.433067
0.0518967 0.224816 0.418851
0.125913 0.200972 0.434746
0.151913 0.222988 0.423198
0.175159 0.221445 0.488602
0.179838 0.200235 0.423856
0.225788 0.199676 0.437328
0.201968 0.2263 0.436468
0.251853 0.222077 0.425329
0.23045 0.226426 0.489688
0.275069 0.220974 0.490662
0.279502 0.199623 0.42668
0.301959 0.225687 0.43867
0.351668 0.220999 0.42776
0.325553 0.198949 0.439939
0.330617 0.22599 0.491695
0.379919 0.199006 0.428511
0.375125 0.220174 0.492343
0.402149 0.225177 0.441021
0.425696 0.19868 0.441762
0.451934 0.22077 0.429472
0.430731 0.225358 0.493718
0.479775 0.198647 0.429876
0.475094 0.219724 0.494564
0.525359 0.220389 0.37407
0.525683 0.198295 0.443255
0.530707 0.225116 0.494991
0.501957 0.224658 0.441884
0.580045 0.198106 0.431319
0.552025 0.220283 0.430912
0.575239 0.219439 0.496049
0.625491 0.220076 0.375309
0.601973 0.224389 0.444077
0.625505 0.197799 0.444118
0.630695 0.224721 0.496604
0.679774 0.224994 0.37624
0.651862 0.219682 0.4323
0.679798 0.197675 0.43101
0.674609 0.21829 0.497766
0.724442 0.226493 0.375074
0.701391 0.224393 0.446166
0.724705 0.198116 0.427601
0.730112 0.220544 0.496182
0.751234 0.221905 0.426151
0.778974 0.198649 0.438826
0.801232 0.226472 0.438052
0.825065 0.199121 0.425104
0.851268 0.223082 0.424187
0.830109 0.221913 0.493673
0.878972 0.199474 0.43619
0.901439 0.227048 0.435588
0.925315 0.199763 0.422905
0.951409 0.223679 0.421742
0.930144 0.222554 0.491106
0.979243 0.200359 0.433929
0.00159194 0.228141 0.433091
0.0290996 0.250809 0.431418
0.0747649 0.231065 0.486932
0.0757359 0.251361 0.416509
0.130841 0.228184 0.48782
0.101767 0.229502 0.431571
0.12964 0.251131 0.421267
0.175875 0.250242 0.435747
0.22518 0.271218 0.489056
0.201952 0.27234 0.424529
0.229819 0.249913 0.424963
0.275669 0.249544 0.437702
0.301838 0.271501 0.425678
0.329819 0.249288 0.427124
0.325048 0.270552 0.491334
0.375637 0.248851 0.439912
0.401826 0.270985 0.427918
0.42985 0.248867 0.428899
0.425 0.269973 0.493099
0.475526 0.248494 0.441961
0.529717 0.248322 0.430263
0.52512 0.269597 0.494085
0.501784 0.270608 0.429501
0.575541 0.248155 0.443522
0.629742 0.247903 0.431692
0.624977 0.269254 0.495985
0.601716 0.270084 0.431101
0.674962 0.268611 0.375562
0.675185 0.247677 0.446044
0.701392 0.269521 0.43102
0.72955 0.27105 0.374877
0.728948 0.248003 0.441626
0.773922 0.22756 0.494478
0.774756 0.248486 0.42537
0.801097 0.272247 0.424686
0.780111 0.271417 0.494512
0.828842 0.248891 0.436992
0.873894 0.228314 0.492687
0.874975 0.249429 0.423432
0.880155 0.272279 0.491621
0.928899 0.249906 0.434784
0.974302 0.229231 0.489831
0.975145 0.250259 0.420283
0.0252873 0.300858 0.419443
0.0245327 0.279283 0.48783
0.00148021 0.274352 0.419863
0.0806405 0.273415 0.48652
0.0518177 0.278663 0.430795
0.0794741 0.301612 0.432075
0.125356 0.272295 0.487031
0.101765 0.27493 0.416584
0.125659 0.300956 0.4336
0.152043 0.277048 0.434638
0.179782 0.300436 0.42316
0.18052 0.27705 0.488382
0.225639 0.299873 0.436466
0.252035 0.275946 0.437596
0.279586 0.299641 0.425113
0.280798 0.276449 0.490056
0.352029 0.275473 0.439357
0.325591 0.299272 0.438566
0.37983 0.299121 0.426864
0.380691 0.27569 0.492419
0.451942 0.27499 0.441117
0.42551 0.298703 0.440353
0.480687 0.275423 0.493808
0.479701 0.298726 0.428928
0.52563 0.298372 0.441418
0.580563 0.274912 0.496064
0.551959 0.274476 0.442329
0.579634 0.2981 0.430421
0.629803 0.274151 0.37459
0.625592 0.297814 0.442975
0.651968 0.27392 0.444212
0.679798 0.297471 0.429292
0.680678 0.275505 0.497346
0.674566 0.317984 0.496148
0.724925 0.298045 0.427167
0.723517 0.277024 0.496065
0.751169 0.275816 0.439539
0.778647 0.298548 0.438073
0.851268 0.27667 0.43618
0.824946 0.298869 0.423837
0.824078 0.277965 0.49305
0.901341 0.273433 0.422345
0.878966 0.299457 0.435501
0.951468 0.277662 0.433532
0.925315 0.299823 0.421423
0.924175 0.278684 0.490676
0.97996 0.273039 0.489257
0.978874 0.300284 0.433082
0.0287416 0.350969 0.43055
0.0301088 0.32396 0.487296
0.00117178 0.328262 0.431447
0.0516452 0.325024 0.418097
0.0753866 0.351491 0.415381
0.074586 0.331342 0.48593
0.129551 0.351065 0.420045
0.10169 0.329746 0.430698
0.130801 0.328126 0.486338
0.15193 0.322852 0.421915
0.1758 0.350287 0.434331
0.17503 0.321458 0.487299
0.20188 0.326451 0.435769
0.229626 0.349933 0.423599
0.251712 0.322147 0.424125
0.230426 0.326738 0.488395
0.275111 0.320863 0.489177
0.275597 0.349577 0.436952
0.302015 0.325855 0.437275
0.351967 0.321191 0.426294
0.329813 0.349418 0.4254
0.33069 0.326006 0.490399
0.375073 0.320377 0.491603
0.401814 0.32527 0.439611
0.375494 0.349023 0.438838
0.451598 0.320667 0.428181
0.429855 0.348861 0.427419
0.430662 0.325468 0.492537
0.475434 0.34851 0.440593
0.4748 0.319812 0.493044
0.501706 0.324896 0.441408
0.529484 0.34857 0.428784
0.530527 0.32522 0.493417
0.575137 0.319197 0.494718
0.55182 0.320546 0.429821
0.575761 0.34808 0.44264
0.629719 0.34771 0.431178
0.601922 0.324242 0.442694
0.63084 0.324369 0.495776
0.651948 0.319583 0.430798
0.674992 0.3475 0.445115
0.701511 0.324381 0.445091
0.728709 0.347885 0.440558
0.751145 0.321887 0.425814
0.730112 0.320383 0.495707
0.774025 0.327315 0.493489
0.775068 0.348441 0.424632
0.801259 0.326161 0.436849
0.851155 0.322956 0.423436
0.82858 0.348964 0.435798
0.830098 0.321744 0.492514
0.875019 0.349437 0.422494
0.901393 0.327145 0.434362
0.874086 0.328323 0.491198
0.928699 0.349763 0.433053
0.951228 0.323955 0.420822
0.92995 0.32265 0.490047
0.97502 0.350393 0.419267
0.974186 0.329163 0.488614
0.0250584 0.400819 0.418345
0.0240868 0.379429 0.486758
0.00116621 0.374503 0.418904
0.0791812 0.401469 0.431388
0.0515303 0.378649 0.42973
0.0805515 0.373534 0.485529
0.10157 0.374863 0.415964
0.125586 0.400883 0.431983
0.125195 0.372335 0.48594
0.152021 0.377012 0.433275
0.179647 0.400268 0.421966
0.180406 0.376935 0.486602
0.201964 0.372369 0.422298
0.225037 0.371257 0.487972
0.225705 0.399871 0.435505
0.251767 0.376086 0.435616
0.279806 0.39963 0.423556
0.301765 0.371744 0.42479
0.28046 0.376429 0.488963
0.325655 0.399378 0.437441
0.351843 0.375509 0.438113
0.325016 0.370659 0.489904
0.379704 0.399071 0.426079
0.40181 0.370919 0.426559
0.380529 0.37586 0.490832
0.425558 0.398754 0.438889
0.451839 0.375106 0.440014
0.425045 0.370086 0.491707
0.479748 0.398681 0.427732
0.480489 0.375374 0.492685
0.50158 0.370599 0.428427
0.525407 0.398343 0.440737
0.525073 0.369596 0.493352
0.579902 0.398063 0.42926
0.551984 0.374481 0.441427
0.580633 0.374981 0.494275
0.601868 0.369968 0.429644
0.625363 0.397678 0.441618
0.62491 0.369279 0.494932
0.652058 0.373999 0.443128
0.680118 0.397418 0.428695
0.680684 0.375355 0.496208
0.70139 0.369259 0.429743
0.72353 0.376889 0.494584
0.724826 0.398116 0.426023
0.751199 0.375844 0.438448
0.801073 0.372543 0.423608
0.778688 0.398673 0.43645
0.78011 0.371407 0.492985
0.824736 0.398875 0.422804
0.851007 0.376755 0.435119
0.823996 0.377845 0.492208
0.901036 0.37342 0.421189
0.878586 0.399585 0.434336
0.879863 0.372396 0.490876
0.924917 0.399926 0.420241
0.951299 0.377663 0.432064
0.923828 0.378708 0.489458
0.978749 0.400418 0.431559
0.979937 0.372985 0.488156
0.0285548 0.450787 0.42871
0.0298284 0.423848 0.486113
0.00101345 0.428309 0.430119
0.0513885 0.424862 0.416893
0.0752892 0.451363 0.41415
0.0744146 0.43132 0.484768
0.101385 0.429488 0.430073
0.129376 0.450985 0.419022
0.130645 0.428075 0.485388
0.151669 0.42275 0.421133
0.175556 0.450117 0.433513
0.175071 0.421451 0.485868
0.201803 0.426166 0.433685
0.229469 0.450033 0.422164
0.230348 0.426616 0.487338
0.251813 0.422079 0.423106
0.275619 0.449526 0.435594
0.27503 0.420793 0.48789
0.301937 0.425773 0.436448
0.329614 0.44944 0.424556
0.351622 0.421319 0.425011
0.330531 0.426121 0.489098
0.375374 0.449172 0.437143
0.401781 0.425281 0.437934
0.375115 0.420444 0.489852
0.429539 0.44899 0.426671
0.451731 0.420999 0.426883
0.430368 0.425513 0.490953
0.475492 0.448572 0.439392
0.475106 0.419942 0.49183
0.501937 0.424865 0.439759
0.529794 0.448455 0.428217
0.530687 0.425252 0.492815
0.551697 0.420192 0.428628
0.575546 0.448015 0.441705
0.574853 0.419142 0.493598
0.629726 0.447828 0.429929
0.601906 0.424369 0.441326
0.630519 0.424278 0.494035
0.651813 0.419582 0.429727
0.675076 0.447517 0.444063
0.674482 0.417958 0.495171
0.701377 0.424341 0.444362
0.728739 0.447947 0.439367
0.730163 0.420639 0.494342
0.751045 0.422091 0.424561
0.774817 0.448463 0.423325
0.773778 0.427417 0.492599
0.801167 0.426333 0.435941
0.82883 0.449108 0.434781
0.851108 0.422909 0.422204
0.830031 0.421884 0.49148
0.874742 0.449439 0.420696
0.90098 0.42722 0.432943
0.873916 0.428389 0.490253
0.928532 0.449958 0.432439
0.951038 0.423903 0.419475
0.929783 0.422692 0.488979
0.974704 0.450389 0.417564
0.974024 0.429237 0.487005
0.024171 0.479103 0.485187
0.00101348 0.474403 0.417393
0.0513342 0.478721 0.428242
0.0803477 0.473254 0.484368
0.101479 0.474695 0.414638
0.125203 0.472053 0.484599
0.151749 0.476744 0.431742
0.180268 0.476811 0.485496
0.201663 0.472321 0.42114
0.224871 0.471117 0.486318
0.225518 0.499819 0.433708
0.251867 0.475924 0.434424
0.301661 0.471758 0.423192
0.280345 0.476375 0.487727
0.351759 0.475605 0.437013
0.324927 0.470588 0.488654
0.325455 0.499231 0.435947
0.401593 0.47114 0.425333
0.380547 0.475733 0.489746
0.379376 0.499179 0.425019
0.451781 0.475138 0.438688
0.424849 0.470198 0.490849
0.425488 0.498871 0.437853
0.480427 0.47539 0.491406
0.479777 0.498647 0.426174
0.501864 0.470645 0.427295
0.525034 0.469864 0.492364
0.525474 0.498413 0.439503
0.551974 0.474672 0.440497
0.58086 0.47491 0.492896
0.579924 0.498193 0.428121
0.60193 0.469883 0.428422
0.624889 0.469614 0.493608
0.625265 0.49794 0.439716
0.651898 0.474007 0.441488
0.679719 0.497556 0.427229
0.680407 0.475465 0.494969
0.701322 0.469408 0.428484
0.72325 0.477275 0.493738
0.724616 0.498334 0.42509
0.75091 0.475873 0.437358
0.8009 0.472663 0.422782
0.779794 0.471498 0.492366
0.778462 0.498729 0.435654
0.851098 0.476865 0.433811
0.823822 0.477855 0.490894
0.824871 0.498982 0.422099
0.900956 0.473319 0.419839
0.8799 0.472353 0.489367
0.87855 0.499448 0.432424
0.951137 0.477592 0.430654
0.923986 0.478631 0.487958
0.924813 0.499804 0.418943
0.979882 0.473193 0.486332
0.0250996 0.500796 0.416798
0.0298318 0.523516 0.48468
0.00119111 0.527962 0.428954
0.0791345 0.50118 0.430128
0.0515818 0.524776 0.415453
0.074605 0.530821 0.483267
0.125481 0.500765 0.430821
0.101416 0.529421 0.42827
0.130498 0.52783 0.48415
0.179468 0.500339 0.420665
0.15155 0.522826 0.419689
0.1749 0.521473 0.485075
0.201628 0.526162 0.432947
0.230295 0.52656 0.486023
0.251589 0.521897 0.421697
0.279427 0.499568 0.422839
0.274855 0.520942 0.487189
0.301653 0.525623 0.435009
0.351409 0.521212 0.424339
0.330117 0.525979 0.488315
0.401727 0.525317 0.43763
0.374902 0.520291 0.489384
0.451697 0.520869 0.425415
0.430382 0.525586 0.489799
0.474963 0.519873 0.490532
0.501854 0.524757 0.438829
0.530689 0.525232 0.491434
0.551778 0.520331 0.42764
0.57508 0.519411 0.492254
0.601912 0.524378 0.439982
0.630688 0.524483 0.493067
0.651821 0.519634 0.428367
0.674176 0.518325 0.494182
0.701134 0.52459 0.442918
0.729974 0.520733 0.493265
0.750871 0.522453 0.423469
0.773631 0.527633 0.491376
0.800985 0.526249 0.434376
0.851117 0.523181 0.420975
0.829688 0.522056 0.489735
0.901067 0.527205 0.43171
0.873979 0.528287 0.488856
0.950977 0.52385 0.417582
0.929899 0.522628 0.487397
0.978551 0.500366 0.42974
0.973916 0.5291 0.485697
0.0286279 0.55063 0.42784
0.0238931 0.579161 0.483873
0.00104452 0.574048 0.415551
0.0752322 0.55125 0.412613
0.0513783 0.578332 0.427224
0.0803691 0.573112 0.482778
0.129349 0.55081 0.417559
0.101412 0.574651 0.413095
0.124968 0.571798 0.48343
0.151802 0.576577 0.431308
0.175552 0.550097 0.432511
0.180322 0.576849 0.484885
0.201444 0.572128 0.4208
0.224791 0.571071 0.485555
0.229378 0.549845 0.421185
0.251632 0.575769 0.433168
0.275297 0.549501 0.434158
0.301502 0.571303 0.422537
0.280239 0.57609 0.486616
0.329408 0.549114 0.422787
0.351405 0.575272 0.435727
0.324689 0.570491 0.487845
0.401416 0.5709 0.424528
0.375162 0.548871 0.437005
0.380013 0.575808 0.488784
0.429471 0.548959 0.425017
0.451711 0.574932 0.437742
0.424674 0.570083 0.489242
0.475452 0.548567 0.437822
0.480398 0.575292 0.490159
0.501766 0.570642 0.425942
0.529486 0.54844 0.426723
0.525033 0.569699 0.490841
0.551783 0.574677 0.438901
0.575658 0.548285 0.439676
0.580661 0.575197 0.491539
0.629724 0.547993 0.428408
0.601769 0.570136 0.427257
0.624734 0.569396 0.49246
0.674929 0.547819 0.442322
0.651721 0.574346 0.440541
0.68054 0.575688 0.493474
0.701149 0.569684 0.426571
0.72323 0.577467 0.492222
0.728422 0.54835 0.438028
0.751029 0.576205 0.436351
0.774866 0.54867 0.422223
0.80109 0.572862 0.42134
0.780104 0.571876 0.490736
0.851127 0.577057 0.432728
0.828624 0.549374 0.433301
0.8239 0.578041 0.489407
0.874888 0.549625 0.419666
0.901067 0.573441 0.418563
0.880067 0.57241 0.487863
0.928553 0.549862 0.430852
0.924011 0.578796 0.486384
0.951149 0.577631 0.429531
0.974865 0.550227 0.416777
0.979973 0.573031 0.484766
0.0251035 0.600522 0.415496
0.0296386 0.623608 0.483229
0.0011754 0.627872 0.427246
0.0790642 0.601086 0.428695
0.051451 0.624578 0.41493
0.0745067 0.630891 0.482396
0.125326 0.600444 0.429804
0.101265 0.629134 0.427386
0.130241 0.627504 0.482891
0.15151 0.622474 0.418484
0.174736 0.620867 0.483633
0.179449 0.599926 0.41932
0.201459 0.626027 0.431782
0.225103 0.599629 0.43285
0.230123 0.626 0.485318
0.251314 0.621511 0.421037
0.274497 0.620694 0.486045
0.279369 0.599351 0.42184
0.301366 0.625627 0.43411
0.351179 0.621153 0.423101
0.324974 0.599109 0.434885
0.32991 0.625884 0.487227
0.379212 0.598912 0.423771
0.401204 0.624925 0.435674
0.374618 0.620132 0.487969
0.451114 0.620671 0.42459
0.425061 0.598632 0.436321
0.429732 0.625474 0.488496
0.479365 0.598559 0.425203
0.474583 0.61968 0.489657
0.501496 0.624631 0.437237
0.525304 0.598418 0.438663
0.530083 0.625188 0.490472
0.579638 0.598287 0.426728
0.551553 0.620634 0.426232
0.574828 0.619516 0.491267
0.601669 0.62453 0.438604
0.625193 0.598038 0.439299
0.630372 0.624964 0.491581
0.651573 0.620053 0.427232
0.674547 0.618814 0.492429
0.6796 0.597986 0.426097
0.701304 0.624837 0.4403
0.724701 0.598511 0.423216
0.729725 0.621122 0.491801
0.751178 0.622732 0.422787
0.774182 0.627927 0.490305
0.801273 0.626911 0.432962
0.778713 0.599044 0.434145
0.825066 0.599179 0.420488
0.851217 0.623461 0.42013
0.82971 0.622233 0.488615
0.878785 0.59962 0.431
0.901317 0.627497 0.430576
0.874178 0.628266 0.487334
0.92489 0.59991 0.417405
0.951213 0.623846 0.417168
0.92993 0.622716 0.485893
0.978719 0.600243 0.428704
0.974035 0.628992 0.484634
0.0286841 0.650797 0.426787
0.0232996 0.679537 0.482573
0.00131118 0.674226 0.412099
0.0751898 0.651148 0.411857
0.0516038 0.678573 0.428174
0.0811187 0.67303 0.481491
0.129139 0.65049 0.416464
0.101185 0.674391 0.409541
0.124195 0.671321 0.482607
0.151487 0.676056 0.430702
0.175386 0.649733 0.431507
0.180491 0.676663 0.483375
0.201198 0.671506 0.418441
0.224223 0.670907 0.484611
0.229123 0.649467 0.420395
0.251065 0.6756 0.432419
0.274899 0.649209 0.43384
0.300911 0.671172 0.421135
0.279807 0.675836 0.485478
0.32899 0.649145 0.422471
0.350866 0.675164 0.434492
0.32408 0.670509 0.486559
0.374759 0.648695 0.435116
0.400752 0.670861 0.422538
0.379589 0.675604 0.487438
0.428754 0.648626 0.423212
0.450891 0.674767 0.436373
0.423911 0.669684 0.488525
0.474807 0.648419 0.43715
0.479642 0.675191 0.48937
0.500933 0.670634 0.425013
0.529065 0.648437 0.42588
0.524231 0.66949 0.49026
0.550961 0.674392 0.438037
0.575371 0.648267 0.437883
0.579974 0.674848 0.490725
0.629478 0.648307 0.42702
0.601324 0.670367 0.426099
0.624556 0.669384 0.491784
0.651667 0.674649 0.440972
0.675197 0.648129 0.44051
0.681086 0.675632 0.492777
0.701509 0.67044 0.425641
0.723155 0.678461 0.491208
0.728752 0.649012 0.437265
0.751599 0.677281 0.436611
0.775132 0.649448 0.421192
0.801664 0.673482 0.41815
0.781675 0.67273 0.488869
0.82892 0.649721 0.432092
0.851723 0.677687 0.43379
0.823522 0.678672 0.488124
0.875345 0.650033 0.41869
0.901734 0.674124 0.415991
0.881348 0.673037 0.48671
0.929032 0.650129 0.42893
0.923552 0.678942 0.485334
0.951648 0.678123 0.43094
0.975257 0.650424 0.415217
0.981341 0.673471 0.483743
0.0244528 0.700488 0.413496
0.0223836 0.724471 0.483697
0.0794471 0.701043 0.428695
0.0505108 0.724506 0.427638
0.12476 0.69988 0.428831
0.128139 0.726833 0.481946
0.178883 0.699678 0.417763
0.150675 0.721927 0.417065
0.173679 0.720718 0.483081
0.200637 0.725871 0.430418
0.224392 0.699333 0.431214
0.250418 0.721476 0.418514
0.22937 0.726101 0.483915
0.273145 0.720444 0.48506
0.278667 0.699282 0.420655
0.300353 0.725581 0.433158
0.324029 0.699035 0.433416
0.349915 0.721048 0.420238
0.329153 0.72568 0.486126
0.378368 0.698882 0.422149
0.37284 0.720108 0.486773
0.400024 0.725018 0.434155
0.424017 0.698489 0.43537
0.45014 0.720718 0.422065
0.42875 0.725145 0.487419
0.478195 0.69835 0.424068
0.473117 0.719532 0.48832
0.500202 0.724446 0.434843
0.524325 0.698175 0.43756
0.528851 0.724871 0.489165
0.578554 0.698055 0.425388
0.550261 0.720652 0.424447
0.57352 0.719257 0.490157
0.62495 0.697923 0.439183
0.600469 0.724152 0.436719
0.62922 0.725239 0.490867
0.650614 0.72011 0.426453
0.675001 0.719883 0.491608
0.679453 0.698078 0.426347
0.724814 0.699237 0.422708
0.724011 0.722003 0.490885
0.700551 0.725665 0.432346
0.751325 0.724139 0.435518
0.779907 0.699734 0.434422
0.825095 0.699898 0.418425
0.851096 0.724337 0.434842
0.822434 0.723523 0.489283
0.879871 0.700104 0.431917
0.925106 0.700188 0.415994
0.922562 0.723878 0.486232
0.95115 0.724244 0.432354
0.979676 0.700424 0.428975
8.38193e-04 0.728386 0.418481
0.026206 0.750979 0.430251
0.072495 0.750686 0.415489
0.0766336 0.73067 0.482081
0.100983 0.728281 0.418268
0.127246 0.749844 0.410318
0.127948 0.769611 0.48179
0.100408 0.770918 0.428825
0.171854 0.749702 0.427627
0.226571 0.749653 0.414186
0.199887 0.771647 0.4297
0.228069 0.770679 0.483858
0.271444 0.749509 0.429568
0.299665 0.771625 0.431111
0.326271 0.749336 0.415693
0.327643 0.770515 0.48551
0.37132 0.749153 0.430801
0.399624 0.771155 0.433199
0.426243 0.748875 0.417303
0.42773 0.770044 0.487526
0.471225 0.748715 0.433028
0.499464 0.77081 0.435325
0.526206 0.748621 0.419363
0.527675 0.769442 0.489372
0.571775 0.748412 0.434649
0.626425 0.748349 0.42122
0.628333 0.769052 0.491011
0.599861 0.770422 0.436581
0.672368 0.74836 0.437304
0.726095 0.74974 0.439729
0.69997 0.772673 0.443428
0.772981 0.750249 0.426002
0.801251 0.727988 0.423874
0.778016 0.728971 0.490316
0.82695 0.750382 0.437119
0.90119 0.728291 0.421297
0.878219 0.72924 0.487471
0.872983 0.750266 0.423473
0.927125 0.750563 0.434409
0.978292 0.729315 0.484985
0.972893 0.750606 0.421067
0.0223359 0.800619 0.420629
0.0271599 0.779514 0.485365
2.35963e-04 0.774701 0.433338
0.0708201 0.772904 0.483569
0.0500357 0.77861 0.41847
0.0766017 0.80009 0.432251
0.122441 0.799457 0.429669
0.150138 0.775921 0.411768
0.176488 0.799547 0.415853
0.170226 0.776407 0.482929
0.222463 0.799574 0.428863
0.249858 0.775752 0.413716
0.269924 0.776584 0.485025
0.276218 0.799557 0.417709
0.349647 0.775482 0.415727
0.322509 0.79949 0.430574
0.370016 0.776166 0.48613
0.376169 0.799121 0.418586
0.449565 0.774995 0.417549
0.422335 0.798999 0.432461
0.475953 0.798785 0.421136
0.469861 0.775746 0.488293
0.522432 0.798519 0.434317
0.54979 0.774663 0.41917
0.570257 0.775343 0.490165
0.576334 0.798495 0.422572
0.622753 0.798182 0.436656
0.650186 0.774031 0.423002
0.670405 0.775205 0.493338
0.676485 0.798756 0.426032
0.721709 0.799775 0.427297
0.727199 0.779067 0.493065
0.749971 0.777652 0.427452
0.771312 0.772691 0.492314
0.800227 0.77406 0.438972
0.776236 0.799793 0.44035
0.822374 0.800149 0.426679
0.85045 0.778261 0.425526
0.827067 0.778975 0.490617
0.871868 0.773517 0.489206
0.900663 0.774155 0.436543
0.876752 0.800442 0.437742
0.922308 0.800571 0.424524
0.95024 0.778406 0.422471
0.927281 0.779082 0.488489
0.971596 0.773742 0.486611
0.976353 0.800695 0.435213
0.0262834 0.85042 0.434623
0.0218273 0.823752 0.486765
1.00017 0.828377 0.42309
0.0723613 0.849938 0.41955
0.0500942 0.823914 0.432597
0.0766917 0.828831 0.485048
0.100371 0.826161 0.41532
0.126573 0.849429 0.414323
0.121478 0.827696 0.484371
0.150303 0.822117 0.427975
0.173035 0.849804 0.428709
0.177312 0.821544 0.484366
0.200528 0.82608 0.416993
0.221769 0.827055 0.485571
0.226785 0.850041 0.417309
0.250317 0.822504 0.429666
0.27302 0.84988 0.431399
0.300489 0.825974 0.418376
0.277485 0.821273 0.486649
0.327008 0.849737 0.419114
0.350289 0.821923 0.431435
0.321882 0.827033 0.487484
0.377217 0.820747 0.488107
0.400282 0.825535 0.420868
0.373035 0.849493 0.432736
0.426842 0.849465 0.421319
0.450151 0.821834 0.433216
0.421672 0.82649 0.48924
0.477368 0.820298 0.489975
0.472939 0.849097 0.434687
0.500364 0.82497 0.422678
0.526685 0.848897 0.423379
0.52188 0.825766 0.491335
0.577356 0.820005 0.49183
0.550315 0.821162 0.435197
0.573082 0.848833 0.436794
0.600632 0.8247 0.424859
0.626585 0.848834 0.425593
0.6217 0.825687 0.493339
0.671873 0.825975 0.374049
0.67804 0.819963 0.494345
0.672926 0.849258 0.441436
0.650353 0.821518 0.43858
0.700273 0.827551 0.429206
0.721315 0.821867 0.495118
0.726477 0.849879 0.445197
0.750046 0.82344 0.441863
0.772005 0.849943 0.429785
0.777103 0.828365 0.493773
0.800015 0.82793 0.428359
0.821404 0.823121 0.492517
0.850157 0.823909 0.43958
0.826324 0.850058 0.44148
0.872109 0.850238 0.427245
0.90038 0.828603 0.425847
0.877123 0.82911 0.491538
0.926477 0.850653 0.438724
0.9503 0.824262 0.436666
0.921479 0.823567 0.48977
0.972167 0.850579 0.424113
0.977083 0.829248 0.488311
0.0223217 0.90064 0.424177
0.0267881 0.879224 0.488307
1.95307e-04 0.874179 0.43609
0.0500214 0.87804 0.422734
0.0761956 0.899969 0.434093
0.0712679 0.872905 0.486494
0.100329 0.871341 0.430004
0.122573 0.899485 0.431698
0.127175 0.869761 0.485179
0.150374 0.875893 0.417139
0.176672 0.900005 0.418502
0.172009 0.877023 0.485868
0.200676 0.872516 0.430255
0.223329 0.900083 0.431857
0.227894 0.871183 0.486714
0.250841 0.876165 0.418743
0.271926 0.877133 0.487971
0.277255 0.899921 0.420096
0.3008 0.872218 0.431972
0.323357 0.899908 0.433489
0.35079 0.875831 0.42058
0.328058 0.870941 0.488692
0.377056 0.899704 0.42212
0.400684 0.872201 0.434398
0.37183 0.876854 0.489772
0.45092 0.875429 0.422163
0.423687 0.89951 0.435849
0.427933 0.870684 0.490757
0.477221 0.899217 0.423719
0.471847 0.876336 0.491773
0.500703 0.871466 0.436498
0.52342 0.898938 0.437426
0.527929 0.870091 0.492644
0.550655 0.874933 0.424041
0.576851 0.898967 0.426506
0.57155 0.875988 0.493864
0.623332 0.898972 0.440203
0.600583 0.871458 0.438707
0.627895 0.87014 0.49532
0.677165 0.87085 0.375599
0.650593 0.875351 0.426917
0.67698 0.899374 0.428717
0.671753 0.876694 0.496476
0.721945 0.872483 0.375568
0.721778 0.900133 0.430705
0.700318 0.87296 0.445696
0.727007 0.879575 0.496976
0.749877 0.877936 0.431461
0.771396 0.872927 0.495616
0.776386 0.877876 0.374132
0.799904 0.873507 0.442064
0.776361 0.89987 0.443946
0.821692 0.899837 0.430295
0.849968 0.878039 0.429854
0.826439 0.878717 0.494707
0.900056 0.874106 0.438988
0.87618 0.900203 0.441604
0.871699 0.87305 0.493011
0.921891 0.900318 0.427388
0.950147 0.878413 0.426528
0.926621 0.87934 0.491933
0.976264 0.900651 0.438848
0.971688 0.873577 0.490049
0.0268274 0.950339 0.438692
0.0208761 0.923183 0.489959
-1.64931e-04 0.928437 0.423922
0.0731848 0.949951 0.419837
0.0504114 0.924226 0.436801
0.0778288 0.929182 0.487736
0.100217 0.926155 0.41641
0.126428 0.949757 0.417439
0.121056 0.92721 0.486868
0.150372 0.922699 0.431367
0.173672 0.949995 0.432763
0.178182 0.921299 0.487052
0.201102 0.92629 0.418904
0.222069 0.927649 0.488779
0.227617 0.950048 0.420666
0.250972 0.922205 0.43304
0.273838 0.949904 0.434952
0.301278 0.926342 0.421168
0.278246 0.921134 0.489415
0.327867 0.950022 0.422582
0.351233 0.922271 0.434622
0.322359 0.927212 0.490531
0.401276 0.925617 0.423681
0.374169 0.949731 0.436895
0.378291 0.920869 0.491655
0.427724 0.949569 0.424184
0.451318 0.922107 0.437028
0.422363 0.926999 0.492489
0.473988 0.949324 0.438664
0.478277 0.920456 0.493411
0.501122 0.925333 0.425031
0.527587 0.949145 0.426741
0.522059 0.926294 0.49439
0.572721 0.9255 0.374837
0.550809 0.921589 0.438919
0.573599 0.94894 0.440941
0.578243 0.920204 0.495494
0.627598 0.920644 0.375886
0.600881 0.924971 0.427307
0.626825 0.948835 0.429143
0.621872 0.926337 0.496956
0.67196 0.926551 0.377326
0.650783 0.921503 0.44268
0.673128 0.94913 0.445712
0.678487 0.920117 0.498568
0.700651 0.928287 0.432379
0.727452 0.949438 0.450763
0.727476 0.929066 0.377617
0.749968 0.923163 0.44722
0.770996 0.923082 0.375897
0.771958 0.949264 0.432292
0.7999 0.927946 0.430154
0.778235 0.928156 0.498524
0.827173 0.927987 0.375021
0.820414 0.922535 0.496411
0.826841 0.949477 0.445601
0.849857 0.923248 0.44528
0.871735 0.949574 0.42906
0.899892 0.928196 0.427511
0.87787 0.928718 0.49541
0.949942 0.923767 0.442169
0.926797 0.949954 0.443047
0.920392 0.923014 0.493987
0.971795 0.949985 0.426293
0.977893 0.929396 0.492258
0.0236535 0.979017 0.490408
6.81446e-04 0.973729 0.422808
0.0508946 0.977819 0.432911
0.0772437 0.971345 0.487985
0.100899 0.973507 0.424499
0.126755 0.970987 0.488174
0.151578 0.975694 0.423217
0.173267 0.9779 0.489696
0.225617 -2.98193e-05 0.440333
0.201714 0.97263 0.434813
0.229101 0.971336 0.490453
0.251801 0.976269 0.422525
0.272732 0.977818 0.49138
0.280486 0.999889 0.426363
0.301777 0.972112 0.43744
0.351983 0.97608 0.424638
0.329455 0.970926 0.492479
0.401869 0.971994 0.438816
0.372994 0.977336 0.493449
0.425436 0.999196 0.443939
0.451893 0.975772 0.426074
0.429409 0.970719 0.494253
0.478839 0.970698 0.374297
0.480419 0.999175 0.430045
0.472747 0.977236 0.495315
0.525383 0.998976 0.4462
0.501779 0.971621 0.441406
0.529273 0.970423 0.496284
0.579949 0.998844 0.43238
0.578307 0.970533 0.376094
0.551608 0.975394 0.428038
0.572368 0.976771 0.497549
0.62308 0.975441 0.377346
0.624631 0.998606 0.447386
0.60119 0.971454 0.443409
0.628269 0.970047 0.498574
0.676828 0.96976 0.378757
0.650901 0.975349 0.432171
0.67942 0.99845 0.431831
0.67421 0.977822 0.500301
0.70085 0.971651 0.443565
0.724506 0.999058 0.429988
0.724358 0.979288 0.499842
0.727363 0.971755 0.378726
0.750587 0.976748 0.44334
0.778544 0.998932 0.44189
0.773919 0.97752 0.377151
0.800618 0.972578 0.428922
0.779415 0.971668 0.498054
0.824619 0.999216 0.427357
0.850498 0.976921 0.441751
0.822895 0.978184 0.496733
0.873615 0.977881 0.374221
0.900532 0.973184 0.42567
0.879485 0.971611 0.494897
0.924508 0.999654 0.424063
0.950622 0.977411 0.438084
0.923166 0.978606 0.49342
0.978439 3.3864e-05 0.435747
0.97964 0.972236 0.491531
0.0238279 0.0296635 0.618764
0.0010825 0.0221902 0.542639
0.0515084 0.0301319 0.559036
0.0820031 0.0230865 0.617747
0.0744635 5.95141e-04 0.539132
0.101546 0.0230756 0.53941
0.123232 0.0207108 0.618329
0.131623 5.36012e-04 0.546021
0.151533 0.0274461 0.56861
0.173528 1.00026 0.569638
0.182413 0.0273208 0.620491
0.201809 0.0194713 0.549107
0.223557 0.0201664 0.621811
0.251913 0.0272135 0.571282
0.232581 2.49422e-04 0.550181
0.302071 0.0191601 0.551417
0.282476 0.0270142 0.622645
0.352132 0.0271283 0.57364
0.332796 -4.1484e-05 0.552167
0.323794 0.0199283 0.624167
0.402126 0.0187437 0.553165
0.373998 0.999718 0.572725
0.382732 0.0267337 0.62435
0.452079 0.0265673 0.575091
0.432896 0.99948 0.554195
0.502022 0.0185266 0.554327
0.551771 0.0263468 0.577146
0.601734 0.017936 0.556766
0.651401 0.0259817 0.580118
0.700897 0.0176808 0.558193
0.750878 0.0290095 0.568374
0.800869 0.0214051 0.548845
0.850849 0.029306 0.56481
0.900822 0.0216071 0.545868
0.880724 0.0220997 0.622576
0.950954 0.0297845 0.56127
0.92396 0.0291462 0.621215
0.980703 0.0226112 0.620088
0.973493 0.999667 0.543362
0.0241344 0.0499271 0.542672
0.0307592 0.0732122 0.618414
0.00115445 0.0799248 0.559764
0.0512949 0.0730739 0.542107
0.0817794 0.0506661 0.559216
0.0745161 0.081392 0.61718
0.101474 0.0814025 0.558722
0.124233 0.0506128 0.566769
0.131278 0.0783616 0.618229
0.151677 0.0700057 0.549476
0.174575 0.0704971 0.619497
0.182042 0.0498701 0.550684
0.20177 0.0773436 0.566257
0.224493 0.0497742 0.568414
0.251793 0.0690676 0.552133
0.231077 0.0770716 0.620504
0.282495 0.0494904 0.552767
0.301736 0.0771329 0.568371
0.274766 0.0697662 0.621346
0.351846 0.0690264 0.553986
0.324637 0.0494294 0.570295
0.331209 0.0767925 0.622524
0.382309 0.049268 0.554551
0.402022 0.0763953 0.569652
0.374856 0.0698441 0.623332
0.451919 0.0685618 0.555562
0.424698 0.0490674 0.571707
0.482485 0.0488324 0.556109
0.501847 0.0765524 0.572319
0.524298 0.0487503 0.573729
0.551683 0.0680786 0.557438
0.582286 0.0485143 0.558334
0.623988 0.0484737 0.575054
0.601619 0.0762042 0.573987
0.680069 0.076153 0.50005
0.65154 0.0679023 0.56035
0.681923 0.0481732 0.558138
0.701055 0.0765565 0.576736
0.723021 0.0484355 0.550194
0.750956 0.0709176 0.549875
0.800864 0.0788652 0.565689
0.780982 0.0486405 0.566514
0.773858 0.0786011 0.625221
0.823333 0.0488464 0.548108
0.850933 0.0713942 0.547182
0.830669 0.0718319 0.62391
0.901045 0.0794532 0.562536
0.881192 0.0491747 0.563167
0.874177 0.0789379 0.622519
0.951076 0.0720229 0.544119
0.923728 0.0492158 0.544914
0.930891 0.0722941 0.620936
0.981402 0.0496864 0.560625
0.974174 0.079397 0.619969
0.0312966 0.100218 0.558766
0.0241167 0.129773 0.617888
0.00108061 0.122504 0.542714
0.0743965 0.100718 0.537827
0.0515707 0.130561 0.557629
0.081433 0.122488 0.615959
0.101455 0.123207 0.538823
0.132045 0.100565 0.547859
0.124303 0.120947 0.617754
0.15157 0.12791 0.565395
0.174237 0.100117 0.565911
0.181446 0.127343 0.618434
0.201555 0.119684 0.54947
0.224179 0.120263 0.619686
0.231974 0.0998907 0.550906
0.25147 0.127168 0.567568
0.274101 0.0995571 0.568768
0.301604 0.118869 0.551622
0.281313 0.126804 0.620395
0.332457 0.0994274 0.55267
0.351632 0.126888 0.569455
0.324312 0.119666 0.621601
0.401753 0.118752 0.553622
0.374387 0.0993139 0.570544
0.381343 0.126423 0.622621
0.432205 0.0990309 0.55442
0.451685 0.126354 0.571328
0.474357 0.0989443 0.571935
0.50181 0.118515 0.555343
0.532358 0.0986604 0.556195
0.524454 0.119164 0.625284
0.551816 0.126141 0.572885
0.57416 0.0985925 0.574511
0.630732 0.12469 0.498398
0.601652 0.117922 0.557503
0.632048 0.0983635 0.558741
0.673833 0.0981559 0.57895
0.651606 0.125546 0.575773
0.701166 0.117241 0.557624
0.731537 0.0983559 0.568467
0.751 0.128858 0.56659
0.773484 0.0986128 0.548781
0.800912 0.121153 0.548361
0.831336 0.0988939 0.564275
0.85116 0.12916 0.563505
0.823997 0.128509 0.623613
0.873581 0.0991209 0.546328
0.901052 0.121886 0.545608
0.880849 0.122059 0.62218
0.931453 0.0994535 0.561522
0.951058 0.129683 0.561642
0.923931 0.129172 0.621139
0.973806 0.0996111 0.543237
0.98103 0.1227 0.619278
0.0242109 0.150298 0.542125
0.0310388 0.173436 0.617088
0.00118453 0.180124 0.55936
0.0514662 0.17351 0.540494
0.0817689 0.151009 0.559521
0.0747035 0.181802 0.615617
0.123946 0.150847 0.5652
0.131561 0.178423 0.616915
0.101628 0.181768 0.557667
0.151572 0.170163 0.548241
0.174459 0.170589 0.61821
0.181941 0.150158 0.549139
0.201641 0.177486 0.565963
0.2243 0.149929 0.566403
0.251605 0.169307 0.549994
0.231307 0.177139 0.618805
0.274138 0.170173 0.620346
0.281909 0.14965 0.551329
0.30152 0.177007 0.568082
0.351571 0.16904 0.552579
0.32423 0.14937 0.568923
0.331171 0.176593 0.620912
0.382046 0.14923 0.553164
0.401553 0.176647 0.569937
0.374203 0.169642 0.622009
0.451687 0.168515 0.554374
0.424201 0.149112 0.570557
0.431197 0.176215 0.622965
0.482082 0.14886 0.555069
0.474393 0.169111 0.623574
0.50166 0.176248 0.571432
0.524203 0.148829 0.572037
0.531178 0.175919 0.624524
0.582307 0.148357 0.556592
0.551701 0.168146 0.555967
0.624063 0.148193 0.573808
0.601674 0.175834 0.57352
0.651682 0.167492 0.558053
0.682002 0.147878 0.556309
0.723037 0.148113 0.54854
0.70125 0.175974 0.575477
0.751025 0.170509 0.54811
0.800993 0.179022 0.564721
0.78136 0.148625 0.565015
0.773782 0.17829 0.624016
0.823619 0.14864 0.547444
0.850857 0.1715 0.546353
0.830816 0.171813 0.623192
0.881278 0.149193 0.562112
0.873983 0.178914 0.62165
0.901063 0.179508 0.561872
0.923788 0.149349 0.544489
0.951068 0.172262 0.543354
0.930763 0.172453 0.620202
0.981256 0.149791 0.560099
0.974178 0.179544 0.618986
0.0313671 0.200376 0.55721
0.00109916 0.222707 0.541556
0.074348 0.201099 0.536979
0.0816039 0.222949 0.615258
0.132065 0.200965 0.546733
0.101428 0.223511 0.538616
0.124191 0.22133 0.616462
0.174286 0.200428 0.565079
0.151694 0.228252 0.564231
0.201541 0.219867 0.549038
0.224247 0.220466 0.618348
0.232034 0.200061 0.549702
0.251504 0.227397 0.566222
0.274267 0.199832 0.56741
0.301506 0.219295 0.550706
0.281201 0.227143 0.619745
0.331689 0.199495 0.551893
0.324269 0.219929 0.620324
0.401566 0.218772 0.552994
0.373962 0.199372 0.568829
0.432099 0.199081 0.553378
0.4242 0.219429 0.622571
0.451592 0.22641 0.570742
0.474208 0.198844 0.571244
0.48145 0.226052 0.62333
0.501543 0.218215 0.554198
0.53206 0.198686 0.554935
0.524221 0.219058 0.623871
0.574068 0.198489 0.572853
0.551492 0.226056 0.571824
0.632037 0.198096 0.557083
0.601635 0.217785 0.555835
0.673858 0.197946 0.576741
0.651608 0.2255 0.573875
0.701158 0.217242 0.556411
0.731349 0.198108 0.566454
0.773374 0.198372 0.547372
0.800845 0.221167 0.547014
0.780755 0.2213 0.623809
0.831272 0.198801 0.563536
0.901048 0.22179 0.544516
0.87367 0.198992 0.544813
0.880726 0.222118 0.620837
0.931303 0.199444 0.5608
0.973781 0.199771 0.541797
0.98095 0.222773 0.618286
0.0240143 0.229694 0.616762
0.024101 0.250416 0.541235
0.0513993 0.230763 0.556866
0.0816018 0.251373 0.558344
0.124108 0.251129 0.564841
0.174432 0.270733 0.61726
0.151509 0.270389 0.547276
0.181243 0.227524 0.61758
0.182077 0.250428 0.548063
0.224113 0.250202 0.565473
0.251604 0.269708 0.548857
0.274188 0.270181 0.618785
0.282087 0.249923 0.550288
0.351486 0.226859 0.568125
0.351516 0.268956 0.551053
0.323963 0.249496 0.567733
0.381095 0.226539 0.621337
0.381918 0.24923 0.552135
0.374182 0.26957 0.620986
0.451383 0.268427 0.553332
0.424212 0.249023 0.569864
0.48205 0.248855 0.553499
0.47439 0.26925 0.622089
0.524037 0.248751 0.570756
0.551573 0.267971 0.554391
0.582202 0.24829 0.555405
0.623904 0.248111 0.571755
0.651609 0.267436 0.556276
0.682004 0.247884 0.55479
0.722998 0.24803 0.547528
0.751012 0.228726 0.565093
0.750924 0.270517 0.546962
0.730748 0.270378 0.624132
0.781295 0.24824 0.563754
0.823989 0.228515 0.622555
0.850977 0.229265 0.562615
0.823256 0.248641 0.546035
0.850876 0.271418 0.545266
0.83072 0.271726 0.621864
0.881266 0.249118 0.561459
0.923856 0.229275 0.620008
0.951026 0.229784 0.560061
0.923645 0.249423 0.543446
0.930675 0.272398 0.619216
0.98108 0.249958 0.558751
0.0307352 0.27365 0.6163
0.0311428 0.300627 0.556423
0.00104288 0.280239 0.557822
0.0513755 0.273573 0.539998
0.0741301 0.301179 0.535702
0.0744448 0.281694 0.614765
0.131994 0.301098 0.545738
0.101382 0.28213 0.556745
0.131383 0.278773 0.616046
0.174098 0.300578 0.564634
0.201616 0.277739 0.564319
0.23187 0.300299 0.548279
0.231225 0.277331 0.617775
0.274124 0.299944 0.566229
0.301531 0.277354 0.567035
0.331994 0.299602 0.550611
0.330986 0.276636 0.619936
0.374016 0.299302 0.568406
0.40148 0.276498 0.569239
0.431809 0.299091 0.552
0.43098 0.276159 0.621937
0.47395 0.298725 0.570021
0.501515 0.276342 0.569683
0.532018 0.29863 0.553644
0.53116 0.276037 0.622813
0.573884 0.298464 0.571947
0.632176 0.29803 0.55633
0.601717 0.275824 0.572634
0.601517 0.317729 0.554283
0.631215 0.275097 0.625218
0.673839 0.297748 0.575709
0.701173 0.275752 0.574565
0.70109 0.316732 0.555078
0.73146 0.297862 0.566059
0.773977 0.277866 0.622931
0.773268 0.298266 0.546706
0.800901 0.278699 0.56353
0.831197 0.298677 0.561809
0.873544 0.299117 0.544394
0.900897 0.279415 0.560715
0.873889 0.27905 0.620585
0.950933 0.272243 0.542694
0.931114 0.299537 0.559231
0.973688 0.299948 0.541342
0.973911 0.279925 0.61777
0.0236202 0.350527 0.540341
0.0240815 0.329936 0.615747
9.7229e-04 0.322678 0.540774
0.0816334 0.351385 0.557254
0.0512583 0.330815 0.555532
0.0813074 0.323154 0.613941
0.124003 0.321379 0.615405
0.101296 0.323676 0.53684
0.123726 0.351244 0.563337
0.151433 0.328486 0.563023
0.181267 0.32787 0.616556
0.18202 0.350634 0.546485
0.224313 0.320716 0.617073
0.201396 0.31995 0.547365
0.224041 0.350266 0.564275
0.251501 0.327595 0.564886
0.301528 0.319495 0.54935
0.281922 0.349906 0.548294
0.281065 0.327114 0.617865
0.324126 0.320048 0.619182
0.35155 0.326974 0.567175
0.324192 0.349708 0.566146
0.401458 0.318531 0.551512
0.382001 0.349476 0.551195
0.381079 0.326577 0.620339
0.424305 0.319411 0.621321
0.423928 0.349107 0.568472
0.45139 0.326403 0.569465
0.481958 0.348868 0.552373
0.481114 0.326143 0.622108
0.501339 0.318309 0.552715
0.524161 0.319091 0.622714
0.523957 0.348541 0.569729
0.582009 0.348326 0.554008
0.55159 0.325976 0.570419
0.581384 0.32564 0.623582
0.623811 0.348169 0.570629
0.624092 0.318662 0.624893
0.651579 0.325431 0.572626
0.681768 0.347754 0.553682
0.723055 0.347828 0.546833
0.723472 0.327727 0.623922
0.751005 0.328457 0.564565
0.800872 0.32095 0.545773
0.781121 0.348326 0.562832
0.823419 0.348646 0.544858
0.850983 0.329128 0.561366
0.823846 0.328436 0.621366
0.900908 0.321912 0.543246
0.881157 0.34916 0.560279
0.880732 0.322133 0.620166
0.92351 0.349438 0.542513
0.951033 0.329927 0.558773
0.923859 0.329213 0.618667
0.981218 0.350125 0.557679
0.980733 0.322936 0.61753
0.0308623 0.400622 0.555273
0.0306355 0.373532 0.615488
7.57734e-04 0.380375 0.556931
0.0738937 0.401189 0.534864
0.051058 0.373692 0.539202
0.0741911 0.382016 0.613451
0.131787 0.401153 0.544403
0.101211 0.382048 0.55531
0.131145 0.378792 0.615039
0.151334 0.370458 0.54618
0.173878 0.400511 0.562995
0.17414 0.370735 0.615869
0.201367 0.377939 0.563935
0.231856 0.400172 0.546731
0.251364 0.369843 0.547856
0.230892 0.377652 0.616626
0.274067 0.399952 0.56453
0.274238 0.370384 0.617802
0.301444 0.377113 0.565932
0.35144 0.369187 0.54998
0.331851 0.399673 0.548904
0.331028 0.37693 0.618872
0.401514 0.376767 0.567493
0.374053 0.399473 0.56614
0.374263 0.369953 0.619445
0.431887 0.399083 0.551089
0.451474 0.368585 0.55157
0.431007 0.376381 0.620287
0.474064 0.398901 0.568774
0.474142 0.369023 0.621184
0.501514 0.376265 0.569135
0.532085 0.398725 0.553148
0.531215 0.375883 0.621951
0.551532 0.368112 0.553403
0.574113 0.398498 0.570325
0.574242 0.368676 0.62296
0.631981 0.398127 0.554858
0.601511 0.37579 0.571352
0.631148 0.375137 0.623705
0.651446 0.367481 0.555094
0.673852 0.397749 0.57456
0.701121 0.375568 0.573731
0.731249 0.397952 0.564543
0.750924 0.370333 0.54607
0.773261 0.398135 0.544863
0.773638 0.37816 0.621962
0.800874 0.378808 0.562282
0.850929 0.371421 0.544032
0.830951 0.398783 0.561224
0.830727 0.371551 0.620714
0.873408 0.39921 0.543159
0.90089 0.379491 0.55935
0.873731 0.378982 0.619777
0.950728 0.372231 0.540972
0.931163 0.399555 0.558694
0.93063 0.372545 0.618096
0.973236 0.39991 0.539603
0.973789 0.379929 0.616538
0.0234575 0.450549 0.538941
0.0238601 0.430026 0.614518
6.39664e-04 0.422807 0.539624
0.0509745 0.431006 0.554652
0.0813476 0.451161 0.555662
0.0809931 0.42303 0.612881
0.101081 0.42345 0.53605
0.123891 0.450972 0.56209
0.123995 0.421167 0.614656
0.151342 0.428308 0.561429
0.18192 0.450355 0.545723
0.180903 0.427688 0.615284
0.201375 0.419986 0.546336
0.224252 0.420369 0.615828
0.224074 0.45021 0.562861
0.25144 0.427507 0.563325
0.301473 0.419409 0.548033
0.281802 0.449906 0.547168
0.281121 0.4272 0.616686
0.323952 0.449671 0.565181
0.351364 0.426897 0.565618
0.324206 0.419887 0.618053
0.401547 0.418963 0.550053
0.38182 0.44938 0.549626
0.381126 0.426763 0.618953
0.451479 0.426416 0.567526
0.424075 0.449183 0.567083
0.424154 0.419399 0.619842
0.481802 0.448956 0.551189
0.481217 0.426186 0.620761
0.501449 0.418422 0.551701
0.524013 0.448865 0.568621
0.524081 0.419028 0.621673
0.582138 0.448437 0.552871
0.551431 0.426065 0.569502
0.581317 0.425849 0.622287
0.601489 0.417811 0.553539
0.623959 0.448276 0.568986
0.624065 0.418852 0.623104
0.651565 0.425494 0.571289
0.681171 0.426094 0.625436
0.682051 0.447692 0.552503
0.701023 0.417068 0.554199
0.723018 0.448059 0.545609
0.723388 0.427964 0.622899
0.750953 0.428366 0.563054
0.800698 0.421087 0.544565
0.780984 0.448345 0.561841
0.780608 0.421247 0.621297
0.823127 0.448576 0.543681
0.850843 0.429206 0.560631
0.823616 0.428354 0.620401
0.900742 0.42198 0.54198
0.881015 0.449376 0.55936
0.880758 0.42207 0.618907
0.923348 0.449573 0.541421
0.95079 0.429827 0.557769
0.923742 0.429302 0.617754
0.980892 0.44999 0.556512
0.980681 0.422897 0.61607
0.0302656 0.473653 0.613927
6.62324e-04 0.480275 0.555587
0.0510073 0.473454 0.538229
0.0742474 0.48162 0.61202
0.101134 0.481706 0.554131
0.130873 0.478598 0.613535
0.15136 0.470283 0.544713
0.17421 0.470726 0.614197
0.201358 0.477684 0.561991
0.230913 0.477301 0.615579
0.251372 0.469647 0.54631
0.231991 0.500047 0.545942
0.274168 0.470157 0.616133
0.301322 0.477121 0.564365
0.273856 0.499858 0.563801
0.351378 0.46907 0.548993
0.331055 0.476775 0.618009
0.331683 0.499539 0.548419
0.401394 0.476892 0.56655
0.373975 0.469592 0.61878
0.373876 0.499277 0.566038
0.451442 0.468628 0.550732
0.430867 0.476467 0.61916
0.431814 0.499247 0.549658
0.47417 0.498976 0.567356
0.474215 0.469401 0.619968
0.501551 0.476358 0.567915
0.531315 0.476145 0.620977
0.532042 0.498875 0.551504
0.551665 0.46829 0.551985
0.57431 0.498716 0.569373
0.574225 0.46878 0.621952
0.601514 0.476007 0.569847
0.63208 0.498282 0.554015
0.631075 0.475253 0.622809
0.651557 0.467621 0.553966
0.673945 0.49791 0.573492
0.674015 0.467362 0.623815
0.70118 0.47596 0.572938
0.731372 0.49832 0.563308
0.750754 0.470662 0.545256
0.730729 0.470566 0.622277
0.773255 0.498356 0.544448
0.773575 0.478349 0.620793
0.800686 0.478871 0.561038
0.850663 0.471516 0.542826
0.830422 0.471817 0.619559
0.830969 0.498764 0.559505
0.90077 0.479707 0.558277
0.873521 0.479024 0.618488
0.873418 0.499143 0.54187
0.950653 0.472365 0.540413
0.930485 0.472547 0.616959
0.931105 0.49963 0.557312
0.973695 0.479767 0.61551
0.973342 0.499889 0.538616
0.0308726 0.500425 0.554312
0.0239256 0.529691 0.613114
6.63523e-04 0.522529 0.537825
0.0739589 0.500956 0.533892
0.0510372 0.53057 0.553129
0.0808627 0.522862 0.611498
0.131645 0.50076 0.543261
0.10108 0.523397 0.534969
0.123895 0.521138 0.613016
0.17391 0.500414 0.561662
0.151146 0.528222 0.560526
0.180816 0.52752 0.613616
0.201256 0.519755 0.544752
0.224081 0.520346 0.614389
0.251227 0.527237 0.56249
0.301292 0.519099 0.5474
0.280789 0.526973 0.61603
0.351254 0.526791 0.565329
0.323837 0.519734 0.617157
0.401348 0.518758 0.549011
0.380922 0.52652 0.618132
0.451404 0.526551 0.566016
0.424096 0.519764 0.618377
0.480828 0.526209 0.619681
0.50139 0.51869 0.550606
0.524176 0.519198 0.620419
0.551548 0.526233 0.568095
0.581071 0.526028 0.621446
0.601627 0.518228 0.552336
0.624093 0.519054 0.622597
0.651503 0.525567 0.570234
0.680904 0.52632 0.623845
0.700982 0.517064 0.552819
0.723271 0.528195 0.621968
0.750755 0.52865 0.562153
0.800606 0.521399 0.543105
0.780525 0.521543 0.619962
0.850702 0.529176 0.558992
0.823654 0.528578 0.619111
0.900759 0.521878 0.540513
0.880465 0.522087 0.617503
0.950665 0.530037 0.556021
0.923584 0.529101 0.616113
0.98044 0.522851 0.614784
0.0236056 0.550254 0.5369
0.0306041 0.573405 0.612614
6.79972e-04 0.580108 0.554322
0.0509273 0.573078 0.535993
0.0813589 0.551202 0.55431
0.073918 0.581549 0.61105
0.12364 0.550848 0.561198
0.100945 0.581692 0.552691
0.131041 0.57841 0.612486
0.151223 0.570149 0.54361
0.174011 0.570449 0.613144
0.18163 0.550297 0.544496
0.223949 0.549966 0.562663
0.201254 0.577495 0.561308
0.251268 0.569405 0.545346
0.23105 0.577143 0.614405
0.273878 0.570161 0.615817
0.281677 0.549739 0.546708
0.301197 0.577086 0.563558
0.351128 0.568964 0.548059
0.323892 0.549329 0.56447
0.330857 0.576437 0.616629
0.381721 0.54927 0.548563
0.40108 0.576735 0.565555
0.373998 0.569473 0.617283
0.451207 0.568722 0.54889
0.423905 0.549255 0.565583
0.430788 0.576371 0.618079
0.481741 0.548974 0.550092
0.474067 0.569352 0.618801
0.501288 0.57631 0.566277
0.524025 0.548904 0.567801
0.530859 0.576093 0.619969
0.581922 0.548434 0.551668
0.551452 0.568486 0.551525
0.574295 0.568917 0.620629
0.60141 0.57591 0.568413
0.624041 0.54844 0.568316
0.651682 0.568074 0.552654
0.674079 0.567598 0.622753
0.681861 0.547999 0.551171
0.722844 0.548265 0.544656
0.701049 0.576145 0.570868
0.750773 0.571125 0.543487
0.730645 0.570842 0.620733
0.773742 0.578463 0.61943
0.78082 0.548547 0.560325
0.800806 0.578982 0.560004
0.823182 0.548784 0.542561
0.850735 0.571804 0.541058
0.830539 0.571994 0.618219
0.900935 0.579439 0.557043
0.881062 0.549211 0.557776
0.873646 0.578971 0.616696
0.923306 0.549557 0.539379
0.950749 0.572382 0.538405
0.930751 0.572524 0.615317
0.980924 0.549849 0.55494
0.973589 0.57967 0.613812
0.030867 0.600286 0.552368
0.0238607 0.629621 0.611887
7.29823e-04 0.622737 0.53672
0.0738584 0.600861 0.532136
0.0509591 0.630462 0.55117
0.0806424 0.622414 0.610486
0.100991 0.623258 0.534076
0.131655 0.600513 0.542179
0.123784 0.620713 0.611974
0.17374 0.600178 0.560718
0.151086 0.627929 0.558772
0.180662 0.627342 0.612745
0.201035 0.619479 0.544063
0.223688 0.620234 0.613969
0.231541 0.599931 0.545575
0.250994 0.627299 0.561605
0.273718 0.59965 0.562408
0.300906 0.619254 0.546162
0.280665 0.626793 0.615167
0.331451 0.599421 0.547175
0.350855 0.626715 0.564257
0.32355 0.619973 0.616079
0.400953 0.618721 0.548148
0.373616 0.599263 0.565151
0.380557 0.626547 0.61686
0.431404 0.599134 0.548539
0.45079 0.626493 0.565292
0.423791 0.619477 0.617468
0.47369 0.598867 0.566002
0.480442 0.625994 0.618166
0.501127 0.618425 0.549444
0.531533 0.598823 0.550242
0.523933 0.619105 0.619328
0.551044 0.626054 0.567
0.573994 0.598593 0.56795
0.580983 0.62599 0.619882
0.631841 0.598522 0.552007
0.601314 0.618198 0.551286
0.624135 0.618821 0.621293
0.673955 0.598381 0.571213
0.65121 0.626021 0.568183
0.680829 0.626523 0.622215
0.701073 0.617766 0.551271
0.723437 0.628581 0.620068
0.731029 0.598507 0.562466
0.750949 0.628817 0.560271
0.773411 0.598577 0.542543
0.800833 0.621571 0.543032
0.780351 0.622019 0.61876
0.850895 0.62924 0.556893
0.831029 0.599034 0.558443
0.823933 0.628559 0.617774
0.900961 0.62223 0.539753
0.873566 0.599181 0.540397
0.880336 0.622263 0.615881
0.950876 0.629738 0.554382
0.931056 0.599604 0.555526
0.924017 0.629227 0.614662
0.973506 0.599686 0.537374
0.980228 0.622734 0.613006
0.023724 0.650337 0.535735
0.0319165 0.673812 0.610791
0.0011457 0.680252 0.55548
0.0509197 0.67326 0.531331
0.0811016 0.650859 0.553523
0.072699 0.681551 0.60835
0.123427 0.650579 0.560021
0.131563 0.6779 0.610744
0.100819 0.681272 0.553287
0.151182 0.669603 0.541786
0.173621 0.67036 0.612217
0.181662 0.650025 0.543148
0.223425 0.649881 0.560928
0.200869 0.677445 0.560956
0.230451 0.676979 0.613551
0.250793 0.66918 0.544742
0.273554 0.669957 0.614777
0.2812 0.649635 0.545636
0.300603 0.677091 0.562063
0.350725 0.669123 0.546353
0.323366 0.649434 0.562755
0.330285 0.676655 0.61528
0.381211 0.649245 0.547585
0.400597 0.67657 0.564278
0.373437 0.669694 0.616277
0.450564 0.668629 0.547584
0.423382 0.64923 0.564786
0.43024 0.676514 0.617149
0.481103 0.648922 0.5491
0.47335 0.669089 0.618077
0.500556 0.676286 0.566038
0.523614 0.648766 0.567027
0.530612 0.675953 0.618897
0.550833 0.668313 0.54985
0.581389 0.648527 0.550984
0.573851 0.669213 0.619762
0.600977 0.676086 0.567719
0.623683 0.648567 0.568564
0.631104 0.675862 0.620708
0.651411 0.667977 0.551335
0.673978 0.667984 0.621629
0.681955 0.648304 0.55063
0.723546 0.648844 0.543182
0.701411 0.676435 0.570603
0.731869 0.672242 0.620124
0.751174 0.671918 0.539198
0.772362 0.679886 0.617348
0.780964 0.649458 0.558842
0.801313 0.67965 0.560865
0.85131 0.672367 0.537287
0.823944 0.649228 0.541459
0.831892 0.67255 0.616177
0.880905 0.649436 0.555849
0.872936 0.679491 0.614896
0.901519 0.679943 0.558148
0.923944 0.649751 0.538577
0.95135 0.672845 0.53391
0.93213 0.673074 0.613134
0.981019 0.650187 0.553086
0.972669 0.679946 0.612313
0.0317034 0.70044 0.552815
0.00104319 0.722533 0.56165
0.0731359 0.70044 0.529331
0.0730982 0.722017 0.610596
0.100423 0.719611 0.544374
0.131499 0.699952 0.540665
0.124007 0.718813 0.610782
0.17379 0.699965 0.558213
0.180259 0.727321 0.612086
0.200676 0.719687 0.541868
0.222884 0.720204 0.613161
0.231118 0.699875 0.544044
0.250316 0.727472 0.562246
0.272947 0.699728 0.561467
0.300204 0.719189 0.543949
0.279966 0.727144 0.614162
0.330944 0.69954 0.545894
0.322556 0.719839 0.614749
0.350106 0.727057 0.563798
0.400143 0.719115 0.545651
0.372899 0.699442 0.563021
0.380144 0.72676 0.615759
0.430639 0.699195 0.547558
0.422423 0.719431 0.616485
0.450122 0.726686 0.564629
0.472926 0.698984 0.56506
0.480091 0.726435 0.617779
0.50027 0.718439 0.547712
0.530754 0.698731 0.549585
0.522561 0.719107 0.618307
0.573072 0.698597 0.56616
0.579983 0.725953 0.619356
0.550182 0.726212 0.566524
0.60042 0.718233 0.548921
0.631242 0.698521 0.55064
0.623092 0.718723 0.619923
0.673828 0.698167 0.569508
0.678381 0.726062 0.620918
0.650363 0.726117 0.566864
0.701236 0.719104 0.557192
0.732356 0.699027 0.561925
0.770897 0.721503 0.619291
0.773568 0.699377 0.539645
0.801236 0.722097 0.567036
0.832019 0.699548 0.558539
0.873754 0.699614 0.538368
0.901383 0.722374 0.564315
0.87155 0.722451 0.61669
0.932174 0.699915 0.555472
0.973646 0.700019 0.535636
0.971271 0.722736 0.614009
0.0201982 0.750534 0.544295
0.0284036 0.729903 0.612306
0.0206466 0.773178 0.613858
0.0507644 0.730981 0.541887
0.0785069 0.750391 0.560332
0.0505276 0.772577 0.561368
0.120269 0.749842 0.553477
0.150649 0.727809 0.55827
0.178267 0.750176 0.534759
0.15023 0.769909 0.553852
0.17886 0.770774 0.610924
0.219617 0.750164 0.553993
0.250067 0.769774 0.556434
0.277582 0.749968 0.535769
0.278331 0.770048 0.61298
0.319386 0.749863 0.555561
0.349872 0.769539 0.557848
0.377362 0.749578 0.537752
0.378014 0.769687 0.614897
0.419125 0.749427 0.557286
0.449911 0.768842 0.559698
0.477519 0.749153 0.539342
0.478192 0.769172 0.616697
0.51935 0.74895 0.559168
0.577646 0.748779 0.541131
0.549943 0.768549 0.56095
0.578224 0.768966 0.617844
0.619416 0.748754 0.560719
0.650364 0.767955 0.562907
0.679153 0.768839 0.621165
0.680696 0.748735 0.550311
0.720041 0.749476 0.550366
0.72004 0.771728 0.622476
0.727956 0.727716 0.620327
0.75103 0.730017 0.550028
0.750341 0.771853 0.570115
0.778046 0.749504 0.568938
0.828806 0.729579 0.618319
0.82044 0.749745 0.549531
0.851276 0.730211 0.547449
0.821081 0.772487 0.620187
0.878662 0.749877 0.564419
0.920587 0.750134 0.547011
0.951124 0.730734 0.5445
0.928884 0.7298 0.615802
0.950683 0.772944 0.56389
0.97827 0.750243 0.561788
0.0280121 0.800297 0.5622
5.52241e-04 0.781001 0.545296
0.0700736 0.800012 0.542555
0.0781698 0.780106 0.612541
0.100623 0.776955 0.530883
0.127706 0.799742 0.533088
0.119729 0.778131 0.61015
0.17083 0.800225 0.552236
0.200333 0.77734 0.532438
0.219533 0.777301 0.611934
0.227732 0.800124 0.536764
0.27032 0.800085 0.554775
0.299986 0.776759 0.534787
0.319253 0.77681 0.613939
0.32762 0.799898 0.539407
0.399919 0.776548 0.53688
0.370295 0.799601 0.556569
0.427495 0.799423 0.540978
0.419281 0.776524 0.615517
0.470283 0.799044 0.558221
0.499862 0.775924 0.538492
0.527502 0.798801 0.543058
0.519537 0.775898 0.61776
0.570436 0.798895 0.5598
0.619474 0.775752 0.619117
0.600174 0.775836 0.539868
0.627981 0.798741 0.544371
0.670239 0.798832 0.563734
0.700418 0.779834 0.552277
0.72788 0.79965 0.572052
0.769989 0.799271 0.553367
0.800628 0.779857 0.551185
0.777686 0.779032 0.621614
0.850726 0.77232 0.566009
0.827775 0.799771 0.568015
0.900781 0.780406 0.549205
0.870253 0.799857 0.550359
0.877857 0.779402 0.619027
0.921138 0.772832 0.617461
0.927843 0.800253 0.565593
0.969886 0.800326 0.547339
0.977858 0.780005 0.615668
0.0201458 0.850421 0.547014
0.0276489 0.830143 0.615851
5.83304e-04 0.823262 0.563156
0.0505884 0.830655 0.545342
0.0781927 0.850008 0.563307
0.071079 0.822346 0.614139
0.100574 0.818973 0.554226
0.12729 0.81937 0.611973
0.120315 0.84976 0.556796
0.150633 0.827412 0.537561
0.178374 0.850409 0.537796
0.171714 0.827434 0.612674
0.20077 0.820064 0.553531
0.220811 0.850481 0.55594
0.227637 0.820722 0.613994
0.250761 0.827685 0.539189
0.271069 0.827451 0.615073
0.300545 0.819985 0.555913
0.278474 0.850367 0.540027
0.327644 0.820479 0.615953
0.320578 0.850213 0.557456
0.3507 0.827272 0.541252
0.400583 0.819613 0.55741
0.378363 0.850032 0.541941
0.371393 0.82693 0.616857
0.42754 0.819966 0.617465
0.450581 0.826725 0.542617
0.420735 0.849792 0.559264
0.478231 0.84952 0.543416
0.471339 0.826275 0.618695
0.500559 0.819176 0.559212
0.527687 0.819407 0.619685
0.520611 0.849165 0.56139
0.578119 0.849077 0.545986
0.550652 0.826133 0.544545
0.571234 0.826007 0.620643
0.600669 0.818785 0.561504
0.627728 0.819497 0.621145
0.620802 0.849054 0.563129
0.650762 0.826465 0.545841
0.678576 0.849431 0.546954
0.671127 0.826789 0.622596
0.700548 0.821606 0.571929
0.719852 0.849793 0.553201
0.750274 0.830088 0.553948
0.770533 0.822367 0.622543
0.800448 0.822105 0.569343
0.777749 0.84949 0.57023
0.819948 0.849583 0.552989
0.85036 0.830245 0.551878
0.827663 0.829306 0.621977
0.90047 0.822753 0.567321
0.877771 0.849916 0.568925
0.870663 0.822423 0.620594
0.950442 0.830829 0.548872
0.919939 0.850078 0.550578
0.927922 0.829891 0.618736
0.977875 0.850322 0.565637
0.970937 0.823017 0.617454
0.0279511 0.900482 0.565996
0.0213426 0.873105 0.617832
0.0699006 0.900286 0.54583
0.0505915 0.872695 0.563534
0.0778809 0.879873 0.615938
0.100702 0.877388 0.537453
0.128137 0.899717 0.536319
0.12088 0.878074 0.613782
0.150724 0.869957 0.555031
0.170832 0.900421 0.555893
0.177828 0.870953 0.614454
0.201077 0.877866 0.538873
0.221163 0.877937 0.615539
0.228353 0.900624 0.540032
0.251016 0.870263 0.556498
0.27119 0.900403 0.558062
0.301156 0.87765 0.540313
0.278115 0.870555 0.616599
0.321045 0.877302 0.617161
0.328709 0.900339 0.541828
0.351024 0.869869 0.558867
0.40109 0.877284 0.542264
0.371001 0.899984 0.560378
0.378067 0.87025 0.618607
0.428593 0.899826 0.543906
0.45093 0.86945 0.560949
0.421075 0.876844 0.619514
0.47103 0.899443 0.562097
0.478143 0.869719 0.620456
0.500987 0.876804 0.544694
0.528503 0.899164 0.546094
0.521247 0.876092 0.621432
0.570725 0.899243 0.563799
0.550927 0.869024 0.562717
0.578118 0.869587 0.622847
0.600894 0.876485 0.546863
0.628575 0.899187 0.548738
0.62118 0.876049 0.62366
0.65095 0.868891 0.565495
0.670687 0.89948 0.567826
0.700645 0.880436 0.556516
0.727541 0.899853 0.576499
0.750113 0.872082 0.571412
0.769698 0.899639 0.5574
0.800195 0.880027 0.555509
0.850327 0.872364 0.569049
0.827376 0.899664 0.571818
0.821077 0.871964 0.623199
0.900384 0.880411 0.552928
0.869925 0.899801 0.554026
0.877289 0.879376 0.622216
0.950455 0.872938 0.566065
0.927556 0.900049 0.56916
0.921168 0.872725 0.620808
5.17685e-04 0.88064 0.549813
0.970194 0.900338 0.551067
0.977475 0.879733 0.619048
0.0196884 0.949943 0.549243
0.0291284 0.930404 0.620317
0.050622 0.931059 0.546752
0.0798782 0.950074 0.562677
0.0701496 0.922785 0.617401
0.120814 0.949718 0.558847
0.100626 0.918922 0.557334
0.127612 0.919498 0.614959
0.150855 0.927833 0.538709
0.171239 0.927823 0.61654
0.178516 0.950303 0.540298
0.221174 0.950355 0.559335
0.201127 0.920237 0.557669
0.228156 0.920585 0.617345
0.251312 0.927902 0.541605
0.271621 0.927659 0.618259
0.278973 0.95029 0.542325
0.301477 0.920248 0.559169
0.351465 0.927599 0.543419
0.321416 0.950211 0.561245
0.328412 0.920445 0.619273
0.379235 0.950065 0.544391
0.401425 0.919748 0.561394
0.371605 0.927081 0.620297
0.42127 0.949681 0.562987
0.451512 0.927224 0.545441
0.428649 0.919963 0.621396
0.479182 0.949614 0.546202
0.471662 0.926845 0.622171
0.501269 0.919117 0.563412
0.5211 0.949268 0.564799
0.528396 0.919612 0.623012
0.551192 0.926809 0.547082
0.57888 0.949313 0.549219
0.571339 0.926262 0.624008
0.601073 0.918694 0.56568
0.620788 0.949092 0.567037
0.628161 0.919398 0.625348
0.651053 0.926986 0.549453
0.678621 0.949297 0.549256
0.670713 0.926916 0.627208
0.720718 0.921687 0.499667
0.719527 0.949446 0.557195
0.700737 0.922352 0.581558
0.750115 0.930041 0.556042
0.800244 0.921768 0.576617
0.778462 0.949035 0.576085
0.819462 0.949128 0.555741
0.850107 0.930209 0.553243
0.900281 0.92224 0.573321
0.878329 0.949446 0.573458
0.950332 0.930561 0.550724
0.919511 0.949578 0.552322
0.928654 0.929625 0.623279
1.00055 0.922766 0.569829
0.978362 0.949922 0.57064
0.969991 0.922731 0.621534
0.0313824 -2.38966e-05 0.55918
0.030875 0.972318 0.619197
9.37123e-04 0.979995 0.561494
0.0507802 0.972277 0.543156
0.0746621 0.979575 0.617569
0.101252 0.978324 0.54713
0.123981 0.978161 0.616478
0.151356 0.970178 0.557233
0.178688 0.970403 0.61839
0.201578 0.978338 0.542643
0.221832 0.977879 0.619158
0.251647 0.969981 0.561358
0.273966 5.93978e-05 0.571001
0.301806 0.978042 0.54341
0.279325 0.97037 0.620272
0.322127 0.977605 0.621299
0.351904 0.969562 0.562638
0.401852 0.977571 0.5457
0.379435 0.970017 0.622036
0.451675 0.969157 0.564491
0.422025 0.977008 0.623244
0.474008 0.999313 0.574584
0.479378 0.969443 0.623586
0.53253 0.99928 0.556052
0.501857 0.977405 0.546792
0.573608 0.998978 0.57746
0.551472 0.968844 0.567342
0.632332 0.999004 0.558719
0.60132 0.977197 0.549796
0.673119 0.998866 0.582105
0.651206 0.968749 0.568127
0.700727 0.98026 0.564042
0.731636 0.998824 0.570349
0.750576 0.970655 0.552322
0.773343 0.998902 0.550456
0.80055 0.979059 0.56772
0.83113 0.998974 0.565934
0.850486 0.971156 0.54743
0.873118 0.999092 0.546351
0.900605 0.979562 0.564476
0.872855 0.979089 0.623676
0.931024 0.999413 0.56218
0.950624 0.971838 0.544516
0.930569 0.972095 0.621923
0.972997 0.979515 0.620398
0.00131832 0.0300215 0.689271
0.0313763 0.0228488 0.747044
0.0512924 0.0225826 0.669063
0.0813526 8.44466e-04 0.688714
0.0744151 0.0310351 0.745666
0.101582 0.031501 0.688341
0.132064 0.0273483 0.747516
0.121404 1.00033 0.690207
0.151572 0.0194925 0.676312
0.20148 0.0272594 0.700848
0.182318 1.00023 0.67825
0.223953 1.23268e-04 0.699175
0.251828 0.019691 0.678421
0.301939 0.0271698 0.702571
0.282536 1.00002 0.680085
0.352105 0.0194281 0.680336
0.4021 0.0267685 0.70422
0.423834 0.0195141 0.625388
0.452049 0.0189496 0.682222
0.482427 0.0263397 0.626327
0.482676 0.999243 0.683663
0.523373 0.0192456 0.627327
0.501692 0.0264142 0.70642
0.582363 0.0259242 0.628362
0.551702 0.0188051 0.683952
0.623031 0.0194168 0.629789
0.601468 0.0261412 0.708328
0.651549 0.0184702 0.687032
0.682048 0.0266718 0.630971
0.723248 0.0284512 0.628039
0.701019 0.0254702 0.712315
0.751056 0.0210063 0.67874
0.780623 0.0216653 0.625978
0.80108 0.0294769 0.694758
0.823849 0.0288187 0.624753
0.850908 0.0217398 0.675799
0.901173 0.0296472 0.691718
0.951077 0.0222367 0.673
0.974046 0.0299153 0.749068
0.0316412 0.0501392 0.687538
0.00129914 0.0725656 0.671426
0.0243081 0.0796514 0.746859
0.074113 0.0508597 0.666716
0.0515021 0.0805318 0.686795
0.0812077 0.0724177 0.745164
0.101463 0.0732259 0.667829
0.13189 0.0504004 0.676829
0.123813 0.0706457 0.747164
0.174138 0.0499014 0.697626
0.151413 0.0777552 0.695553
0.180673 0.0775036 0.748475
0.201453 0.0698652 0.680141
0.224465 0.0704572 0.749298
0.231621 0.049718 0.681113
0.251443 0.0774015 0.696513
0.274548 0.0497859 0.698657
0.301649 0.0697501 0.682118
0.280743 0.0771847 0.750764
0.331701 0.049628 0.682884
0.351615 0.0771198 0.698589
0.401818 0.0694331 0.683497
0.374663 0.0494995 0.70053
0.431207 0.0764063 0.624214
0.431945 0.0491977 0.684602
0.451583 0.0768561 0.700503
0.474736 0.0693309 0.625167
0.474486 0.0491137 0.702188
0.531191 0.0761054 0.626116
0.501585 0.0689785 0.685695
0.531561 0.0487846 0.686912
0.574449 0.0689951 0.626861
0.574197 0.0486476 0.704551
0.551486 0.0762577 0.702143
0.630731 0.0755703 0.628418
0.631294 0.0485053 0.6899
0.601323 0.0686629 0.687439
0.674203 0.0676358 0.629342
0.673841 0.0479077 0.709114
0.65155 0.0756894 0.704481
0.70109 0.0671816 0.687084
0.730701 0.0707957 0.62699
0.731271 0.0484412 0.69819
0.751073 0.0786935 0.695937
0.773693 0.0487533 0.677401
0.801093 0.0715132 0.676464
0.831453 0.0491853 0.693832
0.851246 0.0792632 0.692908
0.873688 0.0492794 0.674632
0.901127 0.0720528 0.674145
0.931565 0.049717 0.690372
0.951328 0.0798528 0.689958
0.973869 0.049856 0.671784
0.981274 0.0728841 0.74835
0.02398 0.100282 0.671257
0.00147101 0.130591 0.687974
0.0312117 0.123415 0.74643
0.0516401 0.123058 0.668816
0.0819667 0.100894 0.688535
0.0742755 0.131401 0.74465
0.123809 0.10068 0.695913
0.101523 0.131528 0.687369
0.131363 0.12851 0.747161
0.15145 0.120256 0.67755
0.174193 0.120707 0.747763
0.181614 0.100319 0.678966
0.201383 0.127508 0.696341
0.22418 0.10008 0.696769
0.251392 0.119788 0.67963
0.230995 0.127364 0.748864
0.281472 0.0997947 0.680518
0.301277 0.12716 0.697854
0.274107 0.120201 0.749484
0.32416 0.099705 0.699159
0.351407 0.119424 0.681788
0.381733 0.0995164 0.682053
0.401462 0.126838 0.700124
0.424541 0.119511 0.623354
0.42413 0.0994708 0.700606
0.45162 0.119084 0.6831
0.481385 0.126151 0.624202
0.481634 0.0992742 0.684371
0.501377 0.126614 0.701694
0.524167 0.0990434 0.702281
0.581475 0.125795 0.626376
0.581665 0.0987386 0.685906
0.551551 0.118676 0.684811
0.624121 0.118896 0.627633
0.62394 0.098506 0.704055
0.601317 0.125923 0.704007
0.651533 0.118135 0.687631
0.68122 0.126505 0.628718
0.681701 0.0981195 0.685504
0.723418 0.128157 0.62613
0.701126 0.125973 0.706278
0.723375 0.0982501 0.677659
0.751083 0.120978 0.677551
0.780661 0.121559 0.624887
0.781585 0.0988253 0.694311
0.801286 0.128982 0.694084
0.851306 0.121836 0.67483
0.823904 0.0990195 0.67578
0.88154 0.099239 0.691641
0.901277 0.129765 0.691262
0.923909 0.0994783 0.673027
0.951391 0.122442 0.672493
0.981545 0.0999084 0.688568
0.974473 0.129899 0.747787
0.0318654 0.150371 0.68639
0.00135845 0.172847 0.670022
0.0242986 0.179868 0.746068
0.0743233 0.150871 0.665514
0.0813888 0.172745 0.74428
0.0515773 0.180662 0.68554
0.101548 0.173171 0.666177
0.131725 0.150728 0.676159
0.123818 0.170952 0.746275
0.174087 0.150466 0.694933
0.151335 0.17823 0.694227
0.180916 0.177685 0.7469
0.201405 0.170226 0.678114
0.22419 0.170483 0.748317
0.231636 0.150075 0.679316
0.251367 0.177396 0.69646
0.274024 0.149823 0.696954
0.301408 0.169792 0.679685
0.281053 0.177179 0.748855
0.331475 0.149561 0.680975
0.35132 0.176796 0.697932
0.324015 0.17011 0.749914
0.401294 0.169396 0.682094
0.374147 0.14948 0.699514
0.380831 0.176865 0.750815
0.431638 0.14939 0.68225
0.451457 0.176674 0.699354
0.47414 0.149253 0.700752
0.501366 0.169 0.683159
0.531541 0.148995 0.684355
0.57445 0.168723 0.625652
0.574008 0.148726 0.702989
0.551322 0.176064 0.701864
0.6311 0.175286 0.626437
0.601422 0.168286 0.685651
0.631655 0.148317 0.686863
0.674187 0.167679 0.627548
0.673954 0.148143 0.70728
0.65144 0.175443 0.703763
0.701113 0.167695 0.685089
0.730856 0.170623 0.625258
0.731442 0.148339 0.69586
0.751116 0.178756 0.694375
0.773786 0.148628 0.676579
0.80113 0.171208 0.675785
0.831548 0.148945 0.692404
0.851323 0.179427 0.691942
0.901239 0.172226 0.672929
0.873968 0.149274 0.673855
0.931546 0.149583 0.690422
0.951391 0.179907 0.689235
0.924422 0.179439 0.749079
0.973956 0.149955 0.670725
0.981249 0.172864 0.747577
0.0240528 0.200318 0.67001
0.0311163 0.223592 0.744983
0.0516982 0.223477 0.667764
0.0820247 0.201038 0.687777
0.123638 0.200858 0.694484
0.151386 0.220435 0.676655
0.174144 0.220905 0.746726
0.181438 0.200597 0.67723
0.224072 0.200088 0.695299
0.251314 0.219932 0.678432
0.230997 0.227608 0.747209
0.281574 0.200003 0.679207
0.323953 0.199685 0.696914
0.351348 0.219543 0.679971
0.330874 0.226988 0.748893
0.381351 0.199478 0.681184
0.374061 0.21988 0.750147
0.451414 0.219111 0.681584
0.424018 0.199311 0.699244
0.481538 0.199159 0.682693
0.524195 0.19884 0.700788
0.501372 0.226468 0.700463
0.581429 0.22555 0.624703
0.551487 0.218537 0.683786
0.581595 0.198461 0.684764
0.624233 0.218906 0.626015
0.624014 0.198386 0.701584
0.601347 0.225966 0.702191
0.65151 0.218182 0.68599
0.681062 0.226205 0.627215
0.6816 0.197968 0.683902
0.723292 0.198216 0.675936
0.701258 0.226002 0.70451
0.751208 0.220885 0.676771
0.78149 0.198622 0.693297
0.851252 0.221617 0.674154
0.823858 0.198813 0.674998
0.881549 0.199252 0.690886
0.951225 0.222269 0.671432
0.923882 0.199556 0.672182
0.931195 0.222676 0.74831
0.981518 0.20004 0.688422
0.0313893 0.250616 0.68514
0.00135654 0.230547 0.686944
0.0741373 0.251021 0.663893
0.0744025 0.231806 0.743551
0.131147 0.228653 0.745902
0.101473 0.232029 0.68611
0.131699 0.250898 0.674623
0.123826 0.271233 0.744891
0.173981 0.250702 0.694207
0.20133 0.227884 0.694834
0.201424 0.270556 0.677082
0.224166 0.270868 0.746635
0.231386 0.250256 0.677367
0.301246 0.227414 0.696345
0.273813 0.24994 0.69571
0.301099 0.269876 0.678677
0.331492 0.249737 0.679405
0.323852 0.270324 0.74825
0.401253 0.226904 0.698409
0.374006 0.249521 0.69798
0.401294 0.269226 0.680675
0.431312 0.249295 0.681323
0.474003 0.249224 0.699391
0.501304 0.268788 0.68207
0.531559 0.248867 0.682896
0.574286 0.268606 0.623845
0.573967 0.248569 0.701288
0.631696 0.248302 0.6859
0.601354 0.268179 0.684322
0.674267 0.267409 0.626296
0.67395 0.247908 0.706232
0.723779 0.227936 0.625167
0.701174 0.267207 0.684237
0.731648 0.24827 0.694751
0.773789 0.248541 0.675681
0.801307 0.229016 0.6928
0.801164 0.271317 0.67454
0.83153 0.248961 0.691982
0.901155 0.229566 0.689662
0.87374 0.249245 0.672769
0.901088 0.272049 0.671816
0.881012 0.272158 0.749101
0.931519 0.249598 0.689045
0.973992 0.250019 0.669943
0.974364 0.229897 0.746896
0.00116889 0.27309 0.669031
0.0239857 0.300599 0.66829
0.0240655 0.27991 0.744879
0.0811572 0.272906 0.74295
0.0514957 0.280869 0.684783
0.0817007 0.301267 0.68666
0.101485 0.273368 0.665944
0.123599 0.301023 0.692908
0.151326 0.278369 0.693293
0.180696 0.277898 0.745986
0.181471 0.300602 0.675792
0.223954 0.300519 0.693849
0.251198 0.277669 0.694833
0.281387 0.300121 0.678012
0.280838 0.277334 0.747722
0.351261 0.277039 0.697266
0.32397 0.299792 0.695639
0.381393 0.299562 0.680043
0.380716 0.276607 0.749771
0.423872 0.29932 0.698252
0.451346 0.276422 0.698637
0.481265 0.299159 0.681486
0.523801 0.298796 0.699349
0.551284 0.275973 0.699828
0.581686 0.29849 0.682928
0.623862 0.298255 0.700871
0.651461 0.275445 0.702678
0.681472 0.297807 0.68281
0.723388 0.297955 0.674913
0.751086 0.278548 0.693427
0.781552 0.298528 0.692532
0.823703 0.298941 0.673808
0.851181 0.279135 0.691059
0.824046 0.278547 0.750336
0.881357 0.299325 0.689792
0.923754 0.299561 0.671425
0.951196 0.279915 0.687722
0.924119 0.279206 0.747862
0.980912 0.273044 0.746092
0.981432 0.300304 0.68704
0.0315341 0.350635 0.683964
0.030986 0.323739 0.744246
0.00120847 0.330666 0.686598
0.0740026 0.351243 0.66292
0.0514842 0.323517 0.666893
0.0742679 0.331995 0.742686
0.131412 0.351093 0.673581
0.101261 0.332039 0.685685
0.130806 0.328713 0.744551
0.151306 0.32074 0.675825
0.173907 0.350666 0.69292
0.174136 0.320899 0.745503
0.201226 0.327879 0.693072
0.251288 0.320095 0.676944
0.231522 0.350377 0.676422
0.230722 0.327679 0.746269
0.273889 0.350132 0.694693
0.273901 0.320564 0.747297
0.301038 0.327263 0.695434
0.35127 0.319561 0.678941
0.331443 0.349763 0.677837
0.330791 0.327104 0.747784
0.373947 0.349594 0.696806
0.401113 0.326782 0.697557
0.373894 0.31976 0.749031
0.451195 0.319089 0.680782
0.431486 0.349277 0.679956
0.473904 0.349136 0.697933
0.473998 0.319412 0.750604
0.501217 0.326291 0.698958
0.531432 0.348777 0.681712
0.531041 0.325956 0.751193
0.551464 0.318441 0.682565
0.573918 0.348657 0.699978
0.631418 0.348249 0.684441
0.601339 0.325904 0.701167
0.651413 0.318006 0.685384
0.68109 0.326017 0.626459
0.673883 0.348038 0.705181
0.701172 0.325596 0.704161
0.751023 0.320566 0.675662
0.731468 0.348032 0.694145
0.780592 0.321371 0.622677
0.773659 0.348455 0.674381
0.801067 0.329012 0.691629
0.851175 0.321746 0.672895
0.831267 0.349001 0.69055
0.873682 0.349306 0.672183
0.901074 0.329693 0.68927
0.874028 0.32912 0.748826
0.951139 0.322433 0.67016
0.931415 0.349689 0.688378
0.931011 0.322572 0.747477
0.973767 0.350199 0.668658
0.974123 0.330062 0.746124
0.0235908 0.400559 0.667755
0.024041 0.379897 0.743677
9.04612e-04 0.372961 0.667844
0.0512367 0.380973 0.68348
0.0811277 0.373199 0.741696
0.0814703 0.401369 0.685096
0.101187 0.37358 0.664376
0.123795 0.371054 0.743897
0.123348 0.40108 0.692874
0.15119 0.378365 0.692416
0.180868 0.377784 0.744594
0.181356 0.400637 0.67485
0.201107 0.370486 0.675715
0.223691 0.400396 0.693349
0.223791 0.370845 0.745658
0.251149 0.377659 0.693545
0.301124 0.369983 0.677364
0.281303 0.40012 0.676283
0.280688 0.3773 0.746703
0.323845 0.39992 0.695302
0.351285 0.377213 0.695969
0.323918 0.370217 0.747079
0.381548 0.399596 0.678382
0.401227 0.369078 0.679465
0.380935 0.37671 0.748596
0.423843 0.399291 0.696737
0.451236 0.376619 0.697052
0.424028 0.36964 0.748863
0.481473 0.399101 0.680303
0.480845 0.376334 0.750319
0.501262 0.368978 0.681117
0.523851 0.399 0.69833
0.551277 0.37614 0.699053
0.581348 0.398578 0.681453
0.601359 0.368399 0.683177
0.623895 0.398293 0.699518
0.673939 0.367151 0.625156
0.6513 0.375425 0.70132
0.681513 0.39779 0.681937
0.701098 0.366983 0.682612
0.723236 0.398166 0.67383
0.730893 0.37026 0.623411
0.750958 0.378523 0.692499
0.800956 0.371248 0.673336
0.781035 0.398558 0.690955
0.823549 0.398812 0.673029
0.851013 0.379299 0.689944
0.823931 0.378617 0.749273
0.901063 0.372026 0.671327
0.88135 0.399515 0.688474
0.880904 0.372331 0.748272
0.923593 0.399733 0.670252
0.950957 0.380126 0.687118
0.924105 0.379489 0.746928
0.981327 0.400219 0.68553
0.980801 0.373169 0.745128
0.0305876 0.423714 0.743046
0.0312503 0.450706 0.68344
9.87113e-04 0.430877 0.684558
0.073878 0.451163 0.661821
0.051158 0.423596 0.665703
0.0739636 0.43197 0.741364
0.131295 0.45081 0.672437
0.101038 0.431957 0.683879
0.130939 0.428731 0.743311
0.151092 0.420639 0.674202
0.173773 0.450607 0.691653
0.174004 0.420816 0.744371
0.201055 0.427854 0.692614
0.231248 0.450122 0.675034
0.251142 0.419856 0.675546
0.230937 0.427507 0.744675
0.273914 0.450031 0.693091
0.273898 0.420443 0.745787
0.301074 0.427298 0.693852
0.351337 0.419529 0.677912
0.331205 0.44969 0.677198
0.330644 0.426949 0.746887
0.373753 0.449507 0.695536
0.401151 0.426889 0.696307
0.373983 0.419678 0.747915
0.451177 0.419109 0.679812
0.431255 0.449374 0.678478
0.473698 0.449207 0.697244
0.473951 0.41937 0.749385
0.501078 0.426417 0.698091
0.531206 0.448993 0.680252
0.551304 0.418781 0.680968
0.573919 0.448785 0.699303
0.60122 0.426105 0.699748
0.631242 0.448416 0.683554
0.651369 0.418257 0.683931
0.673786 0.447995 0.703764
0.70107 0.425683 0.702951
0.75087 0.420871 0.674029
0.73119 0.448332 0.693042
0.773469 0.44858 0.672964
0.800954 0.42889 0.690142
0.773827 0.428406 0.750384
0.850882 0.421682 0.671532
0.831205 0.44909 0.689303
0.8307 0.421934 0.748737
0.873402 0.449261 0.670374
0.901091 0.429978 0.68799
0.87383 0.429169 0.747232
0.950946 0.42253 0.669977
0.931337 0.449897 0.686557
0.93062 0.422843 0.746639
0.973629 0.450193 0.667541
0.973935 0.430092 0.74481
0.0236906 0.480205 0.742578
8.20436e-04 0.473067 0.667228
0.0510475 0.480884 0.681903
0.0809176 0.472865 0.740584
0.101078 0.473252 0.663273
0.123456 0.471002 0.742721
0.150968 0.478114 0.690721
0.18035 0.477958 0.743318
0.201069 0.470273 0.674518
0.223793 0.470656 0.744076
0.223794 0.500416 0.691901
0.251049 0.477505 0.69234
0.301082 0.469787 0.676165
0.280629 0.477288 0.745221
0.281115 0.499954 0.675638
0.351105 0.476955 0.694546
0.323976 0.470083 0.746462
0.323731 0.499863 0.694112
0.401026 0.469325 0.678029
0.38082 0.476757 0.747293
0.38137 0.499487 0.677784
0.451205 0.476642 0.695984
0.423762 0.499352 0.695534
0.423888 0.469956 0.747684
0.48134 0.499162 0.679281
0.480875 0.476547 0.748962
0.50134 0.469056 0.680298
0.52391 0.499083 0.697311
0.523939 0.469448 0.74968
0.551321 0.476127 0.698094
0.581367 0.498811 0.680878
0.60129 0.468508 0.682036
0.623954 0.498452 0.69847
0.651343 0.475606 0.700061
0.681449 0.498047 0.680859
0.700862 0.467356 0.681677
0.723087 0.49828 0.673249
0.750982 0.4787 0.691354
0.800843 0.471631 0.672152
0.78118 0.498781 0.689675
0.850929 0.479365 0.688923
0.823487 0.49897 0.672316
0.823694 0.478694 0.748457
0.900797 0.472161 0.670004
0.880487 0.47239 0.747009
0.881118 0.499437 0.687819
0.951008 0.480311 0.686122
0.923962 0.479461 0.745555
0.923496 0.499759 0.668785
0.980693 0.473209 0.744665
0.981052 0.500277 0.684921
0.0234771 0.500672 0.666332
0.0303857 0.523698 0.742194
8.54251e-04 0.530569 0.683837
0.0813848 0.501104 0.684069
0.0511403 0.523345 0.665334
0.0740196 0.531619 0.740287
0.123323 0.500956 0.691082
0.101018 0.531799 0.682469
0.1307 0.528537 0.742229
0.151069 0.520367 0.672988
0.173748 0.520756 0.742959
0.181229 0.500535 0.673587
0.20096 0.527677 0.691155
0.251003 0.52012 0.674919
0.23043 0.527435 0.744
0.273874 0.52037 0.744928
0.30086 0.527282 0.692655
0.351092 0.519572 0.676235
0.330724 0.526938 0.746184
0.401066 0.526752 0.695338
0.373806 0.519962 0.746624
0.451156 0.519185 0.67823
0.430754 0.526612 0.747224
0.474043 0.519539 0.748264
0.501047 0.526552 0.696211
0.530723 0.526215 0.749681
0.551253 0.518976 0.680408
0.574133 0.519007 0.750317
0.60127 0.526185 0.69863
0.651281 0.518292 0.683081
0.701142 0.526081 0.701277
0.751038 0.520925 0.673092
0.800953 0.529347 0.689311
0.850912 0.521823 0.670318
0.830701 0.522136 0.747597
0.900833 0.529694 0.686489
0.873658 0.52927 0.746435
0.950851 0.522489 0.667822
0.93074 0.52264 0.744719
0.973773 0.530007 0.743676
0.0313608 0.550528 0.681699
0.0235805 0.579806 0.740877
9.39511e-04 0.572803 0.664643
0.0739074 0.551088 0.66052
0.0512751 0.580863 0.680867
0.0809501 0.57272 0.739297
0.101094 0.57311 0.661461
0.131296 0.550757 0.671534
0.123374 0.570768 0.741367
0.173603 0.55041 0.690383
0.150951 0.578353 0.689859
0.180699 0.577547 0.742241
0.200898 0.570143 0.673438
0.223804 0.570543 0.74363
0.2312 0.550206 0.673955
0.250984 0.577309 0.691844
0.273718 0.550038 0.692398
0.301048 0.569658 0.675422
0.280622 0.577174 0.744284
0.331101 0.549621 0.676711
0.350988 0.576854 0.693029
0.323813 0.570225 0.745388
0.400963 0.569457 0.676968
0.373752 0.549677 0.694604
0.380728 0.576928 0.746502
0.431211 0.549404 0.678188
0.450953 0.576571 0.695378
0.423704 0.569794 0.747299
0.47363 0.549357 0.696304
0.480947 0.576531 0.748146
0.501067 0.569037 0.678628
0.531171 0.549072 0.679815
0.573796 0.548955 0.698167
0.551076 0.576311 0.696739
0.580742 0.576136 0.749871
0.631158 0.575615 0.621653
0.601191 0.568563 0.680703
0.631442 0.548498 0.682283
0.673987 0.548225 0.702243
0.651392 0.575612 0.699022
0.700961 0.567595 0.680456
0.731347 0.548483 0.691789
0.750933 0.57909 0.690113
0.773475 0.548799 0.67194
0.800822 0.571602 0.671195
0.780661 0.571837 0.748215
0.83114 0.549208 0.68779
0.850946 0.579686 0.687041
0.823602 0.579114 0.746724
0.873506 0.549361 0.669011
0.900915 0.572105 0.668122
0.88079 0.572569 0.745416
0.93119 0.549778 0.685283
0.950922 0.580243 0.684375
0.923793 0.579521 0.744475
0.973425 0.550126 0.665862
0.98073 0.573048 0.742315
0.0236788 0.600319 0.664771
0.0300346 0.623506 0.740108
8.24099e-04 0.630366 0.680858
0.051179 0.623295 0.66421
0.0816607 0.601011 0.682861
0.0739399 0.63147 0.738826
0.123128 0.600764 0.690199
0.100832 0.631901 0.681203
0.13021 0.628462 0.74084
0.150851 0.620685 0.6721
0.173701 0.620688 0.741636
0.181034 0.600341 0.672421
0.22363 0.60015 0.690339
0.200813 0.627735 0.690079
0.230321 0.627231 0.74275
0.250919 0.619857 0.674012
0.273427 0.620163 0.744145
0.281074 0.600037 0.675087
0.300694 0.627188 0.692193
0.350832 0.619448 0.675733
0.323581 0.59986 0.692902
0.330543 0.626965 0.744913
0.380988 0.59956 0.67679
0.400747 0.627023 0.693694
0.373644 0.620102 0.745673
0.450828 0.61924 0.677423
0.423559 0.599409 0.694444
0.430551 0.626571 0.746628
0.481076 0.59916 0.678409
0.473702 0.619588 0.747397
0.500937 0.626696 0.694848
0.523721 0.599183 0.696389
0.530526 0.62645 0.748216
0.581327 0.598782 0.679462
0.551077 0.618955 0.678828
0.573961 0.619257 0.748451
0.623836 0.598682 0.697753
0.60109 0.626143 0.696662
0.630604 0.625704 0.750386
0.651188 0.618368 0.681018
0.681479 0.598094 0.679262
0.723373 0.598586 0.671555
0.701111 0.625905 0.699407
0.750972 0.621495 0.671223
0.730742 0.621216 0.748731
0.781168 0.598945 0.688459
0.80087 0.629361 0.687292
0.773899 0.628697 0.747001
0.850927 0.62199 0.670096
0.823532 0.599144 0.669762
0.830241 0.622201 0.746014
0.881295 0.59947 0.685503
0.90111 0.629935 0.684154
0.874057 0.629086 0.744716
0.923565 0.599634 0.666692
0.950947 0.622562 0.667252
0.930402 0.622595 0.743168
0.981324 0.600009 0.683093
0.974045 0.629604 0.741912
0.0309658 0.650576 0.679352
0.0226248 0.679919 0.738815
9.80058e-04 0.673019 0.660175
0.0737957 0.651199 0.658976
0.0816452 0.672548 0.737268
0.0513027 0.681004 0.681919
0.100884 0.673827 0.655537
0.130847 0.650795 0.669295
0.122969 0.670596 0.739496
0.173534 0.650475 0.689341
0.150702 0.678075 0.68896
0.180399 0.67751 0.741153
0.200739 0.670139 0.672185
0.223409 0.67049 0.742175
0.230872 0.650063 0.67357
0.250573 0.677439 0.690696
0.273282 0.649988 0.691495
0.300661 0.669549 0.674229
0.280363 0.677258 0.743274
0.330962 0.649652 0.675249
0.350502 0.677082 0.692414
0.323329 0.670176 0.74419
0.373309 0.649653 0.693316
0.400457 0.669443 0.676069
0.380083 0.676695 0.745104
0.430786 0.649321 0.677324
0.450391 0.676612 0.694011
0.423389 0.669629 0.746407
0.473275 0.649186 0.694931
0.480286 0.676362 0.746709
0.500638 0.669045 0.677555
0.531015 0.649018 0.67838
0.523385 0.669543 0.747659
0.573713 0.649003 0.696229
0.550779 0.676225 0.696139
0.631354 0.648728 0.680998
0.600999 0.668998 0.679695
0.623616 0.669102 0.750381
0.67375 0.64822 0.700188
0.65105 0.676066 0.699483
0.701122 0.66799 0.67987
0.722712 0.679054 0.749094
0.731512 0.648809 0.69006
0.751063 0.67994 0.691659
0.773607 0.649495 0.669821
0.801133 0.672307 0.665721
0.781855 0.672243 0.745913
0.831026 0.64958 0.685845
0.82303 0.679511 0.744362
0.851371 0.679887 0.688011
0.90137 0.672469 0.663363
0.873709 0.649712 0.667644
0.882025 0.6727 0.743255
0.931293 0.650005 0.68287
0.923014 0.679802 0.741762
0.951398 0.680494 0.685089
0.973809 0.650176 0.664773
0.982028 0.673185 0.740742
0.0229506 0.700377 0.662529
0.0213179 0.723039 0.741335
0.0816031 0.700921 0.682051
0.0508465 0.722657 0.688168
0.122931 0.700303 0.689212
0.150642 0.720063 0.670286
0.173034 0.720558 0.740735
0.181038 0.700218 0.671454
0.222993 0.700103 0.690149
0.25041 0.719758 0.671704
0.272752 0.720206 0.743128
0.280836 0.699837 0.673922
0.350254 0.719522 0.673562
0.323099 0.69975 0.691345
0.330019 0.727328 0.743634
0.380636 0.699621 0.674993
0.372571 0.719667 0.744542
0.400251 0.727144 0.694358
0.450178 0.719044 0.675437
0.422875 0.699395 0.693911
0.430131 0.7269 0.745438
0.480578 0.699219 0.677154
0.47256 0.719191 0.746847
0.523082 0.698949 0.695252
0.53013 0.726417 0.747364
0.500223 0.726754 0.695952
0.580895 0.698974 0.679044
0.550332 0.718663 0.677481
0.572718 0.719091 0.74852
0.623582 0.698848 0.698274
0.600359 0.726493 0.697359
0.630256 0.726456 0.749216
0.650518 0.7185 0.67973
0.680648 0.698315 0.678498
0.721021 0.69901 0.677447
0.750979 0.721475 0.69624
0.781851 0.699248 0.688592
0.823503 0.699565 0.667092
0.851176 0.721975 0.695079
0.821295 0.721925 0.747333
0.881908 0.699642 0.685735
0.923351 0.699905 0.664585
0.951175 0.722201 0.692725
0.921259 0.722179 0.744333
0.982018 0.70008 0.683335
0.0279223 0.750441 0.68868
8.72318e-04 0.730496 0.672273
0.077675 0.731784 0.739453
0.0700706 0.750558 0.669125
0.0703351 0.772572 0.740563
0.128026 0.728786 0.738413
0.100885 0.731368 0.673037
0.1285 0.750119 0.656842
0.128778 0.769035 0.736876
0.100772 0.769449 0.681939
0.169701 0.750328 0.681849
0.200589 0.727984 0.690259
0.200134 0.769785 0.683445
0.230385 0.727625 0.741876
0.227867 0.750158 0.662364
0.269379 0.750049 0.684234
0.228494 0.77016 0.739831
0.300248 0.727761 0.692176
0.299972 0.769501 0.685367
0.327718 0.749772 0.664659
0.328434 0.770028 0.741808
0.369111 0.749637 0.685758
0.399899 0.768819 0.687531
0.427648 0.749354 0.665476
0.428187 0.769335 0.743994
0.469338 0.749205 0.687563
0.499776 0.768639 0.689467
0.52786 0.748824 0.66824
0.528205 0.768909 0.746056
0.569548 0.748798 0.689093
0.62811 0.748633 0.668932
0.600217 0.768268 0.69104
0.628786 0.768473 0.747788
0.669939 0.748893 0.692794
0.700561 0.727512 0.689629
0.70031 0.771486 0.701359
0.727631 0.749483 0.69988
0.770382 0.749169 0.679769
0.770892 0.771632 0.750454
0.800983 0.729615 0.677277
0.800674 0.771915 0.697354
0.778551 0.72891 0.748608
0.828375 0.749388 0.695641
0.901033 0.730072 0.674754
0.870879 0.749816 0.677118
0.878729 0.729396 0.746027
0.900729 0.772511 0.69497
0.928422 0.749912 0.69342
0.9788 0.729985 0.743176
0.970628 0.750093 0.674545
0.971204 0.772902 0.745091
6.87468e-04 0.773077 0.691642
0.0203109 0.800479 0.673959
0.0278781 0.779837 0.742887
0.0504628 0.780742 0.671846
0.0781235 0.800114 0.690895
0.120451 0.799865 0.683617
0.150464 0.777378 0.658482
0.177777 0.800167 0.66544
0.169384 0.777017 0.739589
0.220449 0.800155 0.682407
0.250201 0.777296 0.661123
0.269406 0.777215 0.741236
0.277627 0.800002 0.666039
0.320229 0.799822 0.68397
0.349872 0.776946 0.66296
0.37757 0.799389 0.668389
0.369178 0.776777 0.743228
0.449993 0.776398 0.66549
0.420172 0.799231 0.68607
0.477462 0.798923 0.669965
0.469249 0.776312 0.745351
0.520193 0.798745 0.687756
0.550114 0.775918 0.6677
0.577735 0.798661 0.6716
0.569642 0.775854 0.747288
0.62048 0.798444 0.689426
0.650472 0.775842 0.668681
0.678136 0.7988 0.672316
0.650558 0.818564 0.691265
0.720132 0.799431 0.680618
0.750289 0.779363 0.681947
0.777748 0.799213 0.698321
0.820271 0.799519 0.680509
0.850586 0.77974 0.679077
0.871348 0.772339 0.747722
0.878017 0.799714 0.695872
0.950825 0.780267 0.676312
0.920539 0.799991 0.677565
0.927967 0.779632 0.746288
0.978018 0.80019 0.693167
0.0211759 0.823214 0.744558
0.027913 0.850318 0.693287
7.38051e-04 0.830633 0.676316
0.0704526 0.850275 0.673334
0.0507171 0.822955 0.690819
0.0781654 0.830052 0.743018
0.100714 0.827866 0.663813
0.127748 0.850061 0.662471
0.121034 0.828425 0.740687
0.15057 0.820162 0.680625
0.17754 0.821185 0.741433
0.17051 0.850367 0.683084
0.200686 0.827892 0.666317
0.221028 0.827569 0.742244
0.228222 0.850438 0.666751
0.250493 0.819825 0.683887
0.270357 0.850154 0.685098
0.277474 0.820484 0.743685
0.3005 0.827226 0.668245
0.350514 0.819597 0.685087
0.32803 0.850074 0.668574
0.321128 0.827085 0.744184
0.400598 0.826918 0.670285
0.370573 0.849575 0.686873
0.377436 0.820106 0.745574
0.450449 0.818931 0.686817
0.428248 0.849497 0.67049
0.421039 0.826823 0.746244
0.477455 0.819561 0.747175
0.470443 0.849132 0.689013
0.500586 0.826199 0.671769
0.52816 0.848942 0.672721
0.521339 0.82629 0.748546
0.550584 0.818349 0.689141
0.570483 0.848738 0.691394
0.577318 0.819163 0.749569
0.600575 0.825901 0.674513
0.628023 0.848878 0.675416
0.621343 0.825951 0.750751
0.670435 0.848917 0.694591
0.700668 0.829855 0.682461
0.72766 0.830091 0.624252
0.727838 0.84922 0.704842
0.750428 0.821983 0.700334
0.77009 0.849225 0.683823
0.800263 0.829629 0.681781
0.850565 0.822263 0.698169
0.827631 0.849261 0.699814
0.87027 0.849724 0.680179
0.900534 0.829942 0.678993
0.877979 0.829372 0.749344
0.927782 0.849868 0.696601
0.950701 0.822782 0.69556
0.920862 0.822667 0.748039
0.970479 0.850139 0.677619
0.978008 0.829849 0.746511
0.020647 0.900515 0.678529
7.38831e-04 0.872929 0.693546
0.0277403 0.879673 0.746837
0.0509234 0.880513 0.676877
0.078384 0.900338 0.69477
0.0710927 0.872516 0.745503
0.100835 0.869222 0.685497
0.127791 0.869351 0.742917
0.120185 0.89983 0.686596
0.15057 0.877393 0.666187
0.178095 0.900415 0.668721
0.171034 0.877043 0.743274
0.200844 0.870047 0.684223
0.220668 0.900286 0.686246
0.227988 0.870535 0.744266
0.250896 0.877639 0.667976
0.271081 0.877266 0.745454
0.278275 0.900193 0.669914
0.300768 0.86972 0.686621
0.321021 0.900058 0.687537
0.350969 0.877114 0.669993
0.32791 0.870387 0.746385
0.378468 0.899654 0.671742
0.401049 0.86927 0.688702
0.371211 0.876891 0.747076
0.451026 0.876734 0.671731
0.420797 0.899438 0.689715
0.428111 0.869813 0.748062
0.478525 0.899311 0.673585
0.471214 0.876341 0.748866
0.500811 0.868827 0.690326
0.520999 0.898977 0.691935
0.528032 0.869344 0.750369
0.578273 0.898962 0.675403
0.550848 0.876296 0.673901
0.600701 0.868494 0.692448
0.62052 0.898704 0.693843
0.678204 0.869039 0.62492
0.650847 0.876205 0.676279
0.678701 0.899174 0.676468
0.721165 0.870964 0.626807
0.700714 0.871269 0.703528
0.720598 0.899629 0.683862
0.750439 0.879444 0.686399
0.777298 0.878803 0.624895
0.777615 0.899448 0.701382
0.800424 0.871901 0.69957
0.820371 0.899488 0.684214
0.850441 0.879712 0.682789
0.877611 0.899655 0.7
0.900564 0.872371 0.696933
0.920289 0.900012 0.681775
0.950623 0.880208 0.680374
0.927751 0.879455 0.749795
0.977888 0.900213 0.696761
0.971511 0.872934 0.748488
0.0284203 0.950218 0.69913
5.1898e-04 0.930436 0.677417
0.0200731 0.922947 0.74914
0.0703058 0.950215 0.674829
0.0507989 0.923233 0.698356
0.0792678 0.930497 0.746225
0.10056 0.927932 0.665579
0.128025 0.949838 0.667064
0.120204 0.927629 0.744393
0.1505 0.920135 0.685158
0.170592 0.95029 0.687556
0.178259 0.920503 0.745128
0.200981 0.927878 0.668861
0.221499 0.927389 0.746307
0.228753 0.9502 0.670671
0.251055 0.919873 0.687444
0.270993 0.950234 0.689314
0.301179 0.927541 0.671221
0.278388 0.920415 0.747176
0.328853 0.950005 0.672518
0.351343 0.919588 0.689199
0.321548 0.927019 0.748033
0.401364 0.926881 0.673009
0.371252 0.949745 0.690976
0.378563 0.919992 0.749383
0.428889 0.949561 0.674525
0.451284 0.919005 0.691359
0.471012 0.949331 0.693055
0.501173 0.926538 0.67464
0.528699 0.949118 0.67649
0.551073 0.918805 0.693104
0.570987 0.948896 0.694592
0.60101 0.926139 0.676649
0.628316 0.948755 0.679379
0.650734 0.918381 0.696135
0.670108 0.948747 0.699017
0.700926 0.929852 0.685655
0.769255 0.922113 0.627092
0.728905 0.930229 0.630145
0.728554 0.949172 0.710789
0.750414 0.92201 0.708677
0.76978 0.949001 0.685877
0.800163 0.929273 0.683095
0.828667 0.929124 0.62613
0.828156 0.949309 0.703652
0.850451 0.922348 0.704363
0.869808 0.922243 0.624562
0.869845 0.94936 0.682273
0.900297 0.930093 0.680756
0.928348 0.94968 0.701484
0.950451 0.922621 0.701273
0.969838 0.949854 0.680068
0.978828 0.929744 0.751227
0.0237971 8.94532e-05 0.670079
7.83388e-04 0.972147 0.670698
0.0233967 0.980108 0.748066
0.0509822 0.980534 0.688092
0.0782264 0.972631 0.74615
0.100861 0.971698 0.67804
0.128016 0.971559 0.746537
0.151343 0.978041 0.670721
0.171328 0.978041 0.747366
0.201387 0.969907 0.689048
0.229108 0.970193 0.748001
0.251535 0.978016 0.670927
0.301599 0.969879 0.691245
0.324197 0.999909 0.700768
0.351716 0.97767 0.67312
0.329416 0.970107 0.750011
0.382742 -3.03045e-04 0.681543
0.401695 0.969313 0.693131
0.423936 0.999419 0.702536
0.451786 0.9772 0.673934
0.521852 0.97676 0.624756
0.523775 0.999021 0.704712
0.50145 0.968872 0.694866
0.579031 0.969147 0.626292
0.582157 0.999021 0.685588
0.551333 0.976726 0.676261
0.621706 0.976166 0.626823
0.623267 0.998804 0.706318
0.601194 0.968623 0.696914
0.678166 0.967787 0.627994
0.651185 0.976668 0.68009
0.723099 0.998941 0.67816
0.681583 0.998466 0.685748
0.701037 0.967931 0.694
0.727922 0.970447 0.629041
0.750802 0.979073 0.697378
0.773256 0.978789 0.627086
0.781529 0.999037 0.695741
0.800804 0.97096 0.677087
0.830463 0.971732 0.624984
0.823485 0.999033 0.677111
0.850879 0.97941 0.694461
0.881295 0.999395 0.692502
0.900722 0.971562 0.673629
0.923248 0.999481 0.674022
0.95079 0.980019 0.692362
0.981467 0.999848 0.689669
0.00140544 0.0227648 0.800744
0.0317083 2.79495e-04 0.817452
0.0517908 0.0305455 0.816322
0.074327 6.61348e-04 0.797609
0.0820664 0.0230487 0.875806
0.10166 0.0226432 0.79676
0.132401 2.30248e-04 0.805182
0.172889 0.0194416 0.750547
0.151491 0.027274 0.828622
0.201676 0.0197952 0.805885
0.232568 0.0270111 0.750443
0.251891 0.0270528 0.829975
0.232363 4.83989e-05 0.807749
0.273687 0.0198407 0.751771
0.301908 0.0193795 0.808386
0.332693 0.0268528 0.752859
0.352068 0.0270074 0.832341
0.373939 0.0196719 0.753287
0.402189 0.0191417 0.810377
0.432713 0.0263499 0.75424
0.45189 0.0266948 0.83413
0.473393 0.0192586 0.755471
0.501838 0.018764 0.811613
0.532428 0.0259792 0.75637
0.573297 0.0189335 0.757475
0.551606 0.0264585 0.835969
0.632428 0.025548 0.758262
0.601641 0.0184971 0.813962
0.673094 0.0174208 0.760841
0.651284 0.0259501 0.838349
0.701065 0.0177938 0.815249
0.731453 0.0211447 0.756732
0.751291 0.0291829 0.825301
0.77386 0.0287266 0.754321
0.801083 0.0220406 0.806434
0.830658 0.0220486 0.753292
0.85113 0.0296107 0.822029
0.873916 0.0293047 0.751692
0.901002 0.0223372 0.80292
0.930783 0.022732 0.749829
0.951119 0.0300055 0.819203
0.930987 0.99996 0.819548
0.973581 1.00006 0.801253
0.0243621 0.0502234 0.799962
0.00149352 0.0803319 0.817218
0.0311161 0.0734776 0.876282
0.0817896 0.0508066 0.817722
0.0516266 0.0731582 0.798811
0.0743656 0.0813157 0.874882
0.124077 0.0501329 0.825299
0.101373 0.0814189 0.817084
0.151408 0.0701213 0.806777
0.181361 0.0500177 0.808442
0.201381 0.0774094 0.824754
0.224259 0.0499453 0.826273
0.251577 0.069745 0.809476
0.281869 0.0498044 0.810578
0.30159 0.0773139 0.826808
0.324726 0.0701309 0.751572
0.324476 0.0496682 0.828625
0.351612 0.0694903 0.81148
0.381112 0.0767579 0.752835
0.382038 0.0495628 0.812376
0.401593 0.077291 0.829173
0.424661 0.0698881 0.753202
0.424572 0.0493884 0.83006
0.451672 0.0692481 0.813127
0.480802 0.0765555 0.754087
0.481817 0.0490968 0.813952
0.501598 0.0766198 0.830206
0.524473 0.0696986 0.755041
0.524166 0.0489847 0.831668
0.580649 0.0760846 0.756124
0.581743 0.0488063 0.81589
0.551403 0.0686482 0.815411
0.624189 0.0694727 0.757355
0.62414 0.0486906 0.833093
0.601207 0.0764061 0.832163
0.651347 0.0688522 0.818202
0.680738 0.0766388 0.758422
0.681393 0.0482006 0.815004
0.723674 0.0785109 0.755463
0.723422 0.0486841 0.806969
0.701282 0.0764001 0.834689
0.75118 0.0713379 0.807356
0.780852 0.0717843 0.753751
0.781316 0.0491459 0.823449
0.80132 0.0793707 0.822622
0.824093 0.0788686 0.752874
0.823848 0.0493164 0.805105
0.851309 0.0720278 0.804718
0.880948 0.0723179 0.751374
0.88147 0.0496085 0.820656
0.901295 0.0797872 0.820243
0.924211 0.0794373 0.74991
0.923973 0.0499394 0.802293
0.951473 0.0727293 0.801814
0.981522 0.0500071 0.818138
0.0317598 0.100314 0.815665
0.0015891 0.122758 0.799489
0.074229 0.100631 0.794802
0.0517745 0.130516 0.815122
0.0813917 0.122618 0.873494
0.13173 0.100585 0.804949
0.101366 0.123019 0.795434
0.123591 0.120871 0.87514
0.17393 0.100311 0.824719
0.151255 0.127989 0.824099
0.201286 0.120052 0.807275
0.231508 0.100145 0.808799
0.25128 0.127426 0.825891
0.273839 0.100091 0.826523
0.301266 0.119777 0.8091
0.331125 0.126867 0.750542
0.331607 0.0999435 0.81003
0.351232 0.127196 0.827471
0.374186 0.119654 0.751395
0.374092 0.0998656 0.828605
0.401442 0.119452 0.810776
0.43126 0.126646 0.752135
0.431794 0.099636 0.812224
0.4514 0.126927 0.829344
0.474238 0.119582 0.753202
0.474043 0.0993892 0.830687
0.501458 0.119016 0.812708
0.531222 0.126145 0.754334
0.531909 0.0990685 0.813782
0.574228 0.118874 0.755383
0.573915 0.0989657 0.832955
0.551357 0.126501 0.831817
0.630819 0.125662 0.756176
0.631496 0.0987235 0.81595
0.60131 0.118564 0.814919
0.674075 0.11739 0.757202
0.674135 0.0984769 0.837032
0.651373 0.125801 0.833183
0.70124 0.11765 0.814966
0.731541 0.0987126 0.825747
0.730938 0.120888 0.754814
0.75129 0.129009 0.823606
0.774056 0.128593 0.753338
0.77391 0.0989434 0.80574
0.801293 0.121694 0.805215
0.831098 0.122102 0.752106
0.831528 0.0993936 0.821636
0.851461 0.129664 0.821001
0.874289 0.129149 0.751079
0.874039 0.0995076 0.803111
0.901528 0.122255 0.802279
0.930961 0.122529 0.749367
0.931681 0.0998546 0.81897
0.951742 0.129886 0.817932
0.974361 0.100083 0.799986
0.0243481 0.15053 0.799512
0.00161369 0.18027 0.816521
0.0517811 0.173353 0.797445
0.0818532 0.150983 0.81662
0.123427 0.150749 0.824229
0.131117 0.178525 0.874762
0.151265 0.170186 0.806168
0.181505 0.150544 0.806671
0.223784 0.150326 0.824993
0.201098 0.177918 0.824013
0.25125 0.170046 0.807462
0.2814 0.150118 0.808205
0.301046 0.177386 0.825816
0.323761 0.149824 0.826587
0.351046 0.169544 0.809495
0.381335 0.14973 0.810062
0.401116 0.177053 0.827073
0.424302 0.169767 0.751311
0.423682 0.149558 0.828266
0.451155 0.169187 0.810809
0.48091 0.176429 0.752774
0.481455 0.149349 0.811732
0.501167 0.176633 0.829261
0.524083 0.169451 0.753309
0.523804 0.149085 0.83033
0.580967 0.175975 0.754326
0.581455 0.148914 0.813934
0.551229 0.168975 0.81318
0.624224 0.169111 0.755553
0.623967 0.148682 0.831645
0.601188 0.176203 0.831506
0.651461 0.168334 0.816078
0.680993 0.176488 0.756798
0.681713 0.148084 0.813094
0.723838 0.178032 0.754351
0.701298 0.175859 0.834102
0.723713 0.148585 0.806052
0.751281 0.171037 0.805772
0.780995 0.17153 0.75285
0.781496 0.148996 0.822753
0.801294 0.179159 0.821969
0.824262 0.178459 0.751993
0.824016 0.149038 0.804102
0.851513 0.171845 0.803265
0.881085 0.172264 0.750454
0.88173 0.149514 0.819782
0.901521 0.179779 0.819736
0.924198 0.149674 0.801891
0.95161 0.17256 0.799958
0.981614 0.150112 0.817497
0.0315401 0.200364 0.814074
0.00155741 0.222985 0.798418
0.0742609 0.1815 0.873183
0.0743362 0.201016 0.793369
0.0813316 0.222892 0.872293
0.101345 0.181644 0.815229
0.131554 0.200814 0.804146
0.101365 0.223279 0.794804
0.123513 0.221153 0.874272
0.173684 0.200689 0.823275
0.201148 0.220154 0.805891
0.231222 0.200427 0.806811
0.273919 0.220379 0.747945
0.273701 0.200255 0.825135
0.300988 0.219877 0.807511
0.331203 0.19997 0.808898
0.351035 0.227239 0.82571
0.373655 0.199801 0.826878
0.401117 0.219362 0.809839
0.43095 0.226648 0.75076
0.43149 0.199562 0.810305
0.451068 0.226869 0.827868
0.474113 0.219472 0.75163
0.473798 0.199519 0.828905
0.530981 0.226104 0.752583
0.501156 0.218945 0.81109
0.53155 0.199253 0.812192
0.574256 0.218979 0.753596
0.573781 0.198862 0.830688
0.601227 0.218419 0.813555
0.631442 0.198568 0.814519
0.631053 0.225467 0.754776
0.674198 0.217454 0.756013
0.674018 0.198088 0.835589
0.651511 0.225692 0.831937
0.701142 0.217244 0.813663
0.731086 0.220608 0.753194
0.731602 0.198442 0.823913
0.774034 0.198756 0.804679
0.801295 0.221454 0.803594
0.831056 0.221913 0.751489
0.831434 0.199008 0.820532
0.874262 0.199352 0.802283
0.901488 0.222158 0.801012
0.931831 0.199928 0.818158
0.974266 0.200133 0.799068
0.0242013 0.250591 0.798147
0.0242522 0.230013 0.874174
0.051654 0.230732 0.813691
0.0815211 0.251243 0.81567
0.123208 0.251191 0.823223
0.151014 0.228464 0.823033
0.150973 0.270594 0.804493
0.181348 0.250634 0.805111
0.173757 0.271053 0.874607
0.223623 0.250468 0.823366
0.251093 0.227725 0.824519
0.251073 0.270097 0.806677
0.281267 0.250229 0.806752
0.323699 0.250016 0.825174
0.351129 0.269551 0.807889
0.381328 0.249674 0.80929
0.42413 0.26978 0.750463
0.423832 0.249506 0.826995
0.451223 0.269184 0.80974
0.481339 0.249261 0.811017
0.52404 0.26926 0.752225
0.523688 0.249125 0.828887
0.551147 0.226457 0.82946
0.581387 0.248763 0.812471
0.551083 0.26864 0.812307
0.623814 0.24847 0.830729
0.624025 0.269138 0.754223
0.651277 0.268253 0.814903
0.681666 0.247885 0.812342
0.723535 0.248315 0.804455
0.751278 0.228925 0.82238
0.751126 0.270993 0.80523
0.773997 0.228427 0.752353
0.780733 0.271446 0.751549
0.781605 0.248732 0.821523
0.851448 0.2293 0.820217
0.823905 0.248919 0.802753
0.85136 0.271833 0.802113
0.874238 0.229048 0.749473
0.88158 0.249425 0.818487
0.951552 0.230297 0.81765
0.92425 0.249683 0.800419
0.981569 0.25038 0.815995
0.0315543 0.300862 0.813788
0.00144052 0.280604 0.815161
0.031468 0.273968 0.873551
0.0513985 0.273679 0.796445
0.0740487 0.301151 0.79209
0.0740445 0.281858 0.872212
0.101144 0.281842 0.814234
0.131249 0.301029 0.80288
0.130651 0.278842 0.873872
0.17358 0.300785 0.822736
0.201143 0.277964 0.823016
0.231412 0.300547 0.805772
0.273584 0.300314 0.824309
0.30104 0.277471 0.824936
0.3312 0.299951 0.8073
0.401141 0.277075 0.826656
0.373753 0.299798 0.826067
0.431448 0.29953 0.809427
0.480974 0.27647 0.751247
0.473662 0.299265 0.82804
0.501177 0.276652 0.828242
0.531422 0.298912 0.811011
0.580827 0.27589 0.753223
0.573731 0.29867 0.829646
0.600973 0.275921 0.830833
0.631267 0.298337 0.81326
0.601035 0.318255 0.812153
0.674087 0.297932 0.834071
0.68117 0.276062 0.756145
0.674209 0.317252 0.755057
0.723727 0.278114 0.752998
0.701187 0.275847 0.833075
0.701221 0.317317 0.812121
0.731409 0.29832 0.823257
0.773993 0.298607 0.804004
0.801262 0.27878 0.820742
0.831376 0.299029 0.819717
0.901456 0.279692 0.818447
0.873979 0.299332 0.801115
0.951373 0.272764 0.799411
0.931545 0.299796 0.816706
0.974115 0.300189 0.798445
0.974301 0.280173 0.875326
0.0239555 0.35065 0.797741
0.00136612 0.32318 0.797055
0.0241812 0.330264 0.87355
0.0514418 0.330947 0.812727
0.08148 0.351391 0.814572
0.0811643 0.323108 0.871128
0.101114 0.323533 0.793598
0.123022 0.350994 0.821905
0.123477 0.321263 0.873119
0.151018 0.328502 0.821821
0.180727 0.327885 0.874382
0.181299 0.350636 0.804622
0.201164 0.320293 0.80514
0.223488 0.350642 0.822741
0.223839 0.320937 0.875396
0.250958 0.327832 0.823324
0.300965 0.319814 0.806423
0.281219 0.350337 0.805932
0.280723 0.32759 0.875882
0.350986 0.327227 0.825107
0.323718 0.349949 0.824169
0.401101 0.319425 0.808473
0.381198 0.349655 0.807962
0.430948 0.326508 0.750149
0.423627 0.349487 0.826311
0.451204 0.326861 0.826832
0.481308 0.349202 0.809227
0.501176 0.318794 0.809635
0.523674 0.348946 0.827451
0.574006 0.318892 0.752241
0.551067 0.326127 0.827974
0.581396 0.348678 0.811109
0.630714 0.325157 0.75405
0.623829 0.348331 0.829614
0.651342 0.325438 0.831003
0.681554 0.347987 0.811043
0.723423 0.348087 0.803272
0.731066 0.32049 0.752656
0.751252 0.328554 0.821631
0.773928 0.328207 0.751203
0.801189 0.321491 0.803043
0.781307 0.348677 0.820136
0.830637 0.321898 0.750068
0.823862 0.349039 0.801999
0.851206 0.329289 0.818772
0.881331 0.349489 0.817868
0.901155 0.322289 0.800324
0.923932 0.34985 0.799043
0.951502 0.330144 0.81625
0.981661 0.350506 0.814849
0.0314572 0.400713 0.811755
0.00144128 0.380729 0.81424
0.0309883 0.374095 0.872834
0.0513835 0.373646 0.795122
0.0738441 0.401321 0.791224
0.0739466 0.381861 0.870641
0.101094 0.382097 0.813142
0.131351 0.400975 0.801988
0.130908 0.378747 0.872637
0.151088 0.370565 0.803301
0.173498 0.400874 0.821141
0.20092 0.377933 0.822016
0.231304 0.400378 0.80469
0.250851 0.370048 0.805468
0.230429 0.377784 0.874641
0.273353 0.400219 0.823003
0.273725 0.370584 0.875297
0.301012 0.377557 0.823304
0.33139 0.399896 0.806248
0.350994 0.369417 0.807066
0.373507 0.399678 0.824738
0.401088 0.376882 0.82515
0.431217 0.399473 0.807907
0.451135 0.369112 0.808779
0.473567 0.399378 0.826431
0.524026 0.369255 0.750794
0.501064 0.376691 0.827601
0.531326 0.398983 0.809372
0.580799 0.375879 0.751817
0.551089 0.368375 0.810054
0.573622 0.398709 0.828505
0.623952 0.368876 0.753282
0.60101 0.375913 0.829535
0.631319 0.398362 0.812414
0.651257 0.368267 0.813316
0.674008 0.397866 0.832901
0.680988 0.376183 0.754424
0.723728 0.377865 0.752092
0.701189 0.375748 0.831575
0.731506 0.398273 0.822123
0.751099 0.370882 0.804028
0.780684 0.371446 0.750446
0.773744 0.3986 0.802298
0.801165 0.379037 0.819355
0.831259 0.399119 0.818342
0.851142 0.372013 0.800832
0.873724 0.39958 0.79992
0.901198 0.379728 0.817102
0.931317 0.400006 0.815896
0.951168 0.372814 0.798325
0.973985 0.40031 0.796725
0.0237173 0.450727 0.795831
0.0239817 0.430322 0.87193
0.00111308 0.423138 0.79602
0.0512616 0.431183 0.811478
0.0810053 0.423213 0.869615
0.0814192 0.451362 0.813059
0.101147 0.423505 0.792381
0.123172 0.451012 0.820638
0.123486 0.421237 0.871866
0.150986 0.428488 0.82019
0.181402 0.450648 0.802951
0.180564 0.428045 0.873103
0.201013 0.42013 0.803528
0.223376 0.450481 0.820999
0.223577 0.42086 0.873797
0.250823 0.427867 0.821331
0.281464 0.450124 0.804564
0.301013 0.419677 0.805538
0.280537 0.427443 0.874049
0.323703 0.450005 0.82337
0.350938 0.42732 0.82361
0.381427 0.449671 0.806661
0.401067 0.419304 0.80688
0.430823 0.426611 0.748594
0.423658 0.449648 0.825144
0.450918 0.42691 0.825561
0.481308 0.449317 0.808063
0.530767 0.426171 0.750063
0.501043 0.419189 0.808622
0.523728 0.449063 0.826263
0.573886 0.418714 0.751365
0.550983 0.426145 0.82691
0.581315 0.448759 0.810278
0.630725 0.425322 0.752293
0.601028 0.41827 0.810384
0.62375 0.448453 0.828147
0.674074 0.417063 0.754133
0.651104 0.425549 0.829289
0.681458 0.447874 0.80964
0.701152 0.41733 0.811127
0.723275 0.448309 0.80219
0.730927 0.420617 0.751442
0.751066 0.428637 0.82072
0.781247 0.448851 0.819316
0.801077 0.421356 0.801655
0.823586 0.449054 0.801373
0.851103 0.429476 0.817757
0.881127 0.449725 0.816516
0.901043 0.422498 0.79934
0.923858 0.449874 0.798033
0.951206 0.430173 0.815126
0.981243 0.450474 0.813976
0.0308895 0.474008 0.871513
0.00111892 0.480721 0.81292
0.031257 0.500777 0.811277
0.0512217 0.473708 0.79407
0.0736989 0.48198 0.869819
0.10099 0.48202 0.811525
0.130642 0.478603 0.87167
0.150839 0.470438 0.802275
0.173591 0.47097 0.872114
0.200833 0.478029 0.820697
0.250923 0.469969 0.803924
0.230269 0.477466 0.873137
0.27369 0.470478 0.874042
0.300973 0.477378 0.822566
0.351007 0.469622 0.805466
0.330619 0.477182 0.874782
0.400975 0.477114 0.824302
0.373531 0.499814 0.823557
0.45099 0.469174 0.806855
0.431077 0.499565 0.806675
0.473668 0.499369 0.825083
0.501038 0.476627 0.826036
0.531252 0.49905 0.808938
0.580941 0.476111 0.750822
0.551214 0.468784 0.808645
0.573774 0.49892 0.827385
0.624109 0.469193 0.751969
0.601124 0.476125 0.827728
0.631169 0.498584 0.811808
0.68107 0.476188 0.753596
0.651267 0.468121 0.811822
0.673863 0.498189 0.832293
0.723443 0.478127 0.751071
0.70099 0.475694 0.830696
0.751019 0.470996 0.802712
0.731368 0.498525 0.82086
0.78087 0.47159 0.749519
0.773687 0.498805 0.80108
0.801052 0.479084 0.818763
0.850964 0.47198 0.799559
0.831165 0.499209 0.817436
0.901058 0.479954 0.815995
0.873607 0.499602 0.798762
0.951116 0.472659 0.797756
0.974074 0.480487 0.873472
9.53407e-04 0.523172 0.795567
0.0238701 0.530308 0.870915
0.0736998 0.501105 0.790261
0.0511583 0.530898 0.810138
0.0808172 0.522999 0.869077
0.13128 0.500891 0.800987
0.10094 0.523196 0.791305
0.123233 0.521263 0.870828
0.173279 0.500616 0.820042
0.150749 0.528455 0.81933
0.180432 0.527906 0.871662
0.200805 0.520146 0.802453
0.223413 0.520759 0.872486
0.231062 0.50032 0.802823
0.250772 0.527739 0.820941
0.273522 0.500058 0.822191
0.30095 0.519754 0.804371
0.280524 0.527203 0.873396
0.331104 0.499972 0.805141
0.350776 0.527394 0.822711
0.323677 0.520313 0.874441
0.400841 0.519443 0.806141
0.380499 0.527068 0.875337
0.450882 0.526959 0.823694
0.501009 0.518869 0.807998
0.550941 0.526281 0.826743
0.63077 0.525567 0.751528
0.601115 0.518718 0.810009
0.673933 0.517708 0.752598
0.651216 0.525822 0.82822
0.700926 0.517457 0.809908
0.730794 0.520655 0.750203
0.751035 0.528857 0.819327
0.773773 0.528496 0.749233
0.801021 0.521579 0.800376
0.851007 0.529622 0.816567
0.901079 0.522519 0.797247
0.931216 0.499858 0.81489
0.951024 0.530194 0.813983
0.973721 0.500305 0.796338
0.981022 0.523302 0.872776
0.0236396 0.550719 0.794646
0.0308509 0.573524 0.87039
0.00111469 0.580652 0.811647
0.0811543 0.551232 0.812326
0.0510432 0.573523 0.792522
0.0737689 0.581661 0.868535
0.122964 0.550947 0.819834
0.100852 0.581874 0.811095
0.130599 0.578395 0.870046
0.150686 0.570307 0.801373
0.173526 0.570945 0.870882
0.181031 0.550523 0.801455
0.223398 0.550366 0.820371
0.200737 0.577836 0.819393
0.2508 0.569993 0.802925
0.230315 0.577485 0.872384
0.273704 0.570462 0.872758
0.281141 0.550035 0.803919
0.300776 0.57741 0.821561
0.323381 0.549892 0.822692
0.350727 0.569661 0.805075
0.330568 0.577139 0.874399
0.381057 0.549804 0.805441
0.400809 0.576974 0.823641
0.373464 0.569966 0.874907
0.423428 0.549652 0.823889
0.450925 0.569309 0.806612
0.481111 0.549393 0.807549
0.523839 0.569505 0.748755
0.500832 0.576928 0.825093
0.523645 0.549273 0.825626
0.581093 0.549019 0.80921
0.550919 0.569167 0.808596
0.623982 0.569232 0.75086
0.623613 0.548743 0.827163
0.60085 0.576491 0.827427
0.651234 0.568491 0.810836
0.680998 0.576631 0.752245
0.723421 0.578582 0.74992
0.681569 0.548164 0.808754
0.701175 0.576163 0.829494
0.723409 0.548405 0.801384
0.750919 0.571241 0.801012
0.781219 0.548926 0.818416
0.800971 0.579294 0.817122
0.823675 0.549219 0.799258
0.85101 0.572221 0.797821
0.881418 0.549697 0.815339
0.901026 0.579897 0.81452
0.923604 0.549921 0.796366
0.95103 0.572798 0.795541
0.931113 0.57299 0.87301
0.981011 0.550447 0.812401
0.974105 0.580275 0.872062
0.031126 0.600587 0.809513
0.0239776 0.630028 0.869344
0.00103685 0.622914 0.794048
0.0736537 0.600849 0.788288
0.0511067 0.630794 0.808149
0.0804006 0.6226 0.866992
0.131214 0.600629 0.799309
0.100909 0.622909 0.790715
0.123388 0.621035 0.869361
0.173243 0.600439 0.818351
0.15062 0.628089 0.817411
0.180052 0.627717 0.870473
0.200642 0.620041 0.801593
0.223341 0.620662 0.871669
0.230946 0.600197 0.802791
0.250615 0.627444 0.819866
0.273236 0.600089 0.821002
0.300633 0.619878 0.803248
0.280127 0.627354 0.87226
0.331174 0.599857 0.804263
0.350541 0.627314 0.82219
0.323303 0.620142 0.87372
0.373199 0.59975 0.822325
0.400665 0.619566 0.805044
0.431046 0.59954 0.805929
0.450667 0.626885 0.82351
0.423315 0.619784 0.87497
0.473427 0.599472 0.824856
0.480294 0.626798 0.876479
0.500694 0.618999 0.807188
0.531094 0.599278 0.807691
0.573506 0.599214 0.826618
0.550823 0.626508 0.824374
0.631246 0.598792 0.809672
0.60086 0.618913 0.808651
0.673988 0.61786 0.751217
0.673987 0.598468 0.830935
0.651251 0.625991 0.827142
0.70108 0.61787 0.808753
0.731363 0.598861 0.819457
0.751045 0.6292 0.817769
0.773537 0.598977 0.799955
0.800877 0.622029 0.800169
0.831086 0.599352 0.81605
0.851067 0.629629 0.813649
0.873571 0.599594 0.796988
0.901041 0.622545 0.797247
0.880647 0.622616 0.873172
0.930986 0.599982 0.813065
0.951079 0.630227 0.811389
0.924186 0.629898 0.872026
0.973623 0.600149 0.794615
0.980611 0.623117 0.87094
0.023663 0.650786 0.792545
0.0320251 0.67376 0.868264
0.00137593 0.680835 0.8125
0.0811015 0.65096 0.810639
0.0509387 0.673263 0.787496
0.0727971 0.681546 0.865205
0.122911 0.650848 0.81833
0.130858 0.678491 0.868407
0.100701 0.681241 0.810048
0.150758 0.670085 0.798858
0.173226 0.670927 0.869974
0.181016 0.65042 0.800767
0.223293 0.65029 0.818956
0.200652 0.67767 0.818603
0.250487 0.670048 0.802062
0.230139 0.67758 0.87087
0.273163 0.670659 0.872283
0.280511 0.650106 0.803192
0.300432 0.677423 0.820242
0.322927 0.649939 0.821199
0.350386 0.66967 0.803952
0.32997 0.677332 0.873272
0.380887 0.649791 0.804714
0.400341 0.677232 0.822363
0.373215 0.670072 0.873641
0.423123 0.649655 0.823231
0.450505 0.669247 0.805686
0.430067 0.676921 0.874929
0.480976 0.649431 0.80638
0.500415 0.676826 0.824362
0.523124 0.649212 0.824751
0.529886 0.676396 0.876406
0.580488 0.676121 0.74879
0.581193 0.649114 0.808251
0.550503 0.668765 0.807452
0.623735 0.648983 0.826809
0.600621 0.67649 0.826424
0.651291 0.668902 0.809823
0.681709 0.648507 0.80869
0.681683 0.67602 0.750257
0.723536 0.648955 0.80047
0.701484 0.676472 0.829182
0.75105 0.671978 0.797366
0.780958 0.649488 0.815527
0.801362 0.679638 0.81779
0.823908 0.64961 0.797772
0.851103 0.672216 0.793715
0.831983 0.672424 0.873631
0.881099 0.649958 0.81266
0.873151 0.679531 0.872465
0.901372 0.680061 0.814828
0.923916 0.65003 0.794976
0.951321 0.672655 0.790756
0.931982 0.672653 0.870784
0.981278 0.65036 0.809834
0.973156 0.679985 0.869206
0.0319505 0.700276 0.810114
9.99892e-04 0.72229 0.819946
0.0730222 0.700483 0.78502
0.0738533 0.721596 0.867639
0.100722 0.719419 0.80058
0.131446 0.700333 0.797097
0.123583 0.719424 0.868479
0.173414 0.700298 0.816893
0.200587 0.720249 0.799337
0.222507 0.720669 0.870442
0.230781 0.700343 0.801138
0.272801 0.7002 0.819979
0.300238 0.719703 0.801414
0.280227 0.727663 0.871608
0.330629 0.699881 0.803098
0.322581 0.720222 0.872219
0.372732 0.699911 0.821257
0.40025 0.719138 0.803166
0.380193 0.727403 0.873642
0.430612 0.699575 0.805047
0.422311 0.71962 0.874446
0.450134 0.727343 0.823806
0.472841 0.699313 0.823958
0.479849 0.726925 0.875264
0.500225 0.718835 0.805054
0.530777 0.699258 0.80668
0.572883 0.698899 0.82553
0.550291 0.726975 0.826149
0.630904 0.698859 0.808774
0.600456 0.718612 0.80702
0.674167 0.719582 0.750108
0.6741 0.698549 0.828897
0.650289 0.726502 0.824799
0.723331 0.721236 0.750728
0.701155 0.721039 0.822212
0.731153 0.69881 0.821912
0.773259 0.69933 0.797155
0.801067 0.721512 0.82607
0.832032 0.699394 0.816197
0.873319 0.699515 0.795055
0.9012 0.722047 0.822669
0.871553 0.721771 0.874468
0.932025 0.699681 0.813442
0.973351 0.700139 0.791782
0.971115 0.722114 0.871983
0.0287063 0.72994 0.869917
0.0202622 0.75021 0.801048
0.0213418 0.772728 0.871348
0.0509172 0.730665 0.799179
0.0786339 0.750295 0.818131
0.0508625 0.772482 0.818025
0.119844 0.749939 0.810654
0.180234 0.727828 0.869391
0.150384 0.728307 0.815582
0.178374 0.75019 0.791088
0.150033 0.769993 0.810553
0.178586 0.770497 0.867742
0.219637 0.750421 0.811227
0.250279 0.728011 0.820227
0.249971 0.76999 0.813208
0.277879 0.750089 0.792425
0.278212 0.770274 0.870323
0.350152 0.727778 0.821454
0.319336 0.750019 0.813209
0.349784 0.769354 0.815046
0.377793 0.749643 0.794259
0.378057 0.76982 0.871973
0.419261 0.749444 0.81521
0.449768 0.769079 0.817076
0.477672 0.749233 0.796381
0.477883 0.769403 0.873756
0.519299 0.749098 0.817288
0.57793 0.748919 0.798261
0.550008 0.76872 0.81869
0.57847 0.768955 0.876058
0.619306 0.748878 0.819496
0.65025 0.768177 0.821455
0.679364 0.748793 0.803159
0.720765 0.749503 0.808186
0.751102 0.729547 0.808395
0.750658 0.771807 0.828829
0.778338 0.749232 0.826774
0.851146 0.72981 0.805016
0.820646 0.749336 0.807779
0.850909 0.772109 0.824781
0.828999 0.729024 0.876005
0.878565 0.749531 0.823685
0.951042 0.730295 0.802194
0.920804 0.749739 0.804492
0.928988 0.729311 0.873259
0.95091 0.772651 0.822368
0.921381 0.772393 0.875056
0.978415 0.750001 0.820768
0.0284663 0.80014 0.82039
7.75162e-04 0.780716 0.803694
0.0706538 0.799977 0.799503
0.0784213 0.779704 0.869438
0.100633 0.777055 0.784447
0.127575 0.79957 0.788828
0.119622 0.778182 0.866498
0.170666 0.799938 0.808718
0.200239 0.777465 0.78907
0.219379 0.777337 0.869541
0.227361 0.800058 0.793944
0.270327 0.799869 0.811902
0.299911 0.777272 0.791459
0.319222 0.777163 0.871101
0.327629 0.799719 0.795888
0.399916 0.776722 0.792937
0.370137 0.799546 0.813654
0.427478 0.799251 0.797967
0.419168 0.776764 0.873235
0.470229 0.799024 0.815475
0.499954 0.776237 0.795589
0.52734 0.798774 0.79987
0.570463 0.798532 0.817777
0.600306 0.776068 0.797003
0.627628 0.79861 0.802134
0.600596 0.818819 0.818383
0.669723 0.776095 0.749809
0.67017 0.798792 0.821359
0.700366 0.779946 0.809476
0.727546 0.779634 0.752359
0.727602 0.799393 0.831732
0.770326 0.799157 0.810814
0.800693 0.779473 0.809166
0.827977 0.779133 0.748832
0.827909 0.799316 0.826134
0.900843 0.779957 0.806138
0.870583 0.799681 0.807977
0.927976 0.799902 0.823813
0.970528 0.800022 0.804588
0.978132 0.779794 0.873339
0.0204936 0.850172 0.804907
8.34264e-04 0.822795 0.822389
0.028331 0.829773 0.873733
0.0508179 0.830409 0.80297
0.0784302 0.850046 0.82196
0.0710693 0.822401 0.871734
0.100591 0.818827 0.811934
0.127386 0.819025 0.869786
0.120215 0.849557 0.814161
0.150318 0.827232 0.795107
0.178073 0.850153 0.795324
0.171372 0.827215 0.870931
0.200446 0.819821 0.810975
0.22028 0.850083 0.813056
0.227205 0.820409 0.871785
0.250383 0.827417 0.796261
0.271008 0.827373 0.872683
0.30043 0.81973 0.812677
0.278013 0.849966 0.796385
0.320655 0.849733 0.815098
0.350456 0.827097 0.7977
0.327287 0.820112 0.873515
0.400256 0.819368 0.814414
0.377829 0.849653 0.798475
0.370864 0.826915 0.874332
0.420576 0.849318 0.817034
0.450379 0.826517 0.800496
0.427219 0.81965 0.875618
0.477894 0.849121 0.800511
0.50044 0.818783 0.816628
0.520277 0.848945 0.818968
0.550473 0.82602 0.802756
0.578025 0.848874 0.802548
0.620549 0.848675 0.821029
0.677942 0.819023 0.751535
0.650634 0.826318 0.803831
0.678417 0.8491 0.803432
0.720892 0.820973 0.753938
0.700482 0.821675 0.831113
0.719916 0.849569 0.810809
0.750446 0.829547 0.812628
0.777768 0.828526 0.75203
0.800698 0.821989 0.828053
0.777804 0.849303 0.8292
0.820645 0.822231 0.75064
0.820093 0.849394 0.811128
0.850623 0.829712 0.808904
0.900579 0.822626 0.825734
0.877771 0.849566 0.826999
0.920322 0.849962 0.807534
0.950668 0.830255 0.806441
0.978093 0.849913 0.823882
0.0280775 0.900408 0.825006
7.3655e-04 0.880595 0.807789
0.050633 0.872867 0.822646
0.070222 0.900321 0.804443
0.0783835 0.879963 0.873616
0.100772 0.877496 0.794864
0.12818 0.899777 0.793723
0.121058 0.878305 0.871391
0.150636 0.869689 0.812287
0.170371 0.900085 0.813802
0.177637 0.870588 0.872814
0.200727 0.87756 0.796192
0.220751 0.877115 0.873633
0.228136 0.900095 0.797853
0.250668 0.869829 0.814218
0.270828 0.899932 0.815944
0.300846 0.877215 0.798283
0.2778 0.869934 0.874324
0.328491 0.899951 0.799957
0.350815 0.869706 0.816079
0.321206 0.87698 0.875322
0.370875 0.899694 0.817793
0.40082 0.876676 0.800205
0.428366 0.899388 0.801828
0.450738 0.86908 0.817931
0.470921 0.899072 0.819829
0.500859 0.876231 0.801678
0.52812 0.898911 0.803978
0.571028 0.875982 0.751136
0.550603 0.868541 0.820218
0.570756 0.898653 0.821234
0.627967 0.869138 0.752284
0.600842 0.876009 0.804019
0.628141 0.89874 0.805755
0.671067 0.876837 0.753324
0.65073 0.868668 0.821806
0.670482 0.899093 0.825746
0.700587 0.880423 0.812794
0.727287 0.879874 0.755383
0.727589 0.899791 0.835376
0.750424 0.872193 0.829639
0.770498 0.899517 0.815139
0.771467 0.871811 0.753985
0.800701 0.879723 0.812882
0.827457 0.879023 0.752365
0.827557 0.899538 0.830485
0.850397 0.872204 0.828307
0.871222 0.872202 0.751646
0.870429 0.899777 0.811851
0.900654 0.879952 0.810493
0.927681 0.900042 0.827224
0.950812 0.872727 0.825057
0.970734 0.900189 0.809291
0.0199142 0.950199 0.807486
7.71272e-04 0.923013 0.829775
0.0506626 0.931091 0.803987
0.080865 0.950329 0.818243
0.100626 0.919078 0.815654
0.120962 0.949525 0.816298
0.127632 0.919474 0.873163
0.150774 0.927358 0.795939
0.178271 0.95001 0.797726
0.170943 0.927265 0.874345
0.200872 0.919755 0.815056
0.220844 0.949996 0.816733
0.251131 0.927458 0.799574
0.228233 0.920197 0.87537
0.278902 0.949967 0.800737
0.301105 0.919673 0.816964
0.321129 0.949851 0.818248
0.351329 0.926984 0.801068
0.378927 0.94974 0.802267
0.401254 0.919262 0.819566
0.421664 0.92666 0.750055
0.421258 0.949434 0.820391
0.451238 0.926686 0.803185
0.478264 0.919536 0.750988
0.47892 0.949256 0.804352
0.521545 0.926381 0.752047
0.501061 0.918905 0.820915
0.521199 0.949028 0.822074
0.578095 0.919312 0.752854
0.55104 0.926088 0.805064
0.578606 0.94877 0.806477
0.620919 0.925971 0.754054
0.60083 0.918352 0.822952
0.620612 0.948724 0.824343
0.678506 0.918821 0.75567
0.650821 0.926544 0.80655
0.678607 0.94873 0.806997
0.719508 0.921069 0.758143
0.700672 0.922343 0.839512
0.719958 0.949563 0.813576
0.750163 0.929883 0.813946
0.778882 0.928719 0.756988
0.778582 0.949437 0.833873
0.800567 0.922269 0.835201
0.819662 0.922163 0.754653
0.819682 0.949246 0.812281
0.850221 0.929997 0.810279
0.878755 0.929481 0.753774
0.878221 0.949736 0.831518
0.900227 0.922737 0.832395
0.919771 0.922681 0.752051
0.919669 0.949804 0.809887
0.950273 0.930502 0.807879
0.978196 0.950087 0.828555
9.87038e-04 0.980526 0.819914
0.0508538 0.972442 0.800867
0.101522 0.979034 0.807492
0.173686 -6.20222e-05 0.828393
0.15139 0.969747 0.816502
0.201429 0.977627 0.799304
0.271681 0.977402 0.748993
0.251494 0.969724 0.818759
0.273923 -2.65656e-04 0.829086
0.301607 0.977586 0.800258
0.332804 0.999745 0.810179
0.351644 0.96949 0.820692
0.372003 0.977029 0.750883
0.374086 0.999635 0.831101
0.401792 0.977384 0.802435
0.432723 0.999541 0.811655
0.429462 0.969777 0.751864
0.451642 0.969077 0.822479
0.471955 0.97677 0.752291
0.474098 0.999227 0.832656
0.532519 0.999049 0.813126
0.5292 0.969314 0.75351
0.501797 0.976856 0.804708
0.573683 0.998961 0.834305
0.571594 0.976378 0.754641
0.55141 0.968587 0.824509
0.632018 0.998799 0.815023
0.628867 0.969256 0.755857
0.601246 0.976669 0.806276
0.673333 0.998712 0.840656
0.673326 0.977212 0.757433
0.65105 0.968656 0.826275
0.723911 0.980569 0.75646
0.700757 0.980033 0.822998
0.731579 0.99915 0.827054
0.750763 0.971334 0.80877
0.774069 0.999239 0.80804
0.780355 0.971889 0.755177
0.801061 0.979516 0.824914
0.831122 0.999419 0.822802
0.823253 0.979052 0.753525
0.850763 0.971795 0.803623
0.880553 0.971888 0.751944
0.873301 0.999621 0.803663
0.900677 0.979991 0.822317
0.923045 0.979549 0.750769
0.950597 0.972342 0.801239
0.980677 0.972536 0.749427
0.0242746 0.0300866 0.876416
0.00134718 0.0306431 0.946531
0.0240498 3.32645e-04 0.928985
0.0515947 0.0230483 0.927633
0.0820173 7.88862e-04 0.946301
0.123021 0.0200739 0.876745
0.101685 0.0314528 0.945898
0.121198 1.21426e-04 0.94723
0.151674 0.0193099 0.934676
0.182392 0.0270736 0.878513
0.223556 0.0202231 0.878897
0.201732 0.0271418 0.9573
0.18272 7.38187e-05 0.936309
0.224219 -6.98863e-06 0.956165
0.25197 0.0197835 0.935934
0.282559 0.0267559 0.880046
0.301959 0.0269361 0.958671
0.323784 0.0198975 0.880678
0.35204 0.0197062 0.93783
0.324476 -1.74071e-04 0.957573
0.382732 0.0264638 0.882105
0.402082 0.0266294 0.960661
0.42372 0.0195263 0.88304
0.451996 0.0191507 0.940015
0.482365 0.02622 0.884194
0.501908 0.0264194 0.962553
0.523437 0.019506 0.884455
0.582394 0.02589 0.885818
0.551711 0.0188222 0.941514
0.622904 0.0192184 0.886679
0.601398 0.0261047 0.964966
0.651456 0.018527 0.943084
0.682033 0.0266233 0.886988
0.723598 0.028838 0.885078
0.701123 0.0256051 0.966571
0.751204 0.0213371 0.936146
0.781109 0.0224066 0.883314
0.801187 0.0299743 0.952255
0.823917 0.029307 0.882063
0.851113 0.0223759 0.933758
0.88071 0.0226759 0.880601
0.901159 0.0302829 0.949369
0.924023 0.0297547 0.878792
0.95113 0.0228428 0.93084
0.980974 0.023244 0.877583
0.980956 3.72274e-04 0.947762
0.0319989 0.0504951 0.945233
0.00168798 0.0728327 0.929328
0.0742069 0.050895 0.925773
0.0516928 0.0810631 0.945173
0.131022 0.0780255 0.876321
0.101474 0.0728088 0.927081
0.131863 0.0502501 0.935025
0.174392 0.0707938 0.877109
0.173981 0.050124 0.953925
0.151363 0.0778944 0.953154
0.201399 0.0700947 0.93742
0.230955 0.0771422 0.878235
0.231556 0.0500448 0.937739
0.251261 0.0777007 0.953884
0.274306 0.0499797 0.954747
0.27457 0.0705389 0.879023
0.30156 0.0701384 0.939199
0.330923 0.076923 0.880203
0.331681 0.0498127 0.94021
0.351667 0.0773051 0.955436
0.374482 0.0700771 0.880839
0.374659 0.0497261 0.956958
0.401672 0.0697426 0.940825
0.431248 0.0767417 0.881943
0.431913 0.049527 0.941638
0.451487 0.0769911 0.958185
0.474504 0.0699953 0.882687
0.474341 0.0494507 0.958818
0.501492 0.0693849 0.942596
0.530711 0.0764604 0.883697
0.531419 0.0492111 0.943769
0.574096 0.0692496 0.884829
0.574111 0.0490783 0.961461
0.551148 0.0766668 0.959988
0.63046 0.0759347 0.8856
0.631046 0.0487982 0.946114
0.601206 0.0689032 0.945068
0.674448 0.0677306 0.88663
0.67407 0.0483096 0.964959
0.651358 0.075964 0.960789
0.70126 0.0674584 0.94436
0.730832 0.0710163 0.884365
0.731742 0.0487008 0.955031
0.751373 0.0794328 0.953229
0.773752 0.0492555 0.936022
0.774432 0.078878 0.882884
0.801415 0.0720294 0.935333
0.830824 0.0722738 0.881328
0.831598 0.0496059 0.950893
0.851491 0.0801301 0.950141
0.874407 0.0795354 0.880197
0.873917 0.0498351 0.933338
0.901427 0.0725218 0.932575
0.931186 0.0729953 0.878813
0.931827 0.0501313 0.948015
0.951646 0.0806951 0.947524
0.974433 0.0800343 0.877629
0.974029 0.0504163 0.930115
0.0244262 0.129844 0.875539
0.0242831 0.10067 0.929716
0.00185603 0.130937 0.945916
0.0820782 0.10099 0.946337
0.0517502 0.123415 0.927204
0.123535 0.100683 0.952807
0.101339 0.131625 0.944975
0.180871 0.127661 0.876418
0.151134 0.120483 0.934434
0.181399 0.100542 0.93592
0.223902 0.120611 0.877312
0.201068 0.128003 0.953675
0.22376 0.100539 0.953783
0.251164 0.120262 0.937289
0.280903 0.127375 0.878417
0.281447 0.100367 0.937825
0.301111 0.1276 0.955362
0.323988 0.120345 0.879446
0.324128 0.100195 0.955971
0.351371 0.120091 0.938438
0.38113 0.127216 0.88002
0.381447 0.100038 0.939723
0.401261 0.127449 0.956831
0.424201 0.120031 0.881269
0.423962 0.0999724 0.957804
0.451318 0.119565 0.940646
0.481071 0.126567 0.881937
0.481482 0.0996714 0.941666
0.501013 0.126922 0.958589
0.524015 0.119667 0.883141
0.523891 0.099556 0.959391
0.581089 0.126063 0.884022
0.581313 0.0990643 0.943637
0.551149 0.11925 0.942711
0.624072 0.119298 0.885256
0.623789 0.0989196 0.960875
0.601097 0.126368 0.960906
0.651365 0.118418 0.944875
0.68168 0.0981198 0.942622
0.681004 0.126468 0.886351
0.701222 0.125763 0.962815
0.723686 0.0985818 0.936071
0.724078 0.12838 0.884034
0.75138 0.121109 0.936186
0.780874 0.121826 0.882461
0.781875 0.0992115 0.951711
0.801517 0.129609 0.950995
0.824311 0.128915 0.881053
0.824119 0.0994965 0.933658
0.851637 0.122077 0.932984
0.881272 0.122473 0.879382
0.881847 0.0998435 0.948965
0.901665 0.130252 0.94798
0.924509 0.129679 0.878112
0.924238 0.100066 0.931125
0.951909 0.122806 0.930228
0.981665 0.123104 0.877088
0.982232 0.100357 0.946674
0.0314692 0.173775 0.875344
0.0322689 0.150755 0.943661
0.00183083 0.173119 0.92851
0.0741801 0.150954 0.923842
0.051811 0.181383 0.943657
0.131357 0.150893 0.932967
0.101349 0.173016 0.924568
0.173825 0.170908 0.876178
0.17356 0.150858 0.952832
0.151061 0.178533 0.952368
0.201097 0.170345 0.935677
0.230802 0.177575 0.876806
0.231227 0.150505 0.936291
0.251032 0.178057 0.953721
0.273578 0.150461 0.95397
0.273812 0.170513 0.877616
0.301061 0.169898 0.937101
0.330756 0.1771 0.878672
0.331407 0.150094 0.938033
0.35102 0.1775 0.955121
0.373866 0.170372 0.879319
0.373725 0.150091 0.956157
0.401077 0.169754 0.939326
0.430457 0.17671 0.88021
0.431443 0.149922 0.940157
0.450997 0.177237 0.956231
0.474072 0.169713 0.881067
0.473684 0.149863 0.957793
0.501038 0.169323 0.940912
0.530668 0.176467 0.882193
0.5313 0.149299 0.941521
0.573985 0.169243 0.883122
0.573706 0.149142 0.9596
0.55102 0.176698 0.958975
0.630544 0.175704 0.884113
0.631361 0.148696 0.944303
0.601107 0.168753 0.942961
0.674341 0.167578 0.885618
0.674242 0.148286 0.96406
0.651267 0.175823 0.960383
0.701283 0.167363 0.943253
0.731145 0.170955 0.882881
0.731949 0.14845 0.953475
0.751478 0.179024 0.951609
0.774064 0.148967 0.934769
0.774204 0.178612 0.881913
0.801545 0.171691 0.933442
0.831281 0.172019 0.880584
0.831991 0.149387 0.949734
0.851681 0.179848 0.948929
0.874587 0.179395 0.879188
0.874228 0.149658 0.931635
0.901785 0.172453 0.931458
0.931617 0.172841 0.877679
0.932212 0.150063 0.946918
0.951877 0.1806 0.946375
0.974511 0.179997 0.876416
0.974404 0.150308 0.929109
0.0240524 0.200789 0.928114
0.0822607 0.201216 0.944249
0.0517427 0.223501 0.925607
0.123184 0.201073 0.951047
0.150965 0.220822 0.933344
0.181217 0.200824 0.935291
0.180573 0.22801 0.875172
0.223764 0.220738 0.876447
0.22339 0.200713 0.9527
0.250968 0.220348 0.936081
0.281274 0.200273 0.936085
0.300856 0.22786 0.953508
0.323718 0.220439 0.877419
0.323502 0.2002 0.954153
0.351061 0.219843 0.937279
0.381331 0.200093 0.938487
0.380871 0.227072 0.878748
0.423959 0.21986 0.879383
0.42364 0.199878 0.956338
0.450955 0.219378 0.93889
0.481377 0.199565 0.939871
0.52378 0.219498 0.881244
0.523475 0.199476 0.957836
0.500847 0.226938 0.957253
0.581427 0.198959 0.942124
0.550911 0.218899 0.941282
0.580515 0.226004 0.88221
0.624077 0.21906 0.883641
0.623914 0.198794 0.95953
0.600961 0.226444 0.959135
0.651302 0.21823 0.943671
0.681284 0.2262 0.88479
0.681624 0.198018 0.941284
0.723863 0.198246 0.935192
0.701253 0.22561 0.961493
0.751618 0.220912 0.93561
0.781203 0.221759 0.881218
0.782061 0.198881 0.950954
0.824325 0.199243 0.932715
0.851733 0.22213 0.931676
0.88145 0.222463 0.87828
0.882322 0.199773 0.948039
0.924396 0.19998 0.930494
0.951795 0.222789 0.929282
0.981611 0.223236 0.87567
0.982222 0.200395 0.944838
0.00164825 0.231112 0.944483
0.0322079 0.250882 0.942365
0.0738238 0.251202 0.922877
0.101195 0.232066 0.943356
0.131278 0.251193 0.93228
0.173324 0.25102 0.951307
0.200763 0.228181 0.951903
0.200939 0.270723 0.934237
0.231164 0.250681 0.93523
0.273856 0.270562 0.876469
0.280812 0.227335 0.87728
0.273555 0.2504 0.952861
0.300958 0.26984 0.935831
0.3312 0.250217 0.936966
0.401135 0.227408 0.955273
0.373799 0.270129 0.878098
0.373583 0.250036 0.954653
0.400958 0.269604 0.9375
0.431354 0.24981 0.938511
0.480747 0.226507 0.880458
0.473933 0.269718 0.879719
0.47351 0.249514 0.956117
0.501019 0.269187 0.939476
0.531329 0.249223 0.940698
0.573429 0.249045 0.95879
0.573877 0.269126 0.882378
0.631235 0.248583 0.942258
0.600937 0.26843 0.942031
0.673976 0.248085 0.962969
0.674312 0.26735 0.884306
0.724331 0.228062 0.882577
0.70133 0.267263 0.941869
0.731971 0.248211 0.952369
0.731165 0.270435 0.882065
0.801683 0.229514 0.95008
0.774142 0.248791 0.934104
0.801667 0.271687 0.933372
0.824416 0.229044 0.879638
0.831958 0.249259 0.948776
0.831081 0.272016 0.879504
0.901774 0.230211 0.947139
0.874378 0.2497 0.930706
0.901638 0.272355 0.929917
0.924475 0.229539 0.877356
0.932127 0.250046 0.94619
0.974218 0.25046 0.928037
0.00177556 0.27321 0.926601
0.0241151 0.301065 0.92686
0.0805658 0.273894 0.00123486
0.0516214 0.281612 0.942347
0.0821477 0.30144 0.943354
0.101122 0.273366 0.923654
0.123095 0.30114 0.950592
0.150907 0.278595 0.950881
0.18104 0.300858 0.933327
0.223585 0.300696 0.951437
0.230735 0.277596 0.875547
0.250998 0.278041 0.952338
0.281177 0.300393 0.935659
0.330698 0.277083 0.877223
0.350933 0.277511 0.953873
0.323438 0.300163 0.952934
0.380872 0.299896 0.937468
0.430782 0.276584 0.878767
0.450833 0.277225 0.955852
0.423487 0.299748 0.954377
0.481018 0.299513 0.93845
0.530749 0.276255 0.88112
0.523562 0.299248 0.956512
0.550842 0.276538 0.957862
0.581027 0.298768 0.940882
0.630419 0.275536 0.883085
0.623448 0.298643 0.958354
0.651262 0.275858 0.95904
0.681638 0.297973 0.940009
0.723908 0.298084 0.933309
0.75145 0.27873 0.950388
0.774458 0.278478 0.88094
0.78188 0.298916 0.949375
0.824193 0.299313 0.932003
0.851649 0.279749 0.948066
0.874422 0.279417 0.877942
0.882131 0.299711 0.946884
0.931259 0.272961 0.876734
0.924062 0.300164 0.929233
0.95163 0.280734 0.945089
0.982245 0.300533 0.944036
0.0320231 0.351129 0.941632
0.00149857 0.331209 0.943549
0.051659 0.323839 0.924947
0.0738755 0.351344 0.921996
0.101093 0.332087 0.942369
0.131287 0.3512 0.931367
0.150884 0.320715 0.932223
0.173297 0.350902 0.95043
0.200749 0.328352 0.951035
0.230913 0.350595 0.934207
0.250986 0.320476 0.934999
0.2733 0.350544 0.951918
0.300884 0.327915 0.952337
0.323797 0.32034 0.876748
0.350884 0.319844 0.936143
0.331115 0.350138 0.935603
0.380655 0.326926 0.87745
0.373426 0.350025 0.953059
0.400859 0.327172 0.953969
0.450934 0.319432 0.937837
0.423858 0.319848 0.878387
0.431137 0.349673 0.937519
0.480786 0.326687 0.878806
0.473472 0.349481 0.955093
0.523932 0.319421 0.8802
0.500833 0.326671 0.955675
0.530952 0.349197 0.939361
0.550897 0.319144 0.939973
0.580653 0.326007 0.881265
0.573421 0.348945 0.957514
0.62399 0.318788 0.882606
0.600714 0.326128 0.958015
0.631049 0.348474 0.94132
0.651273 0.318212 0.942056
0.674066 0.347842 0.962036
0.68113 0.326226 0.88352
0.724047 0.327942 0.881573
0.70129 0.325634 0.960181
0.751358 0.320803 0.933392
0.731962 0.34817 0.951326
0.774147 0.3488 0.932151
0.781147 0.321568 0.880053
0.801547 0.329616 0.948571
0.824223 0.329017 0.878902
0.851557 0.322026 0.930725
0.832067 0.349416 0.94803
0.881191 0.322451 0.877302
0.873926 0.349755 0.929941
0.901544 0.330337 0.945923
0.924165 0.329856 0.875911
0.951512 0.323039 0.927845
0.931919 0.350215 0.944911
0.981245 0.323267 0.87457
0.974124 0.350595 0.92647
0.0238044 0.400965 0.925884
0.00147084 0.373372 0.925531
0.0804731 0.373835 0.999974
0.0515861 0.381661 0.940815
0.0818845 0.401426 0.942206
0.123454 0.372059 1.00126
0.101011 0.373474 0.922393
0.122894 0.401371 0.949492
0.173684 0.370932 0.873876
0.150735 0.378696 0.949738
0.180907 0.400944 0.932565
0.20074 0.370686 0.93363
0.223218 0.400797 0.950244
0.250674 0.378003 0.950998
0.28071 0.400443 0.93388
0.300789 0.370327 0.934606
0.330684 0.377192 0.875923
0.323537 0.40023 0.951798
0.350832 0.377526 0.952907
0.373814 0.370155 0.876924
0.381085 0.399881 0.935875
0.400975 0.369601 0.936348
0.430688 0.376904 0.877875
0.423515 0.399709 0.953773
0.450868 0.37698 0.95486
0.473632 0.369557 0.878685
0.481022 0.399461 0.937214
0.500766 0.369141 0.938167
0.530789 0.376147 0.879304
0.523446 0.399356 0.9549
0.573723 0.36889 0.880699
0.550711 0.376444 0.955917
0.580868 0.39891 0.939028
0.630614 0.375468 0.881823
0.600836 0.368567 0.940127
0.623503 0.398476 0.957246
0.674269 0.367338 0.883045
0.6512 0.375552 0.957777
0.681317 0.397988 0.939081
0.701199 0.367261 0.940385
0.723696 0.398274 0.932159
0.730914 0.370675 0.880992
0.751316 0.378922 0.949597
0.774222 0.378559 0.879508
0.781827 0.398752 0.948234
0.801411 0.371651 0.931538
0.831089 0.372114 0.878346
0.823894 0.399271 0.93107
0.851564 0.379923 0.947074
0.873982 0.379371 0.876822
0.881986 0.399804 0.945726
0.901455 0.372457 0.928143
0.931214 0.373128 0.875222
0.923855 0.400116 0.928148
0.95164 0.380797 0.944205
0.974135 0.380349 0.874039
0.982035 0.400792 0.942754
0.0321083 0.451069 0.940552
0.00153847 0.431445 0.942776
0.051388 0.423814 0.923669
0.0737785 0.45146 0.920555
0.129881 0.428753 1.0005
0.101052 0.432175 0.941055
0.131193 0.451094 0.929542
0.150746 0.420671 0.931775
0.17308 0.450973 0.949182
0.200681 0.428271 0.949962
0.230902 0.450572 0.933097
0.250723 0.420503 0.93337
0.273297 0.450396 0.950375
0.300665 0.427777 0.950836
0.323694 0.420161 0.875462
0.330989 0.450121 0.934063
0.350915 0.419776 0.93466
0.380786 0.427008 0.876152
0.37341 0.449944 0.952346
0.400959 0.427178 0.952616
0.423734 0.419856 0.877192
0.431193 0.449705 0.93595
0.451009 0.419339 0.936867
0.480555 0.42671 0.877788
0.473356 0.44961 0.953524
0.500657 0.426809 0.954336
0.523712 0.419567 0.878842
0.530981 0.44932 0.937758
0.580699 0.426096 0.879959
0.550817 0.419067 0.938776
0.57346 0.449139 0.955873
0.623839 0.418952 0.881038
0.600787 0.426143 0.956474
0.631111 0.448553 0.940195
0.651005 0.41824 0.941043
0.673953 0.447969 0.960017
0.680993 0.42608 0.881991
0.723916 0.428308 0.88031
0.701008 0.42555 0.958939
0.731702 0.448335 0.94992
0.751336 0.421041 0.932301
0.774016 0.448825 0.931649
0.780945 0.421774 0.878803
0.8013 0.42943 0.947698
0.824049 0.428965 0.877967
0.831653 0.449426 0.94667
0.851291 0.422174 0.930208
0.880939 0.422693 0.87639
0.873959 0.449771 0.928851
0.901407 0.430531 0.944675
0.924056 0.429909 0.875377
0.931815 0.450375 0.944198
0.951407 0.423063 0.927331
0.981058 0.423441 0.873725
0.973811 0.45062 0.925737
0.0247715 0.479639 9.41229e-04
0.00144986 0.473228 0.925473
0.0803833 0.47369 0.998901
0.0513417 0.481841 0.940249
0.100944 0.473392 0.920932
0.150703 0.478736 0.94889
0.200652 0.4706 0.931976
0.250648 0.47798 0.949311
0.30079 0.470018 0.933507
0.350809 0.477418 0.951266
0.373857 0.47003 0.875526
0.400921 0.469669 0.935323
0.381176 0.499852 0.934533
0.430909 0.476889 0.876523
0.450727 0.477144 0.953405
0.473752 0.469612 0.877038
0.48093 0.499405 0.936994
0.50072 0.469284 0.93709
0.53063 0.476212 0.878559
0.523327 0.499334 0.954869
0.573797 0.469152 0.879528
0.550588 0.476738 0.955127
0.581179 0.499095 0.93824
0.630543 0.475469 0.880561
0.600803 0.468677 0.939246
0.623725 0.498706 0.955611
0.674071 0.467497 0.881627
0.651094 0.475571 0.957011
0.681292 0.497974 0.937582
0.701123 0.467307 0.939586
0.723566 0.498358 0.93127
0.730942 0.470821 0.879712
0.751223 0.478935 0.948561
0.774102 0.478619 0.878663
0.801278 0.471762 0.930938
0.78173 0.49904 0.94735
0.830943 0.47221 0.877401
0.85126 0.479994 0.946123
0.823918 0.499418 0.929461
0.873962 0.479435 0.875918
0.90132 0.472635 0.928099
0.931075 0.472999 0.874502
0.951398 0.480926 0.943536
0.0302568 0.524696 1.0003
0.0235143 0.500978 0.92526
0.0013868 0.531379 0.941238
0.0741376 0.53088 -0.00137593
0.0819139 0.501435 0.941095
0.0512679 0.523761 0.922925
0.129698 0.528734 0.999523
0.122909 0.501117 0.948241
0.100831 0.532292 0.939959
0.173668 0.521716 2.17984e-04
0.180767 0.500804 0.931071
0.150554 0.520596 0.930463
0.223383 0.500657 0.949107
0.200471 0.528152 0.948064
0.250659 0.520046 0.932054
0.273893 0.521116 0.00179406
0.281125 0.500258 0.933033
0.300686 0.527518 0.949886
0.323253 0.500067 0.950306
0.350726 0.519853 0.934306
0.400705 0.527196 0.951604
0.42372 0.519974 0.875783
0.423233 0.49978 0.952194
0.450803 0.519373 0.935887
0.480404 0.526623 0.876976
0.500598 0.526853 0.954065
0.523628 0.519496 0.878155
0.580568 0.526108 0.87924
0.55078 0.51899 0.937786
0.62382 0.519448 0.880084
0.60077 0.526358 0.955675
0.651242 0.518505 0.940292
0.681074 0.52651 0.881394
0.72395 0.528216 0.879306
0.701081 0.525709 0.957989
0.751177 0.521093 0.932279
0.780783 0.52191 0.877714
0.801294 0.529606 0.946368
0.82398 0.529062 0.876517
0.851158 0.522345 0.928518
0.881776 0.499927 0.94407
0.880792 0.522682 0.874898
0.901111 0.530385 0.943806
0.923913 0.529773 0.87371
0.923752 0.500379 0.926851
0.951303 0.523054 0.926176
0.974991 0.529665 0.00162712
0.981777 0.500706 0.942244
0.031894 0.550932 0.939535
0.00121185 0.573093 0.923872
0.0803538 0.573615 0.997504
0.0737062 0.551176 0.919592
0.0514046 0.581398 0.938745
0.123318 0.572032 0.998655
0.13103 0.551025 0.92899
0.100884 0.573202 0.9197
0.179832 0.577603 -1.7678e-04
0.150615 0.578536 0.946683
0.172896 0.550786 0.947849
0.223708 0.571336 5.96254e-04
0.200625 0.570258 0.931019
0.230995 0.55039 0.93142
0.250597 0.577837 0.948747
0.273124 0.550295 0.949131
0.30057 0.570113 0.932461
0.330838 0.55005 0.933584
0.350651 0.577471 0.95095
0.373284 0.549907 0.951014
0.40065 0.569759 0.934092
0.430453 0.576898 0.875806
0.430969 0.549738 0.934758
0.450576 0.577116 0.952222
0.47359 0.569787 0.876357
0.473247 0.549519 0.953302
0.500653 0.569356 0.93633
0.530359 0.57658 0.877469
0.530738 0.549361 0.937537
0.573652 0.569424 0.878389
0.573374 0.549169 0.955025
0.550656 0.576819 0.953746
0.63051 0.575773 0.879268
0.631166 0.548641 0.939335
0.600835 0.568703 0.93792
0.674007 0.548248 0.959739
0.674137 0.567714 0.880704
0.651095 0.575878 0.956095
0.701144 0.567531 0.938757
0.731038 0.571028 0.87851
0.731634 0.548498 0.949161
0.751148 0.579231 0.947179
0.774109 0.578738 0.877306
0.773904 0.548985 0.930291
0.801331 0.571932 0.929
0.830904 0.572272 0.87538
0.831704 0.549549 0.945293
0.851174 0.580066 0.944472
0.873869 0.579547 0.874576
0.873772 0.549884 0.927309
0.901241 0.572738 0.926516
0.931683 0.550321 0.942631
0.951275 0.580871 0.94199
0.98062 0.574102 5.95321e-04
0.973758 0.550532 0.925058
0.0301606 0.624184 0.998236
0.0236875 0.600726 0.923091
0.00135665 0.631197 0.939109
0.0743031 0.630744 0.997113
0.0816069 0.601275 0.939712
0.0512919 0.623481 0.92149
0.12945 0.628471 0.997551
0.12288 0.601023 0.946489
0.100809 0.631928 0.937837
0.15069 0.620663 0.929144
0.18097 0.600591 0.93033
0.200558 0.628071 0.947133
0.223149 0.600544 0.948216
0.229713 0.627423 3.15359e-04
0.250478 0.620252 0.931297
0.280454 0.600299 0.931512
0.300395 0.62757 0.948656
0.323179 0.600148 0.949905
0.350478 0.619986 0.933001
0.380063 0.626913 0.874465
0.380766 0.599993 0.933516
0.400353 0.627371 0.951051
0.423014 0.599773 0.951349
0.450415 0.619513 0.934896
0.480648 0.599574 0.935544
0.523727 0.619996 0.876686
0.500327 0.627038 0.952256
0.523122 0.599505 0.952907
0.580321 0.626571 0.878439
0.580792 0.599157 0.9378
0.550548 0.619216 0.937164
0.62379 0.619305 0.878902
0.623549 0.598824 0.95475
0.600707 0.626594 0.95456
0.650995 0.618554 0.939035
0.680966 0.626693 0.880349
0.681303 0.598267 0.936763
0.723708 0.628331 0.878194
0.701116 0.625953 0.956676
0.723705 0.598548 0.930408
0.7513 0.621265 0.930658
0.780501 0.622082 0.876404
0.781633 0.599207 0.945777
0.801222 0.629874 0.944348
0.824286 0.629552 0.874751
0.823883 0.599608 0.927676
0.851275 0.622299 0.927291
0.881609 0.599889 0.943535
0.901184 0.630441 0.941803
0.923836 0.600206 0.924952
0.951342 0.622493 0.925506
0.974904 0.629485 -3.71865e-05
0.981933 0.600524 0.940739
0.0318638 0.650901 0.937179
0.0236207 0.679461 0.997404
0.00144359 0.672966 0.919709
0.08081 0.6729 0.995622
0.0736453 0.65118 0.917901
0.122883 0.671329 0.996968
0.100851 0.673712 0.914266
0.13085 0.651056 0.926776
0.179744 0.677704 0.99865
0.172888 0.650726 0.946618
0.150599 0.678469 0.946169
0.223522 0.671303 0.999571
0.20042 0.670254 0.929269
0.230727 0.65047 0.930435
0.250334 0.677922 0.947922
0.272868 0.650335 0.948609
0.300335 0.669883 0.931616
0.330673 0.650125 0.932543
0.350223 0.677825 0.949621
0.372841 0.650137 0.950788
0.400177 0.66964 0.933105
0.430423 0.649753 0.934053
0.450167 0.677364 0.951531
0.473246 0.669831 0.87588
0.472757 0.649695 0.952759
0.500322 0.669545 0.935776
0.530678 0.64948 0.936108
0.573371 0.669074 0.877695
0.573277 0.64944 0.954455
0.55044 0.677056 0.953714
0.630865 0.67625 0.879188
0.63128 0.648925 0.938712
0.600864 0.669009 0.937434
0.674601 0.668725 0.880469
0.67408 0.64842 0.958252
0.650964 0.676429 0.956704
0.701171 0.667723 0.938652
0.731903 0.648733 0.948447
0.731905 0.671472 0.878615
0.75138 0.679611 0.949159
0.772882 0.67928 0.875249
0.773922 0.649265 0.928891
0.80133 0.671811 0.925709
0.831789 0.649815 0.943632
0.851521 0.680158 0.945066
0.874075 0.649928 0.925667
0.901561 0.672389 0.922835
0.931629 0.650095 0.940627
0.951376 0.680514 0.942246
0.974059 0.650513 0.92291
0.0220956 0.722692 0.998716
0.0230688 0.700336 0.920325
0.0514047 0.68134 0.939588
0.0820549 0.700733 0.938613
0.0511242 0.721935 0.944469
0.123009 0.700627 0.947058
0.173195 0.721432 0.997405
0.150472 0.720202 0.927563
0.180791 0.700604 0.928562
0.222766 0.700462 0.94733
0.272677 0.721279 0.999814
0.250233 0.720124 0.928467
0.280681 0.700249 0.930722
0.322385 0.700194 0.949393
0.349952 0.719713 0.931211
0.372388 0.720877 0.00167566
0.380416 0.699954 0.932751
0.422439 0.699787 0.951233
0.449816 0.719301 0.933162
0.480399 0.699569 0.934652
0.500002 0.727362 0.952579
0.522463 0.719427 0.876479
0.522808 0.699371 0.953153
0.580627 0.699146 0.936264
0.550222 0.718946 0.934835
0.580101 0.726355 0.877352
0.623156 0.718947 0.878613
0.623376 0.69889 0.956365
0.600231 0.726835 0.95461
0.650658 0.718553 0.939293
0.67677 0.727928 0.87938
0.682003 0.698739 0.939833
0.722993 0.69874 0.930505
0.771134 0.721409 0.877645
0.750989 0.721468 0.954936
0.782057 0.699014 0.946152
0.823329 0.699347 0.925437
0.851324 0.721378 0.95194
0.882403 0.699583 0.943433
0.923535 0.69965 0.922567
0.951319 0.721763 0.949755
0.982065 0.69995 0.940536
0.0281804 0.749913 0.946209
0.00102366 0.73025 0.928938
0.0774452 0.730364 0.996616
0.0703668 0.750181 0.926571
0.0714463 0.772479 0.998453
0.128447 0.77027 0.99659
0.127217 0.729493 0.996094
0.101028 0.731582 0.933182
0.128482 0.750325 0.914896
0.100915 0.769158 0.938315
0.169364 0.750357 0.938144
0.200464 0.728417 0.946694
0.199996 0.769448 0.940398
0.227783 0.770975 0.998475
0.228059 0.75031 0.921072
0.268927 0.750181 0.940399
0.300021 0.72817 0.948902
0.299712 0.769236 0.942881
0.327356 0.770647 1.00055
0.329192 0.727595 8.75022e-04
0.327869 0.749952 0.922601
0.399926 0.727766 0.950941
0.368848 0.749932 0.942759
0.399599 0.768849 0.944561
0.427628 0.749504 0.924331
0.468937 0.749312 0.944887
0.499729 0.768456 0.94619
0.527923 0.749187 0.926272
0.569157 0.749026 0.946666
0.628081 0.748991 0.928826
0.599987 0.768294 0.948623
0.669993 0.749106 0.951207
0.678587 0.768606 0.87921
0.700953 0.729609 0.940771
0.700461 0.771635 0.95845
0.720357 0.771333 0.8806
0.727885 0.728744 0.879076
0.727964 0.74948 0.958228
0.77054 0.749098 0.937395
0.801081 0.729598 0.935315
0.800909 0.771616 0.954807
0.828564 0.749169 0.953212
0.821249 0.772141 0.877931
0.901248 0.729905 0.932235
0.870941 0.749436 0.934301
0.901263 0.772 0.951823
0.928713 0.749553 0.950753
0.970735 0.749897 0.931682
0.00105749 0.77241 0.948942
0.0206812 0.799887 0.932004
0.0507574 0.780332 0.929378
0.0785213 0.799818 0.947684
0.120026 0.79969 0.940887
0.170207 0.776974 0.997747
0.150234 0.777525 0.918181
0.1779 0.799916 0.923243
0.21975 0.79996 0.939752
0.270205 0.777108 0.999786
0.250018 0.777512 0.920515
0.277652 0.799824 0.924057
0.319495 0.799629 0.941876
0.349678 0.777141 0.922926
0.370025 0.776506 0.00188368
0.37739 0.799404 0.925642
0.419471 0.799058 0.943757
0.449761 0.776628 0.924268
0.477277 0.798849 0.928215
0.519383 0.776229 0.875102
0.519718 0.798708 0.945727
0.550124 0.776324 0.926108
0.577404 0.79854 0.930446
0.550471 0.818339 0.946402
0.619343 0.776047 0.877325
0.619798 0.798512 0.94747
0.650442 0.776382 0.929774
0.678016 0.799083 0.931174
0.720271 0.799424 0.938273
0.750585 0.779262 0.93921
0.778116 0.778737 0.87943
0.778047 0.799124 0.956046
0.820571 0.799214 0.938025
0.850961 0.77954 0.936248
0.878045 0.779253 0.876554
0.878302 0.79932 0.953306
0.920568 0.799648 0.935001
0.951025 0.78011 0.933594
0.978393 0.799756 0.950879
0.0281461 0.849917 0.950045
8.68106e-04 0.830019 0.933878
0.0508496 0.822525 0.949563
0.0706088 0.849886 0.931102
0.121969 0.82777 0.998985
0.10071 0.828118 0.922503
0.127933 0.849713 0.921469
0.176665 0.821208 3.18408e-04
0.150331 0.819398 0.938178
0.169901 0.849943 0.941314
0.200321 0.827653 0.925144
0.227753 0.849987 0.925211
0.250249 0.819436 0.941036
0.269927 0.849779 0.94282
0.300339 0.827336 0.926514
0.350167 0.818949 0.942523
0.327869 0.8497 0.927163
0.36976 0.849306 0.944561
0.400214 0.826913 0.928695
0.450147 0.818413 0.944332
0.427921 0.849235 0.928957
0.471187 0.82638 0.87644
0.470093 0.84892 0.946593
0.500199 0.826167 0.931062
0.527182 0.819157 0.87762
0.52787 0.84871 0.931694
0.571272 0.826099 0.87842
0.569965 0.848568 0.949214
0.627221 0.819177 0.879703
0.600402 0.82609 0.933175
0.627794 0.848591 0.933785
0.650255 0.818348 0.949206
0.670789 0.826991 0.881072
0.669788 0.848949 0.952041
0.700474 0.830313 0.940682
0.727465 0.830126 0.882291
0.727604 0.849424 0.96154
0.750561 0.822003 0.957521
0.770611 0.849038 0.940882
0.771067 0.822202 0.880895
0.800835 0.829302 0.940031
0.827891 0.828922 0.879351
0.850874 0.822028 0.954984
0.828048 0.849188 0.956446
0.870985 0.822205 0.87826
0.870547 0.84948 0.938367
0.900683 0.829987 0.936288
0.928104 0.829383 0.876774
0.95087 0.822648 0.95244
0.928082 0.849681 0.953774
0.971165 0.822568 0.875132
0.970712 0.849794 0.935315
0.0213331 0.872852 0.875558
0.020743 0.900266 0.935688
7.55837e-04 0.872757 0.951872
0.0508317 0.880139 0.933865
0.0782586 0.900135 0.951548
0.100813 0.86918 0.942061
0.119893 0.899808 0.944471
0.171361 0.876436 0.00205129
0.150301 0.877307 0.925069
0.177942 0.899911 0.926559
0.200383 0.869476 0.942439
0.22041 0.899634 0.943944
0.250613 0.877376 0.926396
0.2783 0.899628 0.928327
0.300642 0.869175 0.944261
0.320456 0.899606 0.94621
0.350626 0.877004 0.927925
0.377855 0.869628 0.875906
0.378311 0.899331 0.929093
0.400553 0.868884 0.945979
0.421107 0.876436 0.877356
0.420757 0.899072 0.947428
0.450854 0.876323 0.930235
0.477923 0.869275 0.878229
0.478386 0.898871 0.932087
0.500645 0.868368 0.948172
0.520843 0.875959 0.879391
0.520393 0.898624 0.949643
0.577758 0.86894 0.880368
0.550666 0.876224 0.933007
0.578092 0.898568 0.93495
0.620935 0.875895 0.881645
0.60046 0.8682 0.950012
0.620069 0.898592 0.951775
0.677736 0.869141 0.882175
0.650541 0.876238 0.935615
0.678347 0.899012 0.934734
0.720992 0.871067 0.883488
0.700638 0.871675 0.960107
0.720372 0.899501 0.941308
0.750579 0.879327 0.942751
0.777578 0.878339 0.882536
0.777967 0.899456 0.958451
0.800819 0.871898 0.957914
0.820398 0.899534 0.941372
0.821124 0.872131 0.881769
0.850564 0.879647 0.940296
0.877756 0.879048 0.879945
0.877733 0.899545 0.956516
0.900775 0.87241 0.954548
0.921385 0.872691 0.878733
0.920507 0.899908 0.939101
0.950655 0.879981 0.937572
0.977928 0.879581 0.877555
0.977649 0.900155 0.95421
0.0293674 0.930845 0.878131
0.028178 0.950249 0.956013
4.59332e-04 0.930449 0.934946
0.0702387 0.923355 0.875373
0.0506081 0.92307 0.956286
0.0696426 0.950174 0.934261
0.100521 0.928051 0.925455
0.128176 0.949571 0.926176
0.150553 0.919512 0.943475
0.170847 0.949746 0.945412
0.201004 0.927208 0.928
0.228649 0.949953 0.929716
0.250983 0.919312 0.944962
0.270951 0.949783 0.946533
0.27135 0.927172 0.876218
0.301026 0.926901 0.929838
0.328149 0.920114 0.87728
0.328961 0.949608 0.931021
0.351153 0.918966 0.946631
0.371506 0.926746 0.878357
0.371135 0.949411 0.948114
0.401357 0.926571 0.931624
0.42843 0.919635 0.879364
0.429129 0.949393 0.932558
0.45112 0.918351 0.948826
0.471365 0.926085 0.880218
0.471043 0.949081 0.950245
0.501091 0.926359 0.933311
0.528285 0.919062 0.881063
0.528754 0.948898 0.93466
0.571346 0.925714 0.882393
0.550839 0.918114 0.950823
0.570646 0.948767 0.951907
0.627945 0.918911 0.883108
0.60063 0.92589 0.934948
0.627912 0.948626 0.93781
0.670237 0.926477 0.884775
0.650418 0.918037 0.953508
0.669992 0.948506 0.956186
0.700677 0.929906 0.942651
0.728465 0.949144 0.966177
0.728638 0.930227 0.887067
0.750643 0.922282 0.963653
0.769837 0.949434 0.94319
0.769607 0.922665 0.884345
0.800423 0.930036 0.940972
0.828764 0.929453 0.883828
0.828022 0.949573 0.960961
0.850325 0.922542 0.961515
0.86958 0.922737 0.882433
0.869491 0.94976 0.939976
0.900084 0.930068 0.937952
0.928544 0.929745 0.880572
0.927828 0.949942 0.957453
0.950206 0.92303 0.958073
0.969836 0.923082 0.8793
0.969747 0.950104 0.937708
0.0309682 0.972608 0.877432
7.33281e-04 0.97291 0.92986
0.0743048 0.978945 0.876559
0.051082 0.981074 0.946624
0.123766 0.977523 0.87608
0.100679 0.970447 0.939191
0.178916 0.970122 0.876198
0.151599 0.977307 0.930147
0.221916 0.977109 0.877106
0.201483 0.969572 0.946713
0.251579 0.977366 0.929649
0.282598 -1.01174e-04 0.93797
0.27923 0.97004 0.878216
0.30161 0.969198 0.948811
0.321884 0.976884 0.878827
0.351814 0.977001 0.930908
0.382547 0.999571 0.940236
0.379452 0.969695 0.879565
0.401796 0.968847 0.950248
0.424331 0.999485 0.959379
0.422084 0.976658 0.880324
0.451808 0.976672 0.933081
0.482715 0.999277 0.942024
0.479343 0.969548 0.881795
0.524258 0.99908 0.960935
0.521815 0.97641 0.88247
0.501792 0.968359 0.952311
0.582232 0.999 0.943709
0.578991 0.969041 0.88347
0.551541 0.976431 0.934323
0.623614 0.998847 0.962793
0.621638 0.975989 0.884464
0.600995 0.968462 0.953747
0.678043 0.967433 0.885791
0.651071 0.976502 0.937703
0.681451 0.998364 0.943253
0.72345 0.999194 0.936731
0.701127 0.968262 0.951796
0.72847 0.970975 0.88583
0.750832 0.979686 0.954446
0.773432 0.979401 0.883994
0.781448 0.99945 0.95289
0.800677 0.971962 0.935383
0.823369 0.99972 0.934969
0.830224 0.972269 0.882452
0.850638 0.980423 0.952212
0.881166 0.999769 0.950217
0.8729 0.979663 0.881259
0.900369 0.972323 0.931975
0.923403 2.38018e-04 0.932209
0.930269 0.972921 0.879185
0.95055 0.980556 0.949527
0.973137 0.980211 0.878466
