CRYSTAL
PRIMVEC
    78.5425893688633892    0.0000000000000000    0.0000000000000000
     0.0000000000000000   78.7759318530927857    0.0000000000000000
     0.0000000000000000    0.0000000000000000   31.1750050433688131
PRIMCOORD
  400    1
   13          1.14798000          1.01261000          9.54106000    0.1267    0.2370   -0.1231
   13          5.05471000          1.03946000          9.42534000    0.1104    0.2735   -0.2678
   13          9.01043000          0.93494700          9.54401000    0.1603    0.1777   -0.1627
   13         12.99260000          0.95323400          9.45943000    0.2167    0.1740   -0.1799
   13         16.83650000          1.07448000          9.45423000    0.0963    0.2241   -0.1834
   13         20.95560000          1.16036000          9.41437000    0.2544    0.2582   -0.2112
   13         24.93610000          1.08212000          9.44689000    0.2753    0.1350   -0.1545
   13         28.83360000          1.26780000          9.26254000    0.2417    0.0103   -0.0887
   13         32.68950000          1.23177000          9.25560000    0.1955   -0.3019    0.1529
   13         36.49410000          1.33416000          9.36225000    0.0677   -0.2157    0.2201
   13         40.48920000          1.38257000          9.30226000    0.1268   -0.2081    0.1561
   13         44.28800000          1.20699000          9.39553000    0.0363   -0.3068    0.2745
   13         48.21100000          1.20703000          9.36680000    0.0867   -0.1884    0.2202
   13         52.24560000          1.18086000          9.29995000    0.2157   -0.1846    0.0845
   13         56.04870000          1.19333000          9.34094000    0.0790   -0.1080    0.0692
   13         60.01860000          1.16728000          9.38489000    0.0910   -0.0938    0.1271
   13         63.90200000          1.09129000          9.42805000    0.1048   -0.0954    0.1676
   13         67.84830000          0.91693300          9.39280000    0.1706   -0.0747   -0.0040
   13         71.80290000          1.03446000          9.54216000    0.1571    0.1890    0.0018
   13         75.84260000          0.96924200          9.61521000    0.2322    0.1722   -0.0203
   13          1.16829000          4.95241000          9.49944000    0.1484    0.2442   -0.1530
   13          5.03870000          4.89440000          9.49233000    0.0746    0.1623   -0.1435
   13          9.17778000          5.01107000          9.36893000    0.2406    0.3070   -0.2868
   13         13.12920000          5.01410000          9.43389000    0.2715    0.2825   -0.1391
   13         16.95800000          4.90021000          9.44369000    0.1989    0.1021   -0.0790
   13         20.75350000          5.09838000          9.34623000    0.0550    0.2842   -0.1888
   13         24.92520000          5.09715000          9.46422000    0.2545    0.2354   -0.0352
   13         28.76220000          5.25187000          9.15673000    0.1974    0.0531   -0.1041
   13         32.68050000          5.36581000          9.22699000    0.2490   -0.1367    0.1649
   13         36.52300000          5.21861000          9.23210000    0.1723   -0.2777    0.1514
   13         40.37180000          5.11224000          9.32741000    0.0829   -0.3894    0.2440
   13         44.40340000          5.31241000          9.23531000    0.1855   -0.1792    0.1526
   13         48.31230000          5.24749000          9.30373000    0.1931   -0.1670    0.1965
   13         52.21900000          5.12891000          9.32941000    0.1847   -0.2088    0.1521
   13         56.17910000          4.93001000          9.35167000    0.2084   -0.2975    0.1456
   13         59.95070000          4.90773000          9.35622000    0.0667   -0.2836    0.1666
   13         64.03250000          4.99653000          9.32735000    0.2629   -0.1271    0.1043
   13         67.84320000          4.92978000          9.50719000    0.1771    0.0507    0.1306
   13         71.75930000          4.86582000          9.43595000    0.1451    0.1638   -0.0806
   13         75.74980000          4.87383000          9.41978000    0.1356    0.2025   -0.1973
   13          1.20655000          8.87421000          9.44422000    0.2143    0.2743   -0.1891
   13          5.19958000          8.77999000          9.49190000    0.2548    0.1460   -0.1337
   13          9.11817000          8.81648000          9.36013000    0.1682    0.2020   -0.2191
   13         13.11290000          8.91527000          9.43682000    0.2034    0.2665   -0.1011
   13         16.98720000          8.92157000          9.36129000    0.1928    0.1868   -0.1711
   13         20.92140000          8.98519000          9.24736000    0.2088    0.2132   -0.2507
   13         24.90060000          9.12947000          9.33107000    0.2368    0.2806   -0.1116
   13         28.71140000          9.14389000          9.23238000    0.1958   -0.0060    0.0023
   13         32.54830000          9.33717000          9.16136000    0.1540   -0.0889    0.1208
   13         36.54500000          9.24621000          9.22173000    0.1904   -0.2184    0.1873
   13         40.48960000          9.28107000          9.28321000    0.1816   -0.1682    0.2273
   13         44.36800000          9.18143000          9.28742000    0.0845   -0.2216    0.2226
   13         48.31120000          9.14834000          9.33506000    0.1100   -0.2107    0.2162
   13         52.22350000          9.06114000          9.38374000    0.1164   -0.2317    0.2235
   13         56.17940000          8.84952000          9.35572000    0.1903   -0.3466    0.1900
   13         59.98890000          9.09553000          9.38479000    0.1460   -0.0514    0.1951
   13         63.88970000          8.95777000          9.34064000    0.1253   -0.1033    0.1438
   13         67.83160000          8.74108000          9.48273000    0.1683   -0.0316    0.0930
   13         71.80150000          8.77097000          9.44089000    0.2207    0.2194   -0.1578
   13         75.70380000          8.82818000          9.48369000    0.1281    0.2717   -0.1500
   13          1.27554000         12.75830000          9.31321000    0.2764    0.2647   -0.2663
   13          5.14843000         12.89290000          9.40369000    0.1766    0.3816   -0.1964
   13          9.13071000         12.64230000          9.33534000    0.2122    0.1291   -0.2122
   13         13.02010000         12.77480000          9.31024000    0.1657    0.2127   -0.1894
   13         17.02410000         12.82900000          9.30216000    0.2407    0.1859   -0.2029
   13         20.79750000         12.90270000          9.24409000    0.1085    0.1487   -0.2215
   13         24.66830000         13.09700000          9.24601000    0.0853    0.2161   -0.1529
   13         28.69970000         13.31040000          9.14222000    0.2059    0.1800   -0.0689
   13         32.58000000         13.32340000          9.22392000    0.1226   -0.0345    0.1945
   13         36.56300000         13.19200000          9.15271000    0.1535   -0.1988    0.1237
   13         40.47000000         13.21240000          9.19366000    0.0857   -0.1401    0.1436
   13         44.62090000         13.09690000          9.21866000    0.2694   -0.2170    0.1839
   13         48.40420000         13.09550000          9.26777000    0.1696   -0.1932    0.1658
   13         52.32680000         13.00510000          9.26635000    0.1775   -0.2131    0.1075
   13         56.17160000         13.02870000          9.34234000    0.1275   -0.1547    0.1872
   13         60.02990000         12.87520000          9.42763000    0.1079   -0.2551    0.2507
   13         63.99240000         12.79330000          9.37383000    0.1702   -0.1811    0.1697
   13         67.89820000         12.64740000          9.43253000    0.1892   -0.0276    0.0155
   13         71.84400000         12.47470000          9.37006000    0.2237    0.0141   -0.2408
   13         75.79740000         12.60190000          9.40989000    0.2296    0.1394   -0.1797
   13          1.11154000         16.55810000          9.34537000    0.1417    0.1636   -0.2230
   13          5.18097000         16.52430000          9.41403000    0.2269    0.1333   -0.1298
   13          9.10321000         16.70380000          9.28558000    0.1915    0.2883   -0.2420
   13         13.02300000         16.78850000          9.28484000    0.2084    0.2849   -0.2013
   13         16.87640000         16.81280000          9.26550000    0.1649    0.2360   -0.1790
   13         20.88930000         16.83130000          9.19852000    0.2744    0.1347   -0.1771
   13         24.60860000         16.93350000          9.09291000    0.0979    0.1010   -0.2367
   13         28.60660000         16.94250000          9.16151000    0.1494   -0.1227    0.0149
   13         32.65480000         17.12540000          9.03325000    0.2050   -0.1579    0.0798
   13         36.52160000         17.08770000          9.01601000    0.1325   -0.2211    0.0511
   13         40.65460000         17.03530000          9.07769000    0.3130   -0.1970    0.0649
   13         44.51420000         17.08990000          9.15849000    0.2419   -0.1105    0.1292
   13         48.49790000         17.01800000          9.25116000    0.3159   -0.1913    0.1949
   13         52.35130000         16.95480000          9.29196000    0.2296   -0.2300    0.1758
   13         56.09850000         16.82090000          9.26418000    0.0623   -0.3438    0.1469
   13         60.14420000         16.91060000          9.42074000    0.1854   -0.1366    0.2957
   13         64.13670000         16.82710000          9.51637000    0.2405   -0.0389    0.3309
   13         68.01570000         16.62470000          9.50749000    0.2013    0.0307    0.1046
   13         71.92770000         16.57610000          9.36245000    0.2072    0.2022   -0.1857
   13         75.89760000         16.35320000          9.45180000    0.2931   -0.0040   -0.1013
   13          1.11887000         20.48540000          9.29552000    0.1187    0.1638   -0.2616
   13          5.11856000         20.50630000          9.22149000    0.1749    0.1965   -0.2615
   13          9.15509000         20.59970000          9.26092000    0.2618    0.2156   -0.2196
   13         13.02190000         20.71440000          9.14609000    0.2488    0.2236   -0.2857
   13         16.95950000         20.77570000          9.17662000    0.3176    0.2152   -0.1883
   13         20.78340000         20.91780000          9.20008000    0.2215    0.2374   -0.1137
   13         24.60810000         20.85150000          9.08284000    0.1343    0.0735   -0.1868
   13         28.66370000         21.03150000          9.04482000    0.2546    0.0771   -0.0373
   13         32.67960000         21.02700000          8.99264000    0.2830   -0.1431    0.1037
   13         36.55390000         20.89290000          9.13558000    0.1887   -0.2844    0.2314
   13         40.53340000         20.93380000          9.02849000    0.2716   -0.1836    0.0686
   13         44.38570000         20.93990000          9.28952000    0.1996   -0.1752    0.2647
   13         48.38030000         21.01320000          9.25570000    0.2057   -0.1247    0.2352
   13         52.26760000         21.03870000          9.17022000    0.1503   -0.1163    0.1373
   13         56.25370000         20.96130000          9.25236000    0.2278   -0.1499    0.1498
   13         60.21500000         20.67410000          9.22128000    0.2204   -0.2867    0.1117
   13         64.19950000         20.62610000          9.28468000    0.2236   -0.1958    0.1839
   13         68.05960000         20.48250000          9.46273000    0.1636   -0.0557    0.1314
   13         71.97570000         20.36640000          9.38745000    0.1671    0.0683   -0.1493
   13         75.86360000         20.57620000          9.45197000    0.1867    0.2572   -0.1162
   13          1.30001000         24.62930000          9.27448000    0.2216    0.3049   -0.1934
   13          5.12909000         24.55800000          9.15143000    0.1566    0.2351   -0.2535
   13          8.93881000         24.72120000          9.21823000    0.0750    0.3400   -0.1867
   13         12.72220000         24.71380000          9.18233000   -0.0092    0.2399   -0.2105
   13         16.79050000         24.76660000          9.15493000    0.1622    0.2132   -0.1961
   13         20.72450000         24.88540000          9.19613000    0.1634    0.2477   -0.1418
   13         24.70810000         24.79130000          9.19625000    0.2068    0.1201   -0.0851
   13         28.61670000         24.82360000          9.03565000    0.2117   -0.0355   -0.0449
   13         32.62870000         24.79100000          8.96778000    0.2981   -0.2886    0.0979
   13         36.65420000         24.97280000          9.08119000    0.3172   -0.1264    0.2436
   13         40.49590000         24.83770000          9.07138000    0.2218   -0.2165    0.1654
   13         44.40720000         24.86620000          9.22874000    0.1905   -0.1794    0.2443
   13         48.31910000         24.87900000          9.18554000    0.1160   -0.1807    0.1999
   13         52.34090000         24.92910000          9.23625000    0.1790   -0.1282    0.2703
   13         56.37370000         24.80660000          9.20240000    0.2453   -0.2417    0.1695
   13         60.27810000         24.69190000          9.21326000    0.1903   -0.2506    0.1567
   13         64.26530000         24.54720000          9.24438000    0.2517   -0.2674    0.2154
   13         68.04410000         24.49570000          9.31632000    0.1572   -0.0219    0.0045
   13         71.99900000         24.51550000          9.34594000    0.2295    0.2155   -0.1920
   13         75.83820000         24.63330000          9.24426000    0.1363    0.3025   -0.2496
   13          1.30000000         28.56100000          9.28134000    0.2225    0.2586   -0.1211
   13          5.24722000         28.58550000          9.14067000    0.2377    0.2372   -0.2571
   13          9.01979000         28.53320000          9.26064000    0.0869    0.1515   -0.1186
   13         12.91670000         28.72370000          9.19610000    0.1245    0.2685   -0.1683
   13         16.86740000         28.82760000          9.05700000    0.1787    0.3272   -0.2596
   13         20.78690000         28.69010000          9.07692000    0.1597    0.1852   -0.2372
   13         24.72590000         28.66780000          9.09018000    0.1844    0.1082   -0.2339
   13         28.47190000         28.77880000          9.07836000    0.0784    0.0020   -0.0439
   13         32.29720000         28.77640000          8.97370000    0.0082   -0.2005    0.1012
   13         36.43590000         28.76690000          8.96690000    0.1336   -0.2581    0.1163
   13         40.43920000         28.73990000          9.11152000    0.1465   -0.2262    0.1947
   13         44.38290000         28.68240000          9.08027000    0.1602   -0.2515    0.1273
   13         48.40810000         28.75520000          9.13642000    0.2687   -0.2189    0.1699
   13         52.14470000         28.79110000          9.16020000    0.0283   -0.1571    0.1986
   13         56.36380000         28.75310000          9.13042000    0.2512   -0.1859    0.1675
   13         60.37790000         28.68100000          9.17285000    0.2989   -0.2476    0.1641
   13         64.27400000         28.65570000          9.12428000    0.2397   -0.1680    0.1050
   13         68.09780000         28.62140000          9.30217000    0.1575    0.0856    0.0184
   13         72.12560000         28.58220000          9.26718000    0.2991    0.2490   -0.2392
   13         75.90210000         28.51990000          9.28915000    0.1787    0.2196   -0.1213
   13          1.32445000         32.53250000          9.23228000    0.0336    0.2160   -0.1070
   13          5.28760000         32.49800000          9.22746000    0.1357    0.1649   -0.1679
   13          9.12158000         32.61150000          9.09954000    0.1002    0.2365   -0.2339
   13         12.95690000         32.61970000          9.14499000    0.0856    0.2089   -0.1535
   13         16.85490000         32.63940000          9.16543000    0.0748    0.2426   -0.1058
   13         20.78830000         32.61960000          9.25325000    0.0827    0.2399   -0.0189
   13         24.66030000         32.72360000          9.13205000    0.0955    0.2176   -0.2185
   13         28.64270000         32.76620000          9.12088000    0.1613    0.0493   -0.1208
   13         32.38590000         32.77320000          9.05039000   -0.0923   -0.0801    0.0110
   13         36.46350000         32.55260000          9.04450000    0.0172   -0.3047   -0.0362
   13         40.49890000         32.64870000          9.12043000    0.1180   -0.1649    0.0051
   13         44.35850000         32.57870000          9.09840000    0.0522   -0.2255   -0.0045
   13         48.20600000         32.65780000          9.09815000   -0.0480   -0.1638   -0.0609
   13         52.31960000         32.55200000          9.14807000    0.0796   -0.2539   -0.0203
   13         56.28170000         32.52000000          9.11530000    0.1043   -0.2811   -0.0347
   13         60.22480000         32.58730000          9.17960000    0.0487   -0.2371    0.0005
   13         64.05730000         32.58830000          9.13240000   -0.1692   -0.1409   -0.0079
   13         68.24840000         32.62530000          9.19838000    0.0404    0.1447   -0.0004
   13         72.12090000         32.51840000          9.20611000    0.0150    0.1880   -0.1229
   13         76.06930000         32.59820000          9.28028000    0.1049    0.2677   -0.0098
   13          1.36646000         36.61640000          9.10697000   -0.1193    0.2840   -0.0325
   13          5.33907000         36.66000000          9.15388000   -0.0173    0.3188   -0.0059
   13          9.27748000         36.61280000          9.18577000    0.1100    0.2636    0.0852
   13         12.96690000         36.55000000          9.09954000   -0.0812    0.1987   -0.0217
   13         16.94850000         36.54590000          9.13056000   -0.0268    0.2270    0.0032
   13         20.88420000         36.46040000          9.23095000    0.0188    0.1610    0.1401
   13         24.77150000         36.51140000          9.01107000    0.0260    0.0596   -0.2230
   13         28.54830000         36.46900000          9.12572000   -0.1434   -0.1712   -0.2123
   13         32.51750000         36.41770000          9.15602000   -0.1635   -0.3291   -0.1010
   13         36.52220000         36.66280000          9.11633000   -0.1261   -0.0873   -0.1812
   13         40.28560000         36.58730000          9.10563000   -0.2940   -0.1330   -0.2289
   13         44.25390000         36.42300000          9.10659000   -0.2443   -0.3095   -0.2366
   13         48.37050000         36.37450000          9.16174000   -0.1063   -0.3046   -0.2471
   13         52.33500000         36.46250000          9.20590000   -0.1276   -0.2297   -0.1834
   13         56.21020000         36.61660000          9.28720000   -0.1465   -0.1122   -0.0691
   13         60.14710000         36.49240000          9.28189000   -0.1985   -0.2292   -0.0702
   13         64.17570000         36.50790000          9.29294000   -0.1984   -0.0987    0.0436
   13         68.12210000         36.56790000          9.16018000   -0.2311    0.1674    0.0503
   13         71.99710000         36.46560000          9.12612000   -0.2525    0.1201    0.0649
   13         75.80520000         36.53270000          9.11236000   -0.2885    0.1825    0.0455
   13          1.14234000         40.41140000          9.14237000   -0.3104    0.1160    0.1197
   13          5.26326000         40.46280000          9.34101000   -0.1597    0.1591    0.3562
   13          9.07969000         40.49310000          9.19357000   -0.2244    0.2001    0.2399
   13         12.98550000         40.53770000          9.09578000   -0.1910    0.2681    0.1323
   13         16.77350000         40.50350000          9.07612000   -0.3283    0.2367    0.1230
   13         20.87210000         40.53580000          9.04664000   -0.1507    0.2554    0.1156
   13         24.81210000         40.46780000          8.96353000   -0.1101    0.0477   -0.1499
   13         28.52010000         40.40620000          9.14410000   -0.3046   -0.1440   -0.1632
   13         32.45800000         40.38410000          9.27787000   -0.2652   -0.2686   -0.0616
   13         36.55410000         40.56310000          9.15720000   -0.0923   -0.1397   -0.2265
   13         40.47720000         40.62220000          9.20441000   -0.1198   -0.0293   -0.1917
   13         44.38570000         40.51540000          9.32218000   -0.1597   -0.1165   -0.1538
   13         48.42320000         40.26840000          9.28098000   -0.0614   -0.3389   -0.2612
   13         52.23710000         40.40390000          9.30636000   -0.2086   -0.2446   -0.1730
   13         56.32600000         40.49210000          9.31984000   -0.1086   -0.1744   -0.1065
   13         60.24750000         40.37140000          9.28242000   -0.1481   -0.3145   -0.1432
   13         64.13440000         40.49360000          9.40355000   -0.1690   -0.0541    0.1218
   13         68.04590000         40.62010000          9.24663000   -0.2247    0.2954    0.1341
   13         72.05620000         40.64000000          9.27577000   -0.1564    0.3128    0.2416
   13         75.89370000         40.46950000          9.18306000   -0.1632    0.1390    0.1840
   13          1.26374000         44.45900000          9.26344000   -0.2088    0.2075    0.1901
   13          5.13905000         44.45940000          9.34946000   -0.2492    0.2120    0.2935
   13          9.01745000         44.46670000          9.22258000   -0.2553    0.2242    0.1997
   13         12.94350000         44.38920000          9.06237000   -0.2085    0.1626    0.0669
   13         16.78560000         44.40580000          9.09454000   -0.2804    0.1612    0.1011
   13         20.90700000         44.60290000          9.22166000   -0.1166    0.3408    0.2208
   13         24.76460000         44.54150000          9.18222000   -0.2021    0.1642    0.0405
   13         28.81080000         44.35180000          9.22350000   -0.0284   -0.1742   -0.0850
   13         32.45250000         44.41710000          9.20848000   -0.2651   -0.1892   -0.1957
   13         36.39870000         44.39340000          9.27853000   -0.2446   -0.2414   -0.1964
   13         40.45340000         44.39670000          9.23039000   -0.1340   -0.2147   -0.2276
   13         44.36190000         44.41970000          9.31092000   -0.1809   -0.1106   -0.1785
   13         48.31790000         44.42040000          9.22023000   -0.1456   -0.0799   -0.3063
   13         52.25270000         44.34650000          9.25343000   -0.1903   -0.1738   -0.2263
   13         56.26970000         44.38500000          9.25711000   -0.2070   -0.1504   -0.2180
   13         60.19640000         44.46810000          9.43112000   -0.1944   -0.1282   -0.0593
   13         64.04100000         44.48810000          9.36556000   -0.1982    0.0213    0.0684
   13         67.92690000         44.37040000          9.32652000   -0.2416    0.1024    0.2023
   13         71.89210000         44.52040000          9.18916000   -0.2233    0.2262    0.1168
   13         75.91530000         44.55780000          9.23896000   -0.1423    0.2393    0.1937
   13          1.25737000         48.42260000          9.29488000   -0.1584    0.2016    0.1528
   13          5.10171000         48.36960000          9.35635000   -0.2225    0.1250    0.2230
   13          9.21765000         48.45810000          9.22124000   -0.0242    0.2336    0.1082
   13         13.03270000         48.45710000          9.25799000   -0.1584    0.2218    0.1705
   13         16.82140000         48.37780000          9.19270000   -0.2743    0.1115    0.1265
   13         20.67360000         48.28830000          9.23658000   -0.3311    0.0932    0.1863
   13         24.74390000         48.30290000          9.08424000   -0.1977   -0.0022   -0.0901
   13         28.57170000         48.48540000          9.18052000   -0.2673   -0.0600   -0.1526
   13         32.52280000         48.28800000          9.32000000   -0.2347   -0.3134   -0.0873
   13         36.39610000         48.26850000          9.20772000   -0.3050   -0.3267   -0.3012
   13         40.46840000         48.44740000          9.38211000   -0.1706   -0.1248   -0.1642
   13         44.44490000         48.46800000          9.24251000   -0.1358   -0.0432   -0.2871
   13         48.10310000         48.25080000          9.33073000   -0.3967   -0.1955   -0.1944
   13         52.29440000         48.11990000          9.44754000   -0.1512   -0.2906   -0.0633
   13         56.20880000         48.32700000          9.36865000   -0.1881   -0.1308   -0.1820
   13         60.25220000         48.29820000          9.39441000   -0.0509   -0.2233   -0.1630
   13         63.88920000         48.30070000          9.36226000   -0.2958   -0.0901    0.0379
   13         67.88460000         48.37580000          9.35828000   -0.2398    0.1692    0.2233
   13         71.85520000         48.40580000          9.27236000   -0.2261    0.1768    0.1709
   13         75.78660000         48.36080000          9.31494000   -0.2252    0.1120    0.2100
   13          1.27138000         52.27810000          9.39011000   -0.1509    0.1000    0.1910
   13          5.18530000         52.37870000          9.37396000   -0.1682    0.1654    0.2155
   13          9.09057000         52.31690000          9.34833000   -0.1944    0.1385    0.1978
   13         13.09880000         52.44430000          9.17973000   -0.1384    0.2559    0.0724
   13         16.92540000         52.48150000          9.23903000   -0.2301    0.2485    0.1742
   13         20.89750000         52.37800000          9.27886000   -0.1664    0.2140    0.2149
   13         24.64000000         52.15950000          9.11505000   -0.3222   -0.1212   -0.1115
   13         28.61340000         52.32410000          9.19913000   -0.2399   -0.1750   -0.1674
   13         32.56160000         52.41950000          9.30706000   -0.2503   -0.1526   -0.0885
   13         36.56620000         52.34110000          9.37003000   -0.2153   -0.2187   -0.1164
   13         40.42340000         52.33150000          9.42004000   -0.3276   -0.1351   -0.0956
   13         44.38630000         52.25390000          9.34886000   -0.2692   -0.1827   -0.2250
   13         48.33950000         52.15980000          9.41838000   -0.1754   -0.2656   -0.1991
   13         52.17370000         52.12130000          9.44141000   -0.2477   -0.2764   -0.1446
   13         56.12790000         52.18170000          9.41774000   -0.1614   -0.2556   -0.2380
   13         60.11780000         52.33550000          9.51872000   -0.0763   -0.1712   -0.1817
   13         63.89570000         52.43310000          9.50558000   -0.2741    0.0767    0.0819
   13         68.03290000         52.23690000          9.36996000   -0.1213    0.1082    0.2164
   13         71.85560000         52.18830000          9.26775000   -0.2489    0.0808    0.1153
   13         75.82000000         52.38000000          9.31838000   -0.2028    0.2387    0.1134
   13          1.18564000         56.30730000          9.37213000   -0.2123    0.2203    0.1687
   13          5.08363000         56.31020000          9.37389000   -0.2316    0.1946    0.2114
   13          9.12394000         56.26500000          9.31449000   -0.1539    0.1452    0.1466
   13         12.93190000         56.35950000          9.19024000   -0.2742    0.2053    0.0576
   13         16.89300000         56.31890000          9.21364000   -0.2297    0.1828    0.1190
   13         20.85400000         56.27830000          9.24510000   -0.2407    0.1699    0.1446
   13         24.81210000         56.30600000          9.23608000   -0.1809    0.0528   -0.0429
   13         28.61250000         56.21000000          9.42223000   -0.2620   -0.2142    0.0096
   13         32.58010000         56.28910000          9.30199000   -0.2757   -0.2152   -0.1179
   13         36.64170000         56.35840000          9.34527000   -0.2055   -0.1331   -0.1651
   13         40.63410000         56.19000000          9.32636000   -0.2075   -0.2022   -0.2053
   13         44.44200000         56.20010000          9.49462000   -0.2786   -0.1937   -0.1053
   13         48.32380000         56.19950000          9.41959000   -0.2031   -0.2414   -0.2216
   13         52.20890000         56.22170000          9.38282000   -0.2138   -0.2082   -0.2176
   13         56.02240000         56.22920000          9.47995000   -0.2742   -0.1859   -0.1771
   13         60.05620000         56.24320000          9.52053000   -0.1286   -0.2040   -0.1710
   13         63.98150000         56.31840000          9.43023000   -0.1667   -0.0112    0.0282
   13         67.91550000         56.23100000          9.32605000   -0.1949    0.1249    0.2150
   13         71.72810000         56.13850000          9.17827000   -0.2808    0.1128    0.0613
   13         75.77920000         56.13290000          9.38859000   -0.1857    0.0996    0.1962
   13          1.02379000         60.13200000          9.45633000   -0.2661    0.1495    0.2482
   13          5.04739000         60.18960000          9.36588000   -0.1665    0.1792    0.1799
   13          9.02812000         60.14550000          9.40685000   -0.1746    0.0787    0.2122
   13         12.89750000         60.26380000          9.39034000   -0.2676    0.1841    0.2161
   13         17.02770000         60.25760000          9.20973000   -0.1088    0.2272    0.0919
   13         20.94180000         60.18320000          9.19504000   -0.1641    0.1744    0.1009
   13         24.84630000         60.17820000          9.19808000   -0.1545   -0.0020   -0.0746
   13         28.68680000         60.14810000          9.38060000   -0.2376   -0.1852   -0.0752
   13         32.67660000         60.20490000          9.31308000   -0.2330   -0.1546   -0.1486
   13         36.55140000         60.30060000          9.36047000   -0.3312   -0.0996   -0.1460
   13         40.60590000         60.20030000          9.30714000   -0.2278   -0.1989   -0.2465
   13         44.46400000         60.34970000          9.48620000   -0.2676   -0.0585   -0.1367
   13         48.42020000         60.31310000          9.55069000   -0.1586   -0.1070   -0.0708
   13         52.23580000         60.09420000          9.38367000   -0.2156   -0.3186   -0.2055
   13         56.23680000         60.26990000          9.51066000   -0.1269   -0.1543   -0.1096
   13         60.03460000         60.29530000          9.53274000   -0.2323   -0.1446   -0.1077
   13         63.94820000         60.23760000          9.48667000   -0.2097   -0.0573    0.0609
   13         67.83530000         60.26200000          9.44840000   -0.2324    0.2012    0.2560
   13         71.80620000         60.19840000          9.36878000   -0.1623    0.2358    0.1845
   13         75.76930000         60.09960000          9.42807000   -0.1346    0.1334    0.2292
   13          1.10591000         64.20570000          9.41288000   -0.1634    0.3088    0.1285
   13          4.96244000         64.03550000          9.46215000   -0.2966    0.1167    0.2001
   13          9.07831000         64.12960000          9.36496000   -0.1555    0.1386    0.1229
   13         12.98840000         64.04370000          9.44492000   -0.2049    0.0586    0.2535
   13         17.04820000         64.01030000          9.18529000   -0.1432    0.0504    0.0499
   13         20.93790000         64.08360000          9.24144000   -0.2142    0.1602    0.1033
   13         24.84390000         64.09110000          9.30395000   -0.2025    0.0322   -0.0096
   13         28.72250000         64.13760000          9.30775000   -0.2412   -0.1083   -0.2038
   13         32.72410000         64.06840000          9.44439000   -0.2080   -0.2021   -0.0581
   13         36.51180000         64.11720000          9.43379000   -0.3975   -0.2143   -0.0851
   13         40.73560000         64.28420000          9.27840000   -0.1006   -0.0796   -0.2776
   13         44.52490000         64.18440000          9.50094000   -0.1830   -0.1675   -0.1035
   13         48.42800000         64.16030000          9.48019000   -0.1532   -0.1748   -0.1330
   13         52.22370000         64.11230000          9.47723000   -0.2452   -0.2106   -0.1434
   13         56.10300000         64.12560000          9.58176000   -0.2485   -0.2301   -0.0735
   13         60.13660000         64.12860000          9.57204000   -0.1561   -0.2769   -0.0934
   13         64.09340000         64.24040000          9.44295000   -0.1148    0.0032   -0.0636
   13         67.87120000         64.11960000          9.53442000   -0.2181    0.1384    0.2323
   13         71.80670000         64.13350000          9.51697000   -0.1888    0.2083    0.2376
   13         75.67700000         64.11720000          9.39533000   -0.2038    0.1891    0.1217
   13          1.07296000         68.01760000          9.47461000   -0.1418    0.1707    0.1770
   13          5.00578000         68.03900000          9.41012000   -0.2013    0.1877    0.1268
   13          8.96168000         68.08460000          9.53610000   -0.2190    0.2085    0.2228
   13         12.98450000         68.25720000          9.37619000   -0.1639    0.3324    0.0874
   13         16.95760000         68.10410000          9.43893000   -0.1802    0.1601    0.2059
   13         21.00650000         68.14820000          9.37279000   -0.1084    0.2462    0.1288
   13         24.75690000         67.95300000          9.45292000   -0.2850    0.0020    0.0120
   13         28.75470000         68.03330000          9.50613000   -0.2371   -0.1159    0.0065
   13         32.69850000         68.00960000          9.37081000   -0.2467   -0.2216   -0.0189
   13         36.60260000         67.91030000          9.44820000   -0.2160   -0.3720    0.0120
   13         40.70180000         68.08110000          9.37897000   -0.0313   -0.2467   -0.1127
   13         44.41970000         68.12310000          9.45003000   -0.1950   -0.1921   -0.0279
   13         48.34320000         68.08410000          9.35718000   -0.1058   -0.2001   -0.0776
   13         52.16480000         68.19770000          9.49985000   -0.1607   -0.0765    0.0523
   13         56.13390000         68.19420000          9.50375000   -0.0750   -0.0490    0.0209
   13         60.05560000         68.09510000          9.45430000   -0.0991   -0.1381   -0.0632
   13         64.12860000         68.10610000          9.64400000    0.0361   -0.0273    0.2334
   13         67.90830000         68.09370000          9.45959000   -0.1225    0.1590    0.1727
   13         71.85210000         68.01100000          9.52286000   -0.1150    0.1253    0.2315
   13         75.64530000         68.04500000          9.43431000   -0.1905    0.1882    0.1302
   13          0.92937600         71.99760000          9.61005000   -0.0919    0.2488    0.1181
   13          4.98169000         71.96690000          9.65637000    0.0069    0.2014    0.1552
   13          8.87261000         71.97080000          9.56325000   -0.0270    0.1999    0.0190
   13         12.86230000         72.04140000          9.47137000   -0.0218    0.2579   -0.0428
   13         16.82750000         72.04060000          9.53635000   -0.0640    0.1999    0.0891
   13         21.07880000         72.04180000          9.49635000    0.1998    0.1853    0.0786
   13         24.88150000         71.89260000          9.43737000    0.0133    0.0185   -0.1447
   13         28.83800000         72.05830000          9.34785000   -0.0158   -0.0014   -0.1295
   13         32.76900000         72.10080000          9.19424000   -0.0481   -0.1481    0.0095
   13         36.76050000         72.03840000          9.30234000    0.1065   -0.2750    0.0981
   13         40.64520000         71.97170000          9.37876000    0.1647   -0.3805    0.0909
   13         44.49830000         72.09710000          9.39236000    0.1426   -0.2364    0.0847
   13         48.33610000         71.93550000          9.33331000    0.1088   -0.3246    0.0806
   13         52.19120000         72.00950000          9.42502000    0.0889   -0.2357    0.1969
   13         56.17860000         71.98770000          9.59328000    0.1557   -0.1960    0.2862
   13         60.08190000         71.90430000          9.58757000    0.1212   -0.1793    0.2158
   13         63.95500000         71.89930000          9.41491000    0.0798   -0.1597    0.0930
   13         67.72820000         71.93460000          9.43660000   -0.0912    0.0557    0.0954
   13         71.80130000         71.89450000          9.55217000    0.0289    0.1423    0.0788
   13         75.63730000         71.83030000          9.58842000   -0.0263    0.0596    0.0587
   13          1.08072000         75.83190000          9.54169000    0.1530    0.2012   -0.1665
   13          4.97590000         75.85810000          9.59456000    0.1205    0.2402   -0.1520
   13          8.95163000         75.88090000          9.65084000    0.1879    0.2462   -0.0769
   13         12.82100000         75.78010000          9.54113000    0.0952    0.1585   -0.1468
   13         16.96080000         75.92370000          9.55546000    0.2473    0.2270   -0.1321
   13         20.81780000         75.86530000          9.41643000    0.1196    0.1152   -0.2082
   13         24.93220000         75.97790000          9.45377000    0.2455    0.1941   -0.2064
   13         28.76190000         76.00770000          9.32355000    0.1165   -0.0461   -0.1237
   13         32.73930000         76.10460000          9.21289000    0.1463   -0.2138    0.1143
   13         36.68240000         76.17430000          9.25321000    0.1729   -0.2111    0.1334
   13         40.48330000         76.08290000          9.32815000    0.1344   -0.3141    0.1376
   13         44.29630000         75.92450000          9.44418000    0.0765   -0.3755    0.2266
   13         48.32960000         76.08320000          9.36482000    0.1959   -0.1151    0.1294
   13         52.16330000         75.93110000          9.35914000    0.1387   -0.2640    0.1160
   13         56.11310000         75.90280000          9.48940000    0.1582   -0.2457    0.1722
   13         60.09850000         75.86200000          9.49025000    0.2001   -0.1831    0.1560
   13         63.90080000         75.87090000          9.38278000    0.1182   -0.1372    0.0877
   13         67.86840000         75.86430000          9.49471000    0.1900    0.0430    0.0685
   13         71.74830000         75.84430000          9.44876000    0.1298    0.1851   -0.1786
   13         75.67980000         75.85800000          9.52348000    0.1411    0.1729   -0.1769
