POSCAR file written by OVITO Basic 3.10.6
1
78.2404229653 0.0 0.0
0.0 78.2689596379 0.0
0.0 0.0 31.2527650692
Al Bi Ga O 
1600 3200 1600 9600 
Direct
0.0178603 0.01743 0.0566103
0.0684966 0.0178266 0.0562234
0.119042 0.0180378 0.0556902
0.169221 0.0177772 0.0545705
0.219192 0.01779 0.055643
0.0183243 0.0675157 0.0570215
0.0687284 0.0678836 0.0555441
0.11869 0.0682413 0.0541889
0.168498 0.0686849 0.0541376
0.218574 0.0681591 0.0548916
0.0187318 0.117272 0.0566412
0.0688594 0.117674 0.0549302
0.118529 0.118533 0.0538674
0.16838 0.11859 0.0534765
0.218393 0.118522 0.0544
0.0180477 0.0174886 0.177795
0.068066 0.0176947 0.176111
0.119007 0.0180683 0.174862
0.169272 0.0178418 0.175342
0.219321 0.0176879 0.175705
0.0180434 0.0673309 0.17792
0.0686894 0.0678571 0.177064
0.118564 0.0683009 0.175057
0.16883 0.068214 0.174745
0.218674 0.0678511 0.17571
0.018481 0.117314 0.177416
0.0688216 0.117572 0.175951
0.118461 0.11829 0.174504
0.16858 0.118569 0.174717
0.218611 0.1181 0.175419
0.017943 0.0173403 0.298437
0.0682554 0.017778 0.297761
0.11857 0.0181 0.296257
0.169392 0.0174573 0.296268
0.219092 0.017325 0.296796
0.0179047 0.0672958 0.299308
0.0685505 0.0676955 0.297427
0.1188 0.0681834 0.295634
0.168757 0.0680739 0.295849
0.218899 0.0677746 0.296572
0.0182909 0.117009 0.298715
0.0685237 0.117634 0.297426
0.118691 0.118354 0.295511
0.168714 0.118278 0.295425
0.21862 0.117813 0.296387
0.0181586 0.0171402 0.419974
0.0680504 0.0177618 0.417676
0.119259 0.0178317 0.416277
0.16915 0.0173978 0.416982
0.219097 0.0171699 0.418101
0.0175471 0.0668847 0.419859
0.0687965 0.0674742 0.418402
0.118655 0.0680306 0.416603
0.169045 0.0677956 0.416821
0.218881 0.0673097 0.417623
0.0180682 0.116845 0.419589
0.0684657 0.117499 0.417711
0.118565 0.118255 0.416268
0.168971 0.118097 0.416525
0.218914 0.117682 0.41727
0.0187779 0.167365 0.0562031
0.0689188 0.167788 0.0546228
0.118264 0.168493 0.0530801
0.167996 0.168905 0.0528933
0.218146 0.168366 0.0537662
0.0189325 0.217426 0.0553919
0.0687114 0.217948 0.0535613
0.118217 0.218642 0.0525405
0.167846 0.21876 0.0522779
0.21805 0.218542 0.053316
0.0186592 0.16724 0.176905
0.0687205 0.167816 0.175666
0.118366 0.168583 0.174139
0.168338 0.168582 0.174002
0.21837 0.168187 0.17478
0.0185696 0.21743 0.176739
0.0687009 0.217945 0.175062
0.118223 0.218615 0.173579
0.168204 0.218595 0.173438
0.218321 0.21832 0.174301
0.0182664 0.16714 0.298335
0.0686498 0.167518 0.296819
0.118436 0.168497 0.295014
0.168526 0.168406 0.295058
0.218695 0.168118 0.295654
0.0184764 0.21717 0.297613
0.068339 0.217869 0.296541
0.118498 0.218642 0.29466
0.168456 0.218588 0.294563
0.218344 0.218098 0.295284
0.0180689 0.166869 0.418717
0.0683681 0.16753 0.417342
0.118419 0.16845 0.415686
0.1688 0.168276 0.41584
0.218788 0.167737 0.416544
0.0182068 0.217126 0.418562
0.0683801 0.217877 0.417026
0.118318 0.218481 0.415451
0.168645 0.218377 0.415493
0.218783 0.218113 0.416138
0.0187076 0.267711 0.0550018
0.0687418 0.268151 0.0534225
0.118199 0.268621 0.051893
0.167914 0.268897 0.0516588
0.217713 0.268424 0.0524874
0.0186435 0.317607 0.0541967
0.0686664 0.318095 0.0523311
0.118136 0.318789 0.0514112
0.167809 0.318909 0.0511332
0.217926 0.318671 0.0519501
0.0185554 0.367834 0.0535592
0.0685881 0.368107 0.0520514
0.117931 0.36867 0.0507221
0.167822 0.368865 0.0505069
0.217791 0.368516 0.0512623
0.0186023 0.267459 0.175647
0.0685143 0.268093 0.174756
0.118266 0.268782 0.172891
0.168213 0.26876 0.172882
0.217993 0.268403 0.173727
0.0183944 0.31764 0.17502
0.0685693 0.31797 0.173705
0.118187 0.318683 0.172142
0.168092 0.318779 0.172178
0.218147 0.318443 0.172859
0.0184658 0.367611 0.174386
0.0683931 0.368152 0.17327
0.118145 0.36877 0.171426
0.168016 0.368717 0.171572
0.218009 0.368356 0.172263
0.018227 0.267446 0.296972
0.0684688 0.267937 0.295497
0.118216 0.268643 0.293832
0.168301 0.268644 0.294108
0.218507 0.268293 0.294629
0.0182345 0.317359 0.296235
0.0682937 0.318204 0.295178
0.11831 0.318797 0.293267
0.168337 0.318585 0.293363
0.218256 0.318283 0.294116
0.0181094 0.36758 0.295625
0.0682467 0.367928 0.294097
0.118144 0.368686 0.292639
0.168203 0.368623 0.292603
0.21836 0.368244 0.293256
0.0180221 0.26713 0.417724
0.0683487 0.267783 0.416588
0.118304 0.268649 0.414949
0.168699 0.268484 0.414983
0.218606 0.267995 0.415731
0.0180692 0.317279 0.417339
0.0682247 0.318006 0.415709
0.11826 0.318647 0.414096
0.16852 0.318414 0.414465
0.218549 0.318146 0.415021
0.0178331 0.367267 0.416248
0.0681586 0.367841 0.415209
0.118177 0.368656 0.413501
0.168545 0.36849 0.413694
0.218435 0.368027 0.414492
0.0185313 0.417681 0.0528434
0.0685612 0.418089 0.0510059
0.117967 0.418659 0.0500814
0.167646 0.418688 0.049997
0.217814 0.418646 0.0506748
0.0184313 0.467726 0.0520393
0.0684806 0.468082 0.0505993
0.117966 0.468574 0.0494479
0.167665 0.468675 0.0491598
0.217643 0.468337 0.0499177
0.0182655 0.41768 0.173782
0.0684307 0.418036 0.172373
0.118019 0.418626 0.170878
0.167968 0.418661 0.170834
0.218131 0.418334 0.171688
0.0182982 0.467536 0.172981
0.0683034 0.468165 0.171862
0.117957 0.468615 0.170144
0.167962 0.468583 0.170386
0.217912 0.468172 0.17079
0.0181786 0.417463 0.294739
0.0682421 0.418041 0.293842
0.118126 0.418728 0.292065
0.168198 0.418517 0.292193
0.218205 0.418114 0.292796
0.0179293 0.467542 0.294181
0.0682116 0.467969 0.292827
0.118126 0.468536 0.291241
0.168059 0.468454 0.291416
0.21813 0.468006 0.29202
0.0178951 0.417223 0.415948
0.0680581 0.417995 0.414216
0.118143 0.41861 0.412954
0.168411 0.418424 0.412902
0.218563 0.418052 0.413746
0.0176631 0.467284 0.414869
0.0679584 0.467875 0.413918
0.11802 0.468545 0.412354
0.168352 0.468247 0.412333
0.218421 0.467786 0.413014
0.01841 0.517697 0.0515391
0.0684643 0.518068 0.0499199
0.117987 0.518592 0.0486575
0.167652 0.518543 0.0487398
0.217817 0.518362 0.0493449
0.0184575 0.567747 0.0508902
0.0683706 0.567961 0.0494047
0.117822 0.568426 0.0480451
0.16776 0.568613 0.0479263
0.217685 0.568187 0.0487344
0.0186191 0.617626 0.0502193
0.0684503 0.617913 0.0486531
0.117863 0.618277 0.0474827
0.167639 0.618415 0.0472698
0.21778 0.618299 0.0479957
0.0182032 0.517551 0.17241
0.0683821 0.517918 0.170986
0.117887 0.518479 0.169665
0.167988 0.518472 0.169493
0.21804 0.518132 0.170174
0.0183823 0.567521 0.171606
0.0683533 0.567993 0.170789
0.118 0.568428 0.169039
0.167961 0.568402 0.16892
0.21795 0.567961 0.169577
0.0185099 0.617431 0.171397
0.0684193 0.617792 0.169851
0.118017 0.618266 0.168137
0.167985 0.618253 0.16813
0.217926 0.618029 0.168864
0.0180707 0.517396 0.293423
0.0681496 0.517958 0.29263
0.118123 0.51851 0.290678
0.168181 0.51832 0.290711
0.218094 0.51789 0.291466
0.0180159 0.567447 0.29304
0.0683155 0.567694 0.291643
0.1181 0.568326 0.289993
0.168176 0.568219 0.290011
0.218258 0.567893 0.290605
0.0183461 0.617173 0.292318
0.0684688 0.617843 0.291451
0.118174 0.618223 0.28924
0.168126 0.618069 0.289357
0.21812 0.617747 0.289848
0.0177557 0.517285 0.414677
0.0679777 0.517846 0.412898
0.118072 0.518369 0.411838
0.16835 0.518138 0.411667
0.218623 0.517875 0.412509
0.0177279 0.567057 0.413811
0.0682082 0.567612 0.412684
0.11812 0.568174 0.410969
0.168446 0.56812 0.411033
0.218383 0.567528 0.411687
0.0181164 0.61708 0.413583
0.0682176 0.617615 0.411799
0.118078 0.617968 0.410603
0.168356 0.617796 0.41019
0.218428 0.617605 0.411215
0.0186989 0.667489 0.0496647
0.0686154 0.667601 0.0484134
0.117739 0.668083 0.0466949
0.167624 0.668398 0.0466305
0.217478 0.668148 0.0476292
0.0188614 0.717434 0.0486196
0.0687622 0.717716 0.0472781
0.117895 0.718168 0.0462047
0.167801 0.718168 0.0470242
0.217697 0.718099 0.0480803
0.0186134 0.667277 0.170922
0.068512 0.667659 0.169563
0.117881 0.668096 0.167681
0.167794 0.668095 0.167702
0.217689 0.667975 0.16851
0.0186708 0.717195 0.170365
0.0690504 0.717639 0.169111
0.118034 0.717969 0.167828
0.167808 0.718245 0.168126
0.217756 0.717949 0.168817
0.0184642 0.667186 0.292111
0.0685771 0.667439 0.291137
0.117974 0.66793 0.289307
0.168098 0.668005 0.288894
0.217923 0.667776 0.289498
0.0188897 0.717127 0.291699
0.0687972 0.717591 0.290915
0.118298 0.717845 0.289581
0.167965 0.71805 0.289277
0.217793 0.717947 0.290088
0.0182869 0.666862 0.413217
0.0685062 0.667295 0.411943
0.11803 0.667845 0.410113
0.168267 0.667599 0.409891
0.2181 0.667586 0.410625
0.0186745 0.717018 0.412617
0.0686754 0.71771 0.412009
0.118109 0.717842 0.410708
0.168296 0.71812 0.410475
0.217857 0.717846 0.410995
0.0192631 0.766722 0.0480881
0.0691439 0.76683 0.0468085
0.118123 0.767183 0.0474257
0.168218 0.767406 0.0486121
0.218103 0.767445 0.0497046
0.0194072 0.816356 0.0491712
0.0689666 0.816959 0.048458
0.118471 0.81719 0.0492033
0.168309 0.817404 0.0506658
0.218425 0.817327 0.0514951
0.0193013 0.86678 0.0509572
0.0688188 0.866776 0.0504326
0.118368 0.867382 0.051161
0.168776 0.867356 0.0522125
0.218915 0.867281 0.0534242
0.0190904 0.76645 0.169322
0.0690145 0.766867 0.168546
0.11824 0.76709 0.16946
0.16831 0.767414 0.170088
0.218123 0.767617 0.171068
0.0190931 0.816685 0.16989
0.0688415 0.81661 0.16995
0.118739 0.817087 0.171198
0.168513 0.817457 0.171562
0.21859 0.81743 0.172589
0.0189762 0.866707 0.172012
0.0684034 0.866463 0.171112
0.118932 0.866476 0.171033
0.168906 0.86726 0.173429
0.219066 0.867569 0.173878
0.0190838 0.766576 0.290542
0.0689913 0.766775 0.290206
0.11835 0.766916 0.290953
0.168318 0.767472 0.291374
0.218277 0.767589 0.291937
0.0189255 0.816681 0.291272
0.0689332 0.816872 0.290618
0.118842 0.816947 0.292495
0.168693 0.81739 0.292847
0.21874 0.817756 0.293733
0.0188199 0.866812 0.292852
0.0687257 0.866549 0.292665
0.118799 0.866862 0.293992
0.169011 0.867658 0.293974
0.219288 0.867639 0.295173
0.0188288 0.766605 0.411879
0.0689814 0.766973 0.411239
0.118514 0.766846 0.412294
0.168385 0.767594 0.412384
0.218472 0.767786 0.413063
0.018725 0.817009 0.412181
0.0691658 0.817005 0.411962
0.118769 0.817575 0.412936
0.168894 0.817798 0.413659
0.218923 0.818186 0.414485
0.0186011 0.867069 0.413588
0.0689256 0.866918 0.413088
0.119226 0.867237 0.413885
0.169034 0.867887 0.415002
0.219481 0.867985 0.416141
0.0189455 0.916622 0.0531223
0.0686938 0.917455 0.0517257
0.119288 0.916981 0.0528205
0.169059 0.917389 0.0541171
0.219594 0.917269 0.0546541
0.0184851 0.967312 0.054827
0.0684841 0.967332 0.0548015
0.11923 0.967429 0.0549061
0.169716 0.967706 0.0549504
0.219905 0.967628 0.0561501
0.119011 0.916552 0.173945
0.0186986 0.91683 0.173641
0.0687794 0.916939 0.174216
0.169324 0.917539 0.174969
0.219688 0.917287 0.176027
0.0183602 0.967509 0.175903
0.0680729 0.967074 0.174589
0.119706 0.967177 0.174755
0.169634 0.967493 0.176174
0.219855 0.967539 0.176635
0.0187507 0.91703 0.294709
0.0688063 0.916812 0.293295
0.118848 0.91677 0.293537
0.169355 0.917502 0.295753
0.219756 0.91764 0.296568
0.0184191 0.967446 0.296359
0.0682266 0.967114 0.295887
0.119165 0.966931 0.295426
0.169651 0.967745 0.296434
0.219824 0.967691 0.297766
0.0688659 0.916516 0.415354
0.0186565 0.917185 0.415703
0.118947 0.917343 0.415603
0.169861 0.917942 0.416537
0.219717 0.917848 0.417847
0.0186195 0.967469 0.417583
0.0685688 0.967283 0.416235
0.11887 0.967131 0.414872
0.169508 0.967543 0.417804
0.219773 0.967629 0.418425
0.269193 0.0178316 0.0559904
0.319434 0.0177815 0.0573708
0.369371 0.0174907 0.0580033
0.419596 0.0173887 0.0591448
0.469312 0.0171047 0.0595401
0.268591 0.0681616 0.0558805
0.318887 0.0678035 0.0566236
0.368857 0.0678108 0.0575986
0.418903 0.0676139 0.058328
0.46883 0.0675652 0.0594401
0.268304 0.118046 0.0550458
0.318449 0.117985 0.0561209
0.368375 0.117732 0.0567244
0.41862 0.117666 0.0578474
0.468482 0.11728 0.0585241
0.2693 0.017537 0.177075
0.319494 0.0174878 0.177754
0.369474 0.0173317 0.1788
0.4196 0.0172614 0.179509
0.469392 0.0170141 0.180716
0.268953 0.067823 0.176405
0.318844 0.0674736 0.177432
0.369111 0.0676017 0.178164
0.419042 0.0672551 0.179503
0.469096 0.0672012 0.180264
0.268475 0.117846 0.176017
0.318683 0.117815 0.177047
0.368685 0.117468 0.177921
0.418758 0.117382 0.17889
0.468634 0.117133 0.180034
0.269425 0.0173686 0.297709
0.319397 0.0171889 0.299136
0.369669 0.0171884 0.29984
0.268876 0.0674373 0.297753
0.319059 0.0672676 0.298523
0.369096 0.0671166 0.299691
0.268799 0.117563 0.297258
0.318774 0.117276 0.298198
0.368813 0.117251 0.29921
0.419584 0.016977 0.300844
0.469641 0.0167911 0.301674
0.419235 0.0670338 0.300476
0.469211 0.0668497 0.301723
0.418783 0.11688 0.300034
0.468904 0.116891 0.301339
0.269282 0.0170817 0.418839
0.319378 0.0170953 0.420247
0.369577 0.0168772 0.420989
0.419665 0.0167409 0.422082
0.469571 0.0165113 0.422964
0.269068 0.0671991 0.41832
0.319044 0.0669592 0.419685
0.369272 0.067035 0.420416
0.419334 0.0667401 0.421632
0.469332 0.0665862 0.42251
0.268873 0.117163 0.418115
0.318893 0.117134 0.418941
0.368903 0.116849 0.420021
0.418982 0.116821 0.42104
0.468924 0.116474 0.422157
0.268219 0.168227 0.0545243
0.318219 0.167936 0.0552383
0.368298 0.167913 0.0562227
0.418183 0.167592 0.0571677
0.468269 0.167492 0.0581154
0.267967 0.218059 0.0539672
0.318171 0.218154 0.0546812
0.368055 0.217745 0.0557062
0.418031 0.217687 0.0565444
0.467919 0.217266 0.057519
0.268523 0.168 0.175585
0.318387 0.167688 0.176499
0.368545 0.167608 0.17734
0.418339 0.167299 0.178483
0.46847 0.167166 0.179385
0.268228 0.217997 0.174974
0.318409 0.217867 0.175849
0.368198 0.217554 0.177012
0.418328 0.217413 0.177912
0.468132 0.217052 0.178897
0.268533 0.167675 0.296698
0.318624 0.167505 0.297524
0.368537 0.167248 0.298801
0.418595 0.167147 0.299533
0.268576 0.217848 0.296103
0.318435 0.217546 0.296887
0.36841 0.217404 0.297894
0.418348 0.217043 0.298995
0.468481 0.166852 0.300567
0.468451 0.216921 0.300162
0.268848 0.167497 0.41758
0.318603 0.167119 0.418425
0.368752 0.16702 0.419583
0.418717 0.166715 0.420347
0.468799 0.166707 0.421504
0.268622 0.2175 0.417111
0.318731 0.217381 0.417958
0.368412 0.216975 0.418876
0.41865 0.216926 0.419905
0.468501 0.216605 0.420971
0.267985 0.268388 0.0532686
0.317831 0.268006 0.0540487
0.368044 0.267994 0.0550632
0.417819 0.267611 0.0560128
0.467942 0.2674 0.0571333
0.267754 0.318173 0.0526047
0.317948 0.318185 0.0532922
0.367888 0.317812 0.0543036
0.417947 0.317658 0.0554798
0.467807 0.317316 0.0564478
0.267961 0.368255 0.0520434
0.317788 0.367911 0.0529171
0.367875 0.368 0.0536427
0.417866 0.367521 0.0546646
0.467928 0.367446 0.0557465
0.268168 0.268153 0.174316
0.318168 0.267819 0.175144
0.368197 0.267682 0.176273
0.418147 0.26733 0.177193
0.468144 0.267108 0.178346
0.267966 0.317999 0.173608
0.318157 0.317907 0.174545
0.36804 0.317599 0.1756
0.418132 0.317478 0.176665
0.468075 0.317088 0.177487
0.268138 0.36814 0.172903
0.318048 0.367823 0.173936
0.368125 0.367604 0.174791
0.418097 0.367353 0.175989
0.468068 0.367191 0.176849
0.268339 0.267892 0.295579
0.318491 0.26772 0.296444
0.368247 0.267379 0.297532
0.418372 0.267195 0.298365
0.468248 0.266838 0.299381
0.268333 0.317903 0.294873
0.318258 0.317625 0.295677
0.368259 0.317502 0.296876
0.418254 0.317102 0.29772
0.468274 0.316973 0.298852
0.268191 0.367855 0.294247
0.318278 0.367674 0.295165
0.3682 0.367417 0.29624
0.418373 0.367137 0.297247
0.468192 0.366883 0.29809
0.268637 0.267752 0.416483
0.318424 0.267301 0.417364
0.368577 0.267208 0.418459
0.418399 0.26679 0.419493
0.468474 0.266832 0.420377
0.268497 0.317576 0.415955
0.318541 0.317467 0.416936
0.368425 0.317147 0.417716
0.418528 0.317002 0.418772
0.468378 0.316612 0.419643
0.268488 0.367837 0.415322
0.318339 0.367288 0.416252
0.368587 0.367218 0.41713
0.418405 0.366837 0.418112
0.468533 0.36681 0.419143
0.267793 0.418095 0.0515623
0.317943 0.418033 0.0523438
0.367767 0.417694 0.053152
0.417918 0.417698 0.0541188
0.467786 0.417266 0.0549865
0.267824 0.468248 0.0507814
0.317767 0.467911 0.05169
0.367841 0.467814 0.0525502
0.417775 0.467506 0.0533582
0.467948 0.467406 0.054205
0.268062 0.417994 0.172337
0.318105 0.417843 0.173399
0.367985 0.417559 0.174441
0.418031 0.417435 0.175334
0.468004 0.417074 0.176287
0.268097 0.467971 0.171722
0.318012 0.467787 0.172619
0.368001 0.467635 0.173701
0.417941 0.467244 0.174635
0.468039 0.467089 0.175422
0.268335 0.417822 0.293724
0.318199 0.417579 0.294806
0.368263 0.417453 0.295646
0.41809 0.417108 0.296567
0.468286 0.417016 0.297382
0.268278 0.467666 0.29302
0.318153 0.467604 0.293877
0.368166 0.467317 0.295017
0.418228 0.467105 0.295786
0.468167 0.466885 0.296818
0.468319 0.416547 0.418415
0.268269 0.417624 0.414767
0.31855 0.417476 0.415676
0.368296 0.417088 0.416724
0.418482 0.416969 0.417454
0.268515 0.467563 0.414092
0.318351 0.467197 0.415148
0.368443 0.467173 0.416035
0.418266 0.466822 0.417107
0.468471 0.466675 0.417864
0.267579 0.517987 0.050175
0.317943 0.518019 0.050808
0.36762 0.517628 0.0516736
0.417858 0.517616 0.0526572
0.467648 0.517284 0.0534663
0.267775 0.568121 0.0493929
0.317594 0.567838 0.050249
0.36772 0.567855 0.0511619
0.417531 0.567457 0.0520119
0.467677 0.567369 0.0528677
0.267464 0.617964 0.0489024
0.317625 0.617987 0.0498064
0.367416 0.617646 0.0507171
0.417407 0.617701 0.0514581
0.467284 0.617217 0.0524447
0.267964 0.51779 0.171089
0.318014 0.517705 0.171944
0.36795 0.517388 0.172922
0.417939 0.517281 0.173857
0.467935 0.517004 0.174727
0.267939 0.567758 0.170488
0.317868 0.567627 0.171375
0.367857 0.567588 0.172379
0.417816 0.567183 0.173332
0.467731 0.567022 0.174134
0.267796 0.617778 0.169781
0.3178 0.61762 0.170875
0.367586 0.617408 0.171726
0.417632 0.617418 0.172724
0.467508 0.616904 0.173545
0.268229 0.517616 0.292254
0.318073 0.517388 0.293263
0.368177 0.51731 0.294398
0.418058 0.517025 0.295429
0.468105 0.516889 0.296289
0.268127 0.567474 0.291538
0.318123 0.567428 0.292422
0.367984 0.5672 0.293555
0.417936 0.566972 0.294461
0.467895 0.56669 0.295302
0.268038 0.617558 0.290871
0.317842 0.617417 0.291901
0.367778 0.617294 0.292756
0.417644 0.616962 0.293642
0.467723 0.616747 0.294681
0.268378 0.517381 0.413292
0.31844 0.517348 0.414493
0.368299 0.51708 0.415255
0.418415 0.516917 0.41659
0.468234 0.51665 0.417257
0.26845 0.567399 0.412565
0.31817 0.567106 0.41367
0.368229 0.567097 0.414729
0.418112 0.566791 0.415638
0.468238 0.56664 0.416205
0.268154 0.617172 0.411922
0.318042 0.617204 0.412892
0.367832 0.616932 0.413838
0.417908 0.616894 0.414736
0.467809 0.616482 0.415411
0.267465 0.668191 0.0484177
0.31733 0.667954 0.0494136
0.367298 0.66786 0.0502201
0.417018 0.667564 0.0509441
0.467278 0.667344 0.0519828
0.267538 0.71795 0.0490024
0.317574 0.717743 0.0499203
0.367406 0.717553 0.0507717
0.417453 0.717285 0.0515369
0.467306 0.71695 0.052323
0.267623 0.667875 0.169335
0.317434 0.667686 0.170386
0.367288 0.667498 0.17135
0.417264 0.667224 0.172121
0.467297 0.667046 0.173198
0.267692 0.717911 0.169756
0.317345 0.717675 0.170751
0.367451 0.717468 0.171577
0.417285 0.717222 0.172557
0.467456 0.716959 0.173275
0.267758 0.667663 0.290505
0.317511 0.667477 0.291553
0.367418 0.667237 0.292423
0.417426 0.667145 0.293179
0.467391 0.666769 0.294103
0.267595 0.717814 0.290911
0.317472 0.71764 0.29183
0.367407 0.717285 0.292584
0.417494 0.717189 0.293478
0.467373 0.716878 0.294395
0.467581 0.666627 0.41504
0.267905 0.667472 0.411383
0.317591 0.667227 0.412349
0.367632 0.667044 0.413281
0.41752 0.666748 0.414098
0.267667 0.717766 0.412014
0.317548 0.71756 0.41278
0.367424 0.717383 0.413543
0.417361 0.717086 0.414408
0.46751 0.716852 0.415356
0.268156 0.767399 0.0503843
0.318161 0.767222 0.0517627
0.368156 0.767082 0.05237
0.41813 0.766805 0.0530826
0.468102 0.766553 0.0538951
0.268475 0.817192 0.0525357
0.318553 0.817205 0.0534941
0.368595 0.816977 0.054368
0.418519 0.816858 0.0553322
0.468603 0.816416 0.0558631
0.26902 0.867233 0.0542425
0.319108 0.867003 0.0554217
0.369013 0.86706 0.0560402
0.41911 0.866656 0.0569807
0.469122 0.866573 0.05742
0.268232 0.767393 0.171749
0.318051 0.76739 0.172962
0.368181 0.767136 0.17337
0.417978 0.766977 0.174627
0.4681 0.766674 0.17512
0.268544 0.817509 0.173567
0.318655 0.817208 0.174497
0.368577 0.817196 0.175637
0.418653 0.816994 0.176133
0.468705 0.816753 0.17716
0.269242 0.867345 0.175247
0.319084 0.867285 0.176035
0.369242 0.867228 0.177146
0.419267 0.867099 0.177989
0.469274 0.86665 0.178486
0.268054 0.767614 0.293246
0.318223 0.767393 0.293795
0.368058 0.76728 0.294848
0.41828 0.766927 0.295546
0.468071 0.766835 0.296715
0.268701 0.81771 0.294442
0.318722 0.817656 0.295719
0.368779 0.817375 0.296419
0.41867 0.817336 0.297337
0.468841 0.816894 0.297933
0.269204 0.867767 0.296216
0.319417 0.867552 0.297234
0.369392 0.86752 0.298041
0.419514 0.867246 0.298938
0.469342 0.867101 0.299821
0.268113 0.767757 0.413666
0.318214 0.767517 0.414786
0.368117 0.767417 0.415282
0.418295 0.767116 0.416439
0.468201 0.766894 0.41696
0.268911 0.817907 0.415663
0.318953 0.817958 0.416343
0.368889 0.817672 0.41736
0.418965 0.81758 0.417677
0.469046 0.817177 0.41895
0.269416 0.868013 0.417136
0.319658 0.867838 0.418275
0.369484 0.867752 0.418907
0.419743 0.86743 0.419988
0.469568 0.867302 0.420499
0.469854 0.916533 0.0592237
0.269693 0.917133 0.0557976
0.319699 0.917265 0.0567271
0.369811 0.91706 0.0578283
0.419692 0.916939 0.0587143
0.269912 0.967563 0.0568983
0.320034 0.967467 0.0577897
0.369969 0.967437 0.0587742
0.420226 0.967254 0.0595833
0.469987 0.96712 0.0604258
0.269846 0.91746 0.176612
0.319758 0.917383 0.177842
0.369877 0.91732 0.178644
0.419788 0.9171 0.179445
0.469876 0.916917 0.180368
0.269938 0.967602 0.177682
0.320061 0.96745 0.178682
0.370112 0.96742 0.179639
0.420172 0.967233 0.180712
0.470183 0.966968 0.181252
0.269871 0.917586 0.297831
0.319841 0.917683 0.298917
0.369979 0.917469 0.2997
0.269986 0.967573 0.298627
0.320017 0.967546 0.299701
0.419938 0.917382 0.300673
0.469957 0.917127 0.301358
0.370123 0.967444 0.300485
0.420102 0.967299 0.30156
0.47017 0.967024 0.302384
0.269957 0.917975 0.418955
0.319954 0.9179 0.419888
0.370163 0.917705 0.42079
0.420049 0.917583 0.42163
0.470068 0.917268 0.422569
0.269777 0.967699 0.419579
0.320014 0.967522 0.420499
0.370076 0.967461 0.421511
0.420155 0.967244 0.422479
0.470007 0.967118 0.423276
0.519415 0.0170166 0.0607391
0.569204 0.0168998 0.0613342
0.619137 0.0167176 0.0624658
0.668971 0.0164681 0.0626555
0.718781 0.0156088 0.0630379
0.51874 0.0671534 0.0600927
0.56858 0.0671794 0.0614394
0.618528 0.0669903 0.0620749
0.668522 0.0667911 0.0630165
0.718503 0.0663342 0.0645872
0.518444 0.117293 0.0597295
0.568219 0.117017 0.0607164
0.618267 0.116676 0.0616617
0.66839 0.116301 0.0625878
0.718278 0.115973 0.0637165
0.519478 0.0168185 0.181325
0.569292 0.0165978 0.182646
0.619259 0.0167272 0.182968
0.668991 0.0165028 0.184123
0.718794 0.0157292 0.185952
0.518859 0.066911 0.181368
0.568945 0.0669509 0.182344
0.618639 0.0666302 0.183035
0.668913 0.0664522 0.183812
0.71841 0.0660424 0.18519
0.51858 0.117042 0.180937
0.568536 0.11672 0.181912
0.618512 0.116632 0.182667
0.668601 0.116217 0.183328
0.718445 0.115877 0.185069
0.519408 0.0166273 0.302811
0.569546 0.0165459 0.30368
0.619211 0.0165282 0.304622
0.669395 0.0163585 0.304952
0.718773 0.0155832 0.306135
0.519158 0.0667061 0.302412
0.568926 0.0665271 0.303446
0.618991 0.0665006 0.304116
0.668891 0.0663407 0.305312
0.718484 0.065961 0.306815
0.518776 0.116567 0.30214
0.568807 0.116485 0.303059
0.618707 0.116383 0.3039
0.668768 0.116167 0.304952
0.718273 0.115872 0.305972
0.519496 0.0164866 0.424126
0.56948 0.0163576 0.424935
0.619319 0.0163096 0.425857
0.669106 0.0162753 0.426987
0.718554 0.0155105 0.428685
0.519176 0.0663647 0.423616
0.569253 0.0662777 0.424295
0.61905 0.0662384 0.425307
0.669091 0.0660035 0.426368
0.718264 0.065891 0.42744
0.519073 0.116473 0.423327
0.569032 0.116256 0.424186
0.618918 0.11618 0.42502
0.668797 0.116169 0.426263
0.718234 0.115704 0.42703
0.66821 0.166231 0.0619269
0.718218 0.165688 0.0630985
0.518047 0.167221 0.059057
0.568108 0.167118 0.0601284
0.617897 0.166677 0.0614394
0.518013 0.217122 0.0586013
0.567865 0.216733 0.059692
0.617898 0.216482 0.0604313
0.668145 0.215952 0.0617863
0.718083 0.215545 0.0624405
0.61818 0.166395 0.182192
0.66843 0.16619 0.183126
0.718392 0.165628 0.183945
0.518409 0.166898 0.180431
0.568368 0.166727 0.181551
0.518243 0.216841 0.179837
0.568075 0.216558 0.180985
0.618172 0.216364 0.181792
0.668326 0.215861 0.182236
0.718286 0.215344 0.183564
0.568538 0.166418 0.302613
0.618574 0.16631 0.30347
0.668533 0.166027 0.304035
0.718325 0.165567 0.305171
0.518612 0.166714 0.301587
0.518341 0.216658 0.301172
0.5684 0.216458 0.30201
0.618404 0.216107 0.302827
0.668536 0.215881 0.303509
0.718266 0.215476 0.304688
0.518749 0.16636 0.422585
0.568889 0.16631 0.423417
0.618712 0.166123 0.424304
0.668741 0.16604 0.425233
0.718121 0.165655 0.426104
0.518679 0.216658 0.422125
0.568568 0.216274 0.422988
0.618648 0.216075 0.423806
0.668613 0.215762 0.424926
0.718124 0.21538 0.425405
0.5178 0.26698 0.0581989
0.567814 0.26681 0.0590576
0.617598 0.266413 0.0602136
0.668046 0.26601 0.0607302
0.718105 0.26532 0.0619295
0.517863 0.317026 0.0573675
0.567657 0.316602 0.0584483
0.617683 0.316287 0.0590024
0.667955 0.315726 0.060306
0.718171 0.315202 0.0612816
0.517724 0.367079 0.0566746
0.56781 0.366766 0.0576596
0.617648 0.366296 0.0586563
0.667994 0.36579 0.0592373
0.718137 0.365096 0.0606089
0.518011 0.266782 0.179359
0.568029 0.266679 0.18038
0.61798 0.266133 0.180973
0.668181 0.265901 0.181957
0.718218 0.265254 0.182899
0.518062 0.316796 0.178534
0.567944 0.316455 0.179444
0.618109 0.316108 0.180372
0.668183 0.315599 0.18073
0.71814 0.315082 0.182364
0.517984 0.366773 0.177673
0.568124 0.366505 0.178732
0.617896 0.366066 0.179487
0.668157 0.36569 0.180308
0.718096 0.364986 0.181455
0.518111 0.316499 0.299587
0.518306 0.366645 0.298943
0.518295 0.266726 0.30044
0.568252 0.266394 0.30144
0.618368 0.26609 0.30213
0.668303 0.265589 0.302792
0.7181 0.265177 0.304037
0.568241 0.316424 0.300748
0.618249 0.315936 0.301316
0.668416 0.31571 0.302244
0.718108 0.315166 0.30325
0.56823 0.366266 0.300033
0.618259 0.365975 0.300611
0.668248 0.365495 0.301149
0.718114 0.36501 0.302618
0.518408 0.266442 0.421394
0.568718 0.266353 0.422298
0.618441 0.266025 0.422973
0.668589 0.265674 0.423994
0.718121 0.265269 0.424739
0.518596 0.316497 0.42072
0.568487 0.316172 0.421671
0.618518 0.315918 0.422441
0.668576 0.315672 0.423301
0.718047 0.315091 0.424045
0.518391 0.366384 0.419997
0.568524 0.366163 0.420975
0.618481 0.365852 0.421609
0.668539 0.36567 0.422333
0.718027 0.365131 0.423357
0.567761 0.416648 0.057058
0.617909 0.416234 0.0576922
0.66797 0.415622 0.0588635
0.718026 0.415021 0.0597573
0.517815 0.417113 0.0559677
0.517686 0.466944 0.05506
0.567841 0.466845 0.0561421
0.617608 0.46641 0.0573058
0.668016 0.46583 0.0581297
0.718011 0.465094 0.0592137
0.568022 0.41643 0.177935
0.61804 0.416156 0.178895
0.668121 0.415481 0.179474
0.71813 0.415025 0.180664
0.51798 0.41686 0.177148
0.517848 0.466741 0.176379
0.568001 0.466555 0.177152
0.617915 0.466092 0.177868
0.668217 0.465764 0.178812
0.718074 0.465021 0.179897
0.518201 0.416566 0.298292
0.568247 0.416326 0.298996
0.618164 0.415872 0.299736
0.518327 0.466717 0.297386
0.568209 0.466303 0.298384
0.618334 0.466063 0.29906
0.668239 0.465393 0.299631
0.668403 0.415532 0.300672
0.718082 0.415027 0.301634
0.71802 0.464893 0.300926
0.518596 0.416423 0.419252
0.568452 0.416121 0.420191
0.618565 0.415918 0.420833
0.668534 0.415512 0.42186
0.718079 0.414966 0.422524
0.51837 0.466351 0.418609
0.568563 0.466162 0.419166
0.618363 0.465863 0.420046
0.66851 0.465513 0.42084
0.71797 0.465081 0.421732
0.517836 0.517052 0.0544906
0.567536 0.516655 0.0554835
0.617773 0.516377 0.056245
0.667959 0.515707 0.0575286
0.718079 0.515211 0.0585767
0.517545 0.56697 0.0537407
0.567691 0.566989 0.0547787
0.617651 0.566481 0.0560448
0.668056 0.565994 0.0566502
0.717938 0.565318 0.0580554
0.517446 0.617038 0.0533913
0.567541 0.616716 0.0543845
0.617729 0.61652 0.055295
0.667944 0.615906 0.05668
0.718094 0.615222 0.0575655
0.51791 0.51687 0.175631
0.567864 0.516504 0.176343
0.61803 0.516236 0.177074
0.66811 0.515589 0.177797
0.718168 0.515085 0.179486
0.517765 0.566695 0.174944
0.567941 0.566703 0.175915
0.617932 0.566182 0.17689
0.668181 0.56585 0.177737
0.718139 0.565193 0.178716
0.517589 0.616779 0.174442
0.567704 0.616478 0.175425
0.618063 0.616439 0.176197
0.668129 0.615805 0.176942
0.71816 0.61523 0.178379
0.518058 0.516575 0.296827
0.568252 0.516379 0.297611
0.618197 0.516067 0.298279
0.668293 0.515722 0.299302
0.518082 0.566639 0.296148
0.568127 0.566369 0.296981
0.618287 0.56617 0.297934
0.668252 0.565647 0.298252
0.718126 0.565032 0.299747
0.517694 0.616492 0.295486
0.568026 0.616385 0.296284
0.61824 0.61623 0.297312
0.668383 0.615941 0.298223
0.718129 0.615227 0.299363
0.718067 0.51504 0.300255
0.51841 0.516519 0.417858
0.56844 0.516245 0.418606
0.618532 0.515975 0.419339
0.668524 0.515585 0.420505
0.71797 0.514953 0.421094
0.518194 0.566433 0.417125
0.568531 0.566277 0.417834
0.618361 0.566009 0.418678
0.668577 0.565683 0.419804
0.717974 0.565208 0.420628
0.518102 0.616456 0.416429
0.568128 0.6161 0.417306
0.61845 0.616159 0.418047
0.668506 0.61585 0.419301
0.718054 0.61526 0.419882
0.617315 0.666522 0.0550289
0.66823 0.666037 0.0564723
0.71791 0.665348 0.0570408
0.517059 0.666974 0.0528413
0.567299 0.666765 0.0538969
0.517467 0.716742 0.0532611
0.567415 0.716455 0.0543988
0.617812 0.716176 0.0549944
0.668038 0.71599 0.0564123
0.718751 0.715542 0.0576199
0.517338 0.666608 0.173967
0.567398 0.666494 0.175042
0.617672 0.66613 0.175519
0.668177 0.66603 0.176326
0.718157 0.665233 0.17782
0.517278 0.716608 0.174401
0.567606 0.716307 0.175171
0.617647 0.716126 0.176218
0.667874 0.716036 0.176331
0.718542 0.715315 0.177463
0.517433 0.666515 0.295164
0.56766 0.666287 0.295992
0.617806 0.666036 0.296801
0.668433 0.666155 0.297623
0.718079 0.665307 0.298651
0.517488 0.716601 0.295136
0.567464 0.716191 0.296067
0.617818 0.71609 0.296877
0.667874 0.715714 0.297762
0.718673 0.715432 0.299123
0.517586 0.666194 0.415849
0.567888 0.666144 0.416951
0.617959 0.665918 0.417648
0.668517 0.665972 0.418241
0.71809 0.665511 0.419671
0.517516 0.716588 0.416067
0.567629 0.716167 0.41708
0.617863 0.7161 0.417929
0.668153 0.715847 0.418728
0.718724 0.71529 0.419002
0.518105 0.766172 0.0551234
0.568217 0.765973 0.0558066
0.61835 0.76576 0.057349
0.668578 0.765929 0.0579117
0.718963 0.766661 0.0577129
0.518652 0.816279 0.0569778
0.5687 0.815922 0.0577306
0.618633 0.815857 0.0586862
0.668658 0.816308 0.0592877
0.719157 0.816661 0.0594796
0.51912 0.866114 0.0586775
0.569037 0.866017 0.0595672
0.618872 0.865846 0.0604017
0.668735 0.866213 0.0611239
0.719181 0.866417 0.0609844
0.517991 0.766391 0.176291
0.568355 0.765934 0.176981
0.61826 0.765962 0.178088
0.668583 0.766076 0.178519
0.718989 0.76656 0.179543
0.518721 0.816335 0.177939
0.568716 0.816125 0.17886
0.61886 0.816024 0.179695
0.668791 0.816343 0.180358
0.719357 0.816632 0.18014
0.519268 0.866507 0.179567
0.569165 0.866221 0.180484
0.618898 0.866354 0.181369
0.668961 0.866591 0.181974
0.719128 0.866689 0.182136
0.518329 0.766402 0.297174
0.568223 0.766326 0.298554
0.618476 0.765958 0.298966
0.718856 0.766626 0.299114
0.518829 0.816735 0.298967
0.568956 0.816368 0.2998
0.668725 0.76619 0.300134
0.618911 0.816412 0.300799
0.668947 0.81658 0.300982
0.7194 0.816706 0.301087
0.519411 0.866683 0.300568
0.569292 0.866548 0.301524
0.61927 0.866437 0.302531
0.669124 0.866552 0.303174
0.719211 0.866658 0.3029
0.518451 0.766463 0.417944
0.56836 0.766361 0.418831
0.618662 0.766229 0.419684
0.668639 0.76649 0.419701
0.719211 0.76656 0.419996
0.518985 0.816933 0.419483
0.569028 0.816576 0.420795
0.619222 0.81652 0.421456
0.669222 0.816374 0.421967
0.71956 0.816633 0.421324
0.519653 0.866953 0.421528
0.569395 0.866805 0.422293
0.619564 0.866667 0.423109
0.669395 0.866743 0.423856
0.719283 0.866513 0.423782
0.519678 0.916423 0.0603253
0.569597 0.916265 0.0613064
0.619181 0.916449 0.0622326
0.668979 0.916319 0.0625915
0.718926 0.9163 0.0624818
0.519996 0.966855 0.0612982
0.569748 0.966779 0.0624438
0.619548 0.966803 0.0629571
0.669199 0.966805 0.063871
0.71845 0.967059 0.0641331
0.56959 0.916604 0.182094
0.619494 0.916501 0.183042
0.669118 0.916466 0.183719
0.718967 0.916573 0.183566
0.519817 0.916683 0.181265
0.52009 0.966952 0.182336
0.569874 0.966804 0.183156
0.619626 0.966829 0.184121
0.669334 0.966932 0.184336
0.718566 0.96712 0.183918
0.669347 0.916654 0.304684
0.719145 0.91657 0.304601
0.519888 0.916955 0.302459
0.569845 0.916762 0.303081
0.61958 0.916683 0.304207
0.520094 0.966987 0.303242
0.569999 0.966918 0.304389
0.619827 0.966882 0.305197
0.669474 0.966718 0.305997
0.718701 0.966977 0.306675
0.519951 0.917133 0.423206
0.569892 0.916918 0.424268
0.619829 0.916908 0.424947
0.669617 0.916689 0.426032
0.719145 0.916694 0.425903
0.520039 0.966962 0.424225
0.569965 0.966823 0.425053
0.619785 0.966685 0.425937
0.669708 0.966843 0.426903
0.718883 0.966721 0.426227
0.768272 0.015827 0.0632854
0.817998 0.016089 0.0624821
0.867882 0.0164161 0.0611872
0.917764 0.0166718 0.0596791
0.967768 0.0170643 0.0582637
0.768478 0.066349 0.064071
0.818236 0.0664956 0.0626566
0.86811 0.0666455 0.0612167
0.917938 0.0670545 0.0599146
0.968034 0.0672314 0.0583319
0.768545 0.116259 0.0633245
0.818647 0.116431 0.0621708
0.868431 0.116819 0.0608424
0.918514 0.116932 0.0591657
0.968489 0.117294 0.0576564
0.768006 0.0160353 0.184694
0.817816 0.0160857 0.183508
0.867803 0.0164239 0.182054
0.917733 0.0167158 0.180727
0.967663 0.0172095 0.179081
0.768187 0.0659998 0.184903
0.817967 0.0661899 0.183769
0.867859 0.0665584 0.182336
0.917752 0.0668059 0.180699
0.967897 0.0671635 0.179322
0.768394 0.115965 0.18417
0.818262 0.116313 0.183367
0.868284 0.116495 0.181823
0.918215 0.116805 0.180333
0.968268 0.116971 0.178806
0.767897 0.0157325 0.305953
0.817786 0.0160172 0.304582
0.86775 0.0162876 0.303127
0.917617 0.0167011 0.301535
0.967841 0.0169854 0.300229
0.768039 0.0659955 0.306361
0.81789 0.0660294 0.304938
0.867754 0.0662559 0.303498
0.917676 0.0666171 0.301912
0.967804 0.0667921 0.300228
0.768243 0.115862 0.305503
0.81814 0.116003 0.304177
0.868038 0.116495 0.302937
0.918154 0.116354 0.301329
0.968029 0.116823 0.300104
0.76794 0.015239 0.427819
0.817866 0.0158875 0.425903
0.867715 0.0161831 0.423905
0.917807 0.0165159 0.422343
0.967771 0.0168497 0.420965
0.767916 0.065699 0.427193
0.817652 0.0658478 0.425833
0.867654 0.0659465 0.424564
0.917468 0.0662826 0.422899
0.967826 0.0664981 0.421576
0.768022 0.115681 0.426518
0.817999 0.115904 0.425303
0.867804 0.116167 0.423854
0.917991 0.116188 0.42238
0.967814 0.116477 0.420895
0.768609 0.165908 0.0625942
0.818649 0.166507 0.0614114
0.868751 0.166619 0.0600817
0.918598 0.167061 0.058781
0.968946 0.167114 0.0575182
0.768584 0.215833 0.0619817
0.818857 0.216235 0.0607179
0.868776 0.216691 0.0592571
0.918937 0.216737 0.0579062
0.968832 0.217183 0.0565639
0.7683 0.165832 0.183531
0.818415 0.166167 0.182252
0.868495 0.166592 0.181149
0.918438 0.166751 0.179703
0.968551 0.166958 0.178298
0.768355 0.215649 0.182936
0.818348 0.216171 0.181715
0.868595 0.216471 0.180267
0.918592 0.216776 0.17908
0.968759 0.216994 0.17767
0.968378 0.166678 0.299549
0.96839 0.216863 0.299046
0.768191 0.165672 0.304708
0.81818 0.1662 0.303634
0.868305 0.166342 0.302286
0.918256 0.166634 0.300806
0.768142 0.215554 0.303981
0.81834 0.215964 0.302792
0.868372 0.216307 0.301627
0.918397 0.216473 0.300266
0.76811 0.165443 0.425863
0.817967 0.165919 0.424616
0.868146 0.166084 0.423317
0.91797 0.166321 0.421816
0.968177 0.166429 0.420393
0.767889 0.215396 0.424958
0.818089 0.215711 0.423872
0.86806 0.216141 0.42259
0.918263 0.216245 0.421295
0.968079 0.216668 0.419928
0.768624 0.265584 0.0611948
0.818639 0.266192 0.0599907
0.868966 0.266383 0.0586071
0.918766 0.266926 0.0573065
0.968957 0.267138 0.0560737
0.768509 0.315418 0.0607281
0.818748 0.315841 0.0595406
0.868698 0.316494 0.0580089
0.91884 0.316782 0.056731
0.968669 0.317363 0.0551402
0.768618 0.365261 0.0600371
0.818507 0.365934 0.0587091
0.868757 0.366339 0.0574208
0.918568 0.367024 0.0559477
0.968703 0.367376 0.0545822
0.768276 0.265421 0.182337
0.818558 0.265961 0.181003
0.868685 0.266433 0.179739
0.918665 0.266628 0.178309
0.968544 0.26695 0.176874
0.768255 0.315266 0.181749
0.81838 0.315869 0.180521
0.868637 0.316285 0.179022
0.918595 0.316746 0.177655
0.968531 0.317141 0.176248
0.768117 0.365168 0.181041
0.818398 0.365772 0.179712
0.868332 0.366391 0.178322
0.918489 0.366649 0.176919
0.968407 0.36726 0.175654
0.918268 0.266615 0.299726
0.968411 0.266899 0.298298
0.91837 0.316536 0.298875
0.968226 0.31697 0.297399
0.868199 0.366079 0.299699
0.918082 0.366563 0.298107
0.968102 0.366946 0.29674
0.768115 0.265299 0.303375
0.818222 0.265846 0.302092
0.868438 0.266144 0.300834
0.768143 0.31523 0.302872
0.818238 0.315673 0.301408
0.86824 0.316224 0.300079
0.76808 0.365116 0.302064
0.818063 0.365689 0.300964
0.767946 0.265142 0.424388
0.817938 0.265575 0.423203
0.868193 0.265878 0.422009
0.918046 0.266405 0.420659
0.968177 0.266617 0.419449
0.767783 0.315111 0.423723
0.818048 0.315403 0.422582
0.868001 0.316048 0.421236
0.918168 0.316299 0.420087
0.967993 0.316767 0.418683
0.767794 0.364967 0.423138
0.817846 0.365423 0.421841
0.868013 0.365805 0.420556
0.917882 0.366403 0.419227
0.968044 0.366664 0.417872
0.768358 0.41534 0.0594063
0.818582 0.41586 0.0581357
0.868502 0.416498 0.0565957
0.918655 0.416866 0.0549935
0.968433 0.417388 0.053701
0.768413 0.465321 0.0586256
0.818425 0.465984 0.0571647
0.868538 0.46634 0.0559024
0.918453 0.467026 0.0543452
0.968588 0.46731 0.0532557
0.768165 0.41519 0.180011
0.818163 0.415788 0.17899
0.868378 0.416213 0.177478
0.91829 0.416819 0.176096
0.968358 0.417168 0.174967
0.768089 0.465115 0.17951
0.818255 0.465695 0.178198
0.868264 0.466236 0.176836
0.91834 0.466621 0.175481
0.968204 0.467071 0.174122
0.868051 0.416139 0.298961
0.918081 0.416543 0.29734
0.968039 0.416999 0.296324
0.817924 0.465661 0.299256
0.868049 0.466095 0.298096
0.917965 0.466666 0.296922
0.96806 0.466956 0.295533
0.768002 0.415163 0.301214
0.81808 0.415534 0.300146
0.767967 0.465047 0.300386
0.767774 0.414991 0.422338
0.817822 0.415327 0.421006
0.867825 0.416027 0.420018
0.917963 0.416253 0.418649
0.967792 0.416941 0.417096
0.767794 0.464938 0.42159
0.817671 0.465477 0.420391
0.867846 0.465828 0.419037
0.91778 0.466422 0.418003
0.967872 0.466719 0.416624
0.768353 0.515473 0.0580211
0.818527 0.515923 0.0566178
0.868293 0.516554 0.0551895
0.91849 0.516882 0.0538617
0.968438 0.517356 0.0524282
0.768495 0.565433 0.0573989
0.818453 0.566113 0.0561479
0.868536 0.566572 0.0545426
0.918442 0.567049 0.0532829
0.96858 0.567428 0.0521599
0.768545 0.615509 0.0567562
0.818581 0.616144 0.0555174
0.868595 0.616706 0.0541111
0.918642 0.616991 0.0527956
0.968698 0.617422 0.0514826
0.768175 0.515234 0.178803
0.818172 0.515741 0.177516
0.868337 0.516298 0.176219
0.9182 0.516802 0.174885
0.968281 0.517196 0.173337
0.768229 0.565292 0.17832
0.818382 0.565802 0.177029
0.868282 0.566387 0.175633
0.918316 0.566632 0.174269
0.968354 0.567213 0.172954
0.76848 0.615364 0.177791
0.818291 0.615964 0.176313
0.868401 0.616449 0.175026
0.918493 0.616766 0.173818
0.968431 0.617136 0.172453
0.767887 0.515174 0.299873
0.818001 0.515522 0.298659
0.867946 0.516118 0.297533
0.918114 0.516544 0.296107
0.968004 0.516946 0.294565
0.768111 0.56518 0.299381
0.817992 0.565645 0.298068
0.868101 0.566107 0.296961
0.91804 0.566576 0.295617
0.968214 0.566931 0.293941
0.76806 0.615337 0.298873
0.818242 0.615683 0.297516
0.868146 0.616246 0.29632
0.918275 0.616419 0.294898
0.968256 0.616845 0.293609
0.7676 0.515074 0.420904
0.817847 0.515393 0.41974
0.867691 0.51609 0.418495
0.917963 0.516309 0.417341
0.9678 0.516867 0.415873
0.767724 0.564999 0.420465
0.817791 0.565494 0.419129
0.867924 0.565695 0.417864
0.917755 0.566353 0.416541
0.967952 0.566594 0.415279
0.767765 0.615227 0.419935
0.817936 0.615419 0.418408
0.867929 0.616077 0.417358
0.918097 0.616207 0.415892
0.967923 0.616745 0.414706
0.768556 0.665933 0.0563997
0.818528 0.666481 0.0550295
0.868728 0.666674 0.0539779
0.918718 0.667076 0.0524941
0.968842 0.667199 0.0509761
0.76848 0.71609 0.0555546
0.818854 0.716473 0.054641
0.868864 0.716773 0.0535291
0.918873 0.716991 0.0520116
0.968858 0.71711 0.0503442
0.768469 0.665577 0.177328
0.818449 0.666108 0.17612
0.868576 0.666405 0.174587
0.918674 0.666717 0.173348
0.968728 0.667084 0.17179
0.768734 0.715916 0.177368
0.818676 0.716345 0.175754
0.868986 0.716571 0.174659
0.918887 0.716807 0.172918
0.969023 0.716996 0.171923
0.768308 0.665481 0.298203
0.818209 0.666049 0.297127
0.868551 0.666095 0.295727
0.918441 0.666619 0.294336
0.968532 0.666711 0.293272
0.768216 0.715844 0.297688
0.818822 0.716026 0.296759
0.868674 0.716371 0.29531
0.918954 0.716606 0.294575
0.968789 0.716829 0.292822
0.767958 0.665096 0.41896
0.818143 0.665762 0.418005
0.868278 0.665779 0.416602
0.918343 0.666277 0.415367
0.968366 0.6664 0.41405
0.768202 0.715715 0.419445
0.818863 0.715963 0.41729
0.868689 0.716226 0.416377
0.918804 0.716386 0.414926
0.968655 0.716717 0.413892
0.768943 0.766044 0.0557953
0.819364 0.766041 0.0545676
0.869357 0.766258 0.0530493
0.91945 0.766401 0.0515913
0.969223 0.766498 0.0500763
0.769262 0.816065 0.0571722
0.819488 0.815882 0.0550943
0.869488 0.816032 0.0540178
0.919415 0.816117 0.0523406
0.969448 0.816413 0.0507019
0.768987 0.865925 0.0587366
0.819319 0.865903 0.0572731
0.869284 0.865952 0.0559708
0.91926 0.866382 0.0539563
0.969107 0.866482 0.0526359
0.769122 0.765941 0.176686
0.819273 0.766197 0.175254
0.869464 0.766235 0.173993
0.919411 0.76629 0.172459
0.969338 0.766526 0.170745
0.768934 0.81598 0.178155
0.819401 0.81606 0.176667
0.869428 0.816211 0.174879
0.919328 0.816425 0.173284
0.969346 0.816588 0.171594
0.76883 0.866134 0.179882
0.8191 0.866215 0.17803
0.869097 0.866268 0.17679
0.919132 0.866645 0.174952
0.9689 0.866713 0.173401
0.769208 0.76609 0.297348
0.819362 0.766093 0.296006
0.869385 0.766389 0.294761
0.919489 0.766408 0.293339
0.969331 0.766552 0.292038
0.769057 0.81601 0.298947
0.819336 0.816351 0.297277
0.869351 0.816427 0.29582
0.919337 0.816631 0.294353
0.969133 0.816804 0.292636
0.818911 0.866233 0.299127
0.868921 0.866646 0.297671
0.918916 0.866917 0.296036
0.968991 0.867018 0.294126
0.768835 0.866472 0.300673
0.769213 0.766122 0.41872
0.819336 0.766063 0.417179
0.869414 0.766338 0.415608
0.919377 0.76654 0.414338
0.969138 0.766562 0.41277
0.768801 0.815793 0.420399
0.819202 0.816333 0.418339
0.869356 0.816728 0.416878
0.919131 0.816925 0.415173
0.968977 0.817021 0.413702
0.768771 0.86639 0.421906
0.818754 0.866541 0.420043
0.868749 0.866825 0.418435
0.918893 0.867198 0.416667
0.968682 0.867237 0.415194
0.768674 0.916197 0.0603411
0.818973 0.915918 0.0590643
0.86896 0.916177 0.0575364
0.918945 0.916427 0.0560768
0.968886 0.916758 0.0544099
0.768335 0.966051 0.0621999
0.818618 0.966183 0.0607057
0.868361 0.966382 0.0594187
0.918522 0.966778 0.0575171
0.968472 0.966998 0.0562602
0.768788 0.916332 0.180978
0.818704 0.916111 0.17975
0.868811 0.916482 0.178361
0.918735 0.916668 0.176812
0.968816 0.91706 0.175183
0.768179 0.966327 0.182317
0.818412 0.96644 0.181496
0.868283 0.96653 0.179645
0.918506 0.96688 0.178352
0.968306 0.967055 0.176635
0.868586 0.916691 0.299392
0.91872 0.917022 0.297892
0.968807 0.917196 0.295928
0.918352 0.966872 0.299257
0.968617 0.967386 0.29809
0.768606 0.916407 0.302237
0.818641 0.91643 0.301036
0.76836 0.966472 0.304239
0.818215 0.966477 0.30239
0.868417 0.966684 0.300839
0.768553 0.916245 0.423827
0.818567 0.916409 0.421769
0.868511 0.916778 0.42037
0.918599 0.917088 0.418503
0.968721 0.917356 0.417116
0.767989 0.966706 0.42594
0.818401 0.966454 0.423984
0.868273 0.966839 0.422346
0.918322 0.967139 0.420309
0.968439 0.96743 0.419116
0.0404907 0.0398169 0.00121422
0.0412274 0.0901388 0.00116757
0.0402521 0.039848 0.121728
0.0908314 0.0411327 0.120751
0.141179 0.0466507 0.109855
0.191323 0.0458604 0.109181
0.241218 0.045699 0.110241
0.0409299 0.0899872 0.122645
0.0910487 0.090713 0.120316
0.141388 0.0967092 0.109851
0.191129 0.0961276 0.10875
0.241009 0.0957018 0.109252
0.0397642 0.0400795 0.24257
0.0902449 0.0405036 0.239807
0.141262 0.0464087 0.231082
0.191255 0.0455267 0.230777
0.241671 0.0455176 0.231225
0.0405353 0.0896906 0.243126
0.0913855 0.0910757 0.242731
0.141001 0.0961438 0.230185
0.191153 0.0958176 0.229864
0.241163 0.0953665 0.230525
0.0396769 0.0397829 0.363584
0.0907406 0.0407833 0.36085
0.14124 0.045917 0.351298
0.191558 0.0452066 0.351047
0.241317 0.0448628 0.352119
0.0405902 0.0897029 0.365219
0.0908767 0.0905739 0.362032
0.141205 0.0962987 0.351708
0.191226 0.0953813 0.350509
0.241323 0.0951515 0.351411
0.0395682 0.0403068 0.486526
0.0900859 0.0411872 0.481749
0.141331 0.0456407 0.472058
0.191563 0.0447231 0.472234
0.241732 0.0444685 0.473081
0.039946 0.0895439 0.485441
0.0905567 0.0911745 0.485554
0.141185 0.0957254 0.471211
0.191449 0.0951378 0.471983
0.241565 0.0945933 0.472568
0.141006 0.0455219 0.599809
0.140981 0.09573 0.599092
0.191107 0.095071 0.599637
0.0403475 0.0394504 0.615609
0.0914738 0.0399197 0.613464
0.191528 0.0452281 0.600278
0.24123 0.044955 0.601785
0.0405545 0.0898797 0.615809
0.0912054 0.0904264 0.613552
0.241071 0.094855 0.600894
0.0403887 0.0397265 0.745009
0.0911776 0.0405514 0.742545
0.141132 0.0459375 0.728523
0.191204 0.0456505 0.730114
0.241512 0.0453466 0.730197
0.0405786 0.0897268 0.7436
0.0913458 0.0901304 0.742224
0.140836 0.0957154 0.727806
0.19097 0.0954241 0.728944
0.240978 0.0951546 0.729554
0.0405431 0.0395929 0.873786
0.0913027 0.0405452 0.872289
0.140977 0.0459482 0.85806
0.191254 0.0456699 0.858309
0.241297 0.0457816 0.860066
0.0408421 0.0900979 0.873275
0.0914818 0.0905973 0.871955
0.140905 0.0960052 0.857479
0.190969 0.0957187 0.857817
0.240914 0.0954836 0.858682
0.0912294 0.0416586 0.999625
0.141686 0.0467956 0.98721
0.191231 0.046207 0.988169
0.241575 0.0460782 0.988074
0.0925038 0.0909857 0.99998
0.140826 0.0962818 0.986794
0.191067 0.0963485 0.986711
0.240733 0.0959533 0.987549
0.0414528 0.14016 9.8183e-04
0.0415205 0.190203 1.33197e-04
0.0411936 0.139863 0.121506
0.0913739 0.140954 0.120575
0.140832 0.146378 0.107949
0.190881 0.146234 0.108011
0.241041 0.145898 0.108786
0.0412116 0.190254 0.121549
0.0909072 0.190952 0.119279
0.140731 0.196649 0.108249
0.190668 0.196178 0.107248
0.240594 0.195722 0.108151
0.0411462 0.240169 0.120731
0.090978 0.241415 0.119136
0.140572 0.246298 0.106632
0.190402 0.246062 0.106893
0.240617 0.24598 0.107439
0.0406551 0.140027 0.242833
0.0906836 0.1406 0.240809
0.14085 0.146561 0.229832
0.190915 0.146005 0.229647
0.241114 0.145641 0.229943
0.0409007 0.189651 0.242124
0.0908591 0.191135 0.241286
0.14059 0.196216 0.228695
0.190834 0.196168 0.228801
0.240888 0.195664 0.229351
0.0406516 0.240253 0.24189
0.0906623 0.240763 0.239764
0.140711 0.246725 0.228684
0.190551 0.245967 0.228314
0.240657 0.245732 0.228586
0.0404403 0.139636 0.363697
0.0910845 0.140946 0.362923
0.140941 0.146006 0.349865
0.191273 0.145794 0.350186
0.241164 0.145238 0.350566
0.0405228 0.189937 0.363502
0.0905372 0.190711 0.361161
0.140817 0.196327 0.350218
0.19094 0.195756 0.349861
0.241072 0.195509 0.350373
0.0404857 0.239939 0.362877
0.0908827 0.241122 0.361547
0.140735 0.246143 0.348908
0.19105 0.246012 0.349165
0.241071 0.245357 0.349533
0.0400608 0.13988 0.486413
0.0904535 0.140517 0.48385
0.141066 0.145975 0.471075
0.191463 0.145488 0.471657
0.241479 0.144864 0.472059
0.0401346 0.189515 0.484584
0.0902705 0.190881 0.484199
0.140983 0.195859 0.470098
0.191424 0.195423 0.470896
0.241384 0.195058 0.471731
0.0401331 0.240096 0.485481
0.0905788 0.240532 0.483088
0.140837 0.246104 0.470016
0.191324 0.24551 0.470476
0.241287 0.245143 0.471175
0.140709 0.145716 0.59826
0.191223 0.145451 0.599593
0.140919 0.195994 0.598421
0.191103 0.195402 0.598825
0.24108 0.195281 0.599828
0.140619 0.245888 0.597166
0.191088 0.245619 0.598516
0.240916 0.24526 0.599709
0.0403888 0.139667 0.614134
0.0911566 0.140247 0.613036
0.241048 0.144866 0.6001
0.0407011 0.18992 0.614533
0.0911909 0.190489 0.612269
0.0403758 0.23982 0.61303
0.0912464 0.240344 0.611727
0.04073 0.139849 0.744252
0.0912498 0.140441 0.742129
0.140811 0.145939 0.727326
0.19097 0.145586 0.728479
0.240916 0.14526 0.729012
0.0406628 0.189716 0.742399
0.0913208 0.190219 0.741089
0.140787 0.195848 0.726606
0.19092 0.195653 0.727753
0.240819 0.195423 0.728623
0.0408053 0.240125 0.742811
0.0913748 0.240702 0.740648
0.140682 0.246138 0.726236
0.190727 0.245773 0.727229
0.240688 0.245445 0.72822
0.0410298 0.139816 0.872122
0.091452 0.140345 0.870633
0.140661 0.145932 0.856586
0.190854 0.145813 0.857171
0.240686 0.145726 0.858354
0.0410631 0.190247 0.872163
0.0913278 0.190823 0.87009
0.140632 0.196103 0.855819
0.190705 0.195916 0.856553
0.240598 0.195659 0.857549
0.0410093 0.240063 0.870649
0.0912898 0.240536 0.869077
0.140548 0.246105 0.855125
0.190487 0.245968 0.856124
0.240549 0.24571 0.856882
0.0917272 0.141261 0.99894
0.140893 0.146473 0.985521
0.190671 0.146326 0.986445
0.24073 0.146007 0.986838
0.092067 0.190969 0.998329
0.140578 0.196366 0.985078
0.190506 0.196397 0.985317
0.24046 0.19594 0.985812
0.0415091 0.240456 0.999694
0.0917138 0.241448 0.997895
0.140619 0.246609 0.984502
0.190415 0.246225 0.984763
0.24032 0.246079 0.985767
0.0409789 0.290461 0.120212
0.0909309 0.291101 0.118013
0.140598 0.296616 0.106694
0.190582 0.296171 0.105969
0.240375 0.295714 0.106802
0.0410067 0.340332 0.119468
0.0911214 0.341359 0.117972
0.140546 0.346297 0.105297
0.19042 0.34605 0.105475
0.240567 0.345909 0.106145
0.0407584 0.290165 0.241062
0.0907833 0.291347 0.239813
0.140531 0.296293 0.227471
0.190726 0.296137 0.227509
0.240637 0.295745 0.228147
0.0405023 0.340436 0.240533
0.0905906 0.340994 0.238211
0.140468 0.346723 0.227569
0.190552 0.345942 0.227015
0.240666 0.345697 0.227362
0.0403709 0.290217 0.362681
0.0905426 0.29089 0.360101
0.140699 0.296452 0.348843
0.190861 0.295804 0.348469
0.240918 0.295576 0.34904
0.040388 0.340181 0.3613
0.0907249 0.341207 0.360294
0.140679 0.346211 0.347439
0.190771 0.345929 0.347752
0.240805 0.345532 0.348667
0.040047 0.289761 0.483878
0.0902518 0.290933 0.482721
0.140872 0.296004 0.468893
0.191143 0.295468 0.469985
0.241231 0.295252 0.47056
0.0399978 0.340256 0.483829
0.0903904 0.340622 0.481653
0.140706 0.346172 0.468622
0.191149 0.345546 0.469174
0.241073 0.345094 0.47
0.140708 0.296244 0.597312
0.190888 0.295499 0.597857
0.241016 0.295346 0.598804
0.140527 0.346107 0.595934
0.190852 0.345704 0.59759
0.240818 0.345237 0.598159
0.0404423 0.290103 0.613082
0.0910679 0.290625 0.611094
0.0402827 0.340053 0.611445
0.0910089 0.340512 0.610363
0.0406729 0.290082 0.741084
0.0911852 0.290502 0.739535
0.140682 0.296017 0.725442
0.190803 0.295785 0.726561
0.240779 0.29566 0.727704
0.0406954 0.340398 0.741377
0.0911005 0.340841 0.739102
0.140646 0.346236 0.72523
0.190659 0.345812 0.725968
0.240682 0.345482 0.726851
0.0409478 0.290438 0.870779
0.0913233 0.290924 0.868997
0.140517 0.296363 0.854857
0.190648 0.296152 0.855431
0.240499 0.295697 0.856326
0.0409893 0.340193 0.869379
0.0912198 0.340643 0.867575
0.140474 0.346152 0.854054
0.190506 0.346052 0.854855
0.24045 0.345758 0.855813
0.0413204 0.290581 0.998879
0.0919589 0.291109 0.996684
0.140584 0.296451 0.983853
0.190463 0.296393 0.983791
0.240174 0.29596 0.985018
0.04129 0.340506 0.998545
0.0915304 0.341529 0.9965
0.140576 0.346646 0.983388
0.190242 0.346341 0.983574
0.240231 0.346082 0.984553
0.0409234 0.390649 0.118926
0.0907588 0.391145 0.116406
0.140388 0.396431 0.105687
0.190502 0.396182 0.104828
0.240317 0.395673 0.105473
0.0409453 0.440334 0.118044
0.0909121 0.441396 0.116409
0.140418 0.446084 0.103924
0.190227 0.445965 0.104324
0.240535 0.445823 0.104981
0.040863 0.490556 0.117389
0.0907173 0.491111 0.115015
0.140367 0.496439 0.104622
0.190451 0.495914 0.103423
0.240294 0.495511 0.104112
0.0405663 0.390229 0.239431
0.0906791 0.391431 0.23851
0.140446 0.396293 0.226118
0.190584 0.396091 0.226405
0.240646 0.395633 0.226738
0.0404652 0.440348 0.239168
0.0904303 0.441035 0.236854
0.140409 0.446434 0.225968
0.190438 0.445777 0.225506
0.240651 0.445609 0.226308
0.0405273 0.490079 0.238149
0.0907319 0.491294 0.237331
0.140376 0.495959 0.224779
0.190555 0.495954 0.225016
0.240544 0.495416 0.225478
0.0403158 0.390242 0.36106
0.0904285 0.390811 0.358616
0.140476 0.396411 0.347547
0.1908 0.395759 0.34718
0.240786 0.395481 0.347942
0.0402483 0.440103 0.360077
0.090549 0.441283 0.358798
0.140524 0.445974 0.346064
0.190717 0.445844 0.346427
0.240884 0.445306 0.347028
0.0401824 0.49031 0.359737
0.0904087 0.490855 0.357423
0.140445 0.496223 0.346337
0.190663 0.49554 0.346016
0.240699 0.495117 0.346586
0.0399397 0.389847 0.48216
0.0900234 0.391095 0.481224
0.140816 0.395963 0.467535
0.190994 0.395509 0.468582
0.241097 0.395194 0.469558
0.0398496 0.440299 0.482415
0.0902737 0.440571 0.480061
0.140601 0.446025 0.467358
0.19112 0.445457 0.467801
0.240973 0.445029 0.468967
0.0397439 0.489894 0.480935
0.089858 0.491009 0.48013
0.140803 0.495736 0.466348
0.191046 0.495297 0.467263
0.241207 0.494957 0.468002
0.140611 0.396284 0.595783
0.190777 0.395541 0.596811
0.240973 0.39538 0.597761
0.14032 0.445908 0.594978
0.190842 0.445659 0.596337
0.240688 0.445207 0.597217
0.140552 0.496065 0.594742
0.190676 0.495464 0.59535
0.240864 0.495237 0.59636
0.0403051 0.390254 0.611912
0.0909179 0.390773 0.609725
0.0402144 0.440124 0.610153
0.0909269 0.440556 0.609243
0.0403363 0.490218 0.610369
0.0909003 0.490665 0.6084
0.0404471 0.390207 0.739697
0.0909962 0.390611 0.738381
0.140558 0.395999 0.724305
0.190624 0.395753 0.725605
0.240658 0.395664 0.726555
0.0405166 0.440392 0.740285
0.0909804 0.440821 0.738381
0.14038 0.446123 0.724157
0.190517 0.44572 0.725027
0.240607 0.445505 0.725954
0.0402981 0.490189 0.738577
0.0908454 0.49053 0.737148
0.140409 0.495951 0.723456
0.190552 0.495615 0.724394
0.240587 0.495436 0.725313
0.0407866 0.390594 0.869389
0.0911682 0.390959 0.867809
0.140463 0.396317 0.853544
0.190593 0.396125 0.854614
0.240447 0.395711 0.855371
0.0408271 0.44031 0.868172
0.0911101 0.440493 0.866686
0.140403 0.446112 0.852905
0.190463 0.445859 0.853682
0.240468 0.445733 0.85491
0.0407638 0.49054 0.868124
0.0910708 0.490878 0.866704
0.140384 0.496104 0.852505
0.190531 0.495916 0.853289
0.240455 0.495643 0.853975
0.0412539 0.390699 0.997615
0.0917823 0.391189 0.995447
0.140397 0.396321 0.982936
0.190317 0.396226 0.983008
0.240152 0.39593 0.983682
0.0411753 0.440524 0.997165
0.0915091 0.441489 0.995099
0.140459 0.446437 0.982098
0.190218 0.446235 0.98251
0.240267 0.446015 0.983236
0.0410747 0.490658 0.996186
0.0917986 0.491119 0.994496
0.140312 0.496253 0.981746
0.190218 0.496131 0.981877
0.240171 0.49583 0.982552
0.040833 0.540357 0.116693
0.0909755 0.541359 0.11545
0.140389 0.546186 0.102947
0.190406 0.545778 0.102969
0.24046 0.545531 0.103586
0.0410166 0.590448 0.116261
0.0906667 0.591141 0.11407
0.140555 0.596193 0.103107
0.19052 0.59582 0.10231
0.240229 0.595392 0.103043
0.0404407 0.540331 0.237771
0.0904334 0.540892 0.235611
0.140582 0.546354 0.224715
0.190511 0.545699 0.22416
0.240547 0.545345 0.224915
0.0406614 0.589914 0.23707
0.0907568 0.591188 0.236207
0.140352 0.595877 0.223833
0.190561 0.595676 0.223659
0.240437 0.595334 0.224078
0.0402047 0.540073 0.358786
0.0907042 0.541185 0.357738
0.140604 0.545789 0.344903
0.19071 0.54556 0.345409
0.240744 0.545035 0.345816
0.0403758 0.589995 0.358604
0.0904157 0.590838 0.356038
0.140525 0.595876 0.345266
0.190775 0.59531 0.344311
0.240721 0.595119 0.345239
0.0398657 0.540034 0.481473
0.090218 0.540462 0.478913
0.140649 0.545789 0.466486
0.191063 0.545206 0.466431
0.241113 0.544904 0.467514
0.0399022 0.589617 0.479668
0.0901064 0.590829 0.479021
0.140756 0.595493 0.465334
0.191023 0.595122 0.466129
0.241018 0.59473 0.466711
0.140469 0.545666 0.593736
0.190965 0.545495 0.5947
0.2407 0.5451 0.5959
0.14069 0.595791 0.593571
0.19064 0.595302 0.594121
0.240747 0.595161 0.595045
0.0400797 0.540045 0.609156
0.0908417 0.540365 0.607886
0.0403773 0.590084 0.609369
0.0908754 0.590497 0.607239
0.0405131 0.540309 0.738978
0.0909372 0.540736 0.736702
0.140497 0.545966 0.72305
0.190511 0.545583 0.723623
0.240523 0.545348 0.724593
0.0403347 0.590108 0.737074
0.090866 0.590465 0.735896
0.140428 0.595633 0.722344
0.190508 0.595507 0.722906
0.240386 0.595359 0.72367
0.0407311 0.540268 0.866646
0.0909616 0.540534 0.865391
0.140409 0.545943 0.851628
0.190381 0.545766 0.852646
0.240338 0.545664 0.853453
0.0407281 0.590472 0.866708
0.0911083 0.590782 0.865483
0.140335 0.595947 0.851137
0.19035 0.595722 0.851964
0.240286 0.595548 0.852831
0.0412364 0.540593 0.995879
0.0912623 0.541472 0.993697
0.140415 0.546336 0.981024
0.190185 0.545928 0.981313
0.240228 0.545894 0.981874
0.0411224 0.590659 0.995037
0.0917899 0.591137 0.993196
0.140353 0.59606 0.980455
0.190287 0.595922 0.980566
0.240064 0.595595 0.981251
0.0410699 0.640257 0.115742
0.0911265 0.641363 0.11442
0.140293 0.645856 0.101757
0.190149 0.645674 0.101968
0.24023 0.645548 0.102654
0.0412038 0.690259 0.115111
0.0903702 0.691583 0.113533
0.140145 0.695983 0.101922
0.189696 0.69548 0.103058
0.239888 0.695504 0.103085
0.0422543 0.739661 0.114781
0.0933633 0.742152 0.118362
0.144652 0.744865 0.114302
0.194759 0.745361 0.114511
0.244724 0.74491 0.115801
0.0407848 0.640126 0.237161
0.0905043 0.641053 0.234694
0.140612 0.646221 0.224062
0.190385 0.64544 0.223089
0.240417 0.645487 0.224001
0.0413006 0.68973 0.236433
0.0910879 0.691117 0.236156
0.13999 0.695432 0.223743
0.190224 0.695778 0.22367
0.239726 0.695373 0.224885
0.0427608 0.738811 0.235034
0.0934726 0.741895 0.241146
0.144079 0.745769 0.235111
0.194667 0.744947 0.236683
0.245002 0.745433 0.236017
0.0406008 0.639775 0.357995
0.0910354 0.641162 0.357186
0.140538 0.645547 0.344314
0.190726 0.645297 0.344072
0.240504 0.645118 0.344843
0.0409761 0.689675 0.357766
0.0901559 0.691724 0.356451
0.140486 0.695789 0.345084
0.1901 0.695343 0.345096
0.240227 0.695388 0.344998
0.0420351 0.7397 0.357895
0.0933967 0.742169 0.362938
0.144999 0.744854 0.357529
0.19498 0.745681 0.356666
0.244815 0.745218 0.35824
0.0402337 0.639861 0.480544
0.0903315 0.640401 0.477764
0.140635 0.645467 0.465341
0.191016 0.644958 0.465182
0.240873 0.644763 0.466026
0.0407804 0.689582 0.47941
0.0903426 0.690682 0.478929
0.140463 0.695475 0.465324
0.190548 0.695282 0.465529
0.240193 0.695209 0.466239
0.0423859 0.738867 0.479283
0.0933055 0.742373 0.487024
0.144478 0.745939 0.478902
0.195189 0.745801 0.479756
0.245389 0.745661 0.479721
0.140429 0.645429 0.592966
0.190767 0.645326 0.593623
0.240477 0.64511 0.59469
0.140626 0.695654 0.592607
0.190263 0.695312 0.593454
0.240349 0.695463 0.593795
0.0403097 0.639937 0.607916
0.0911325 0.640264 0.607158
0.0409585 0.689871 0.608108
0.0909861 0.69143 0.607115
0.0413025 0.739989 0.606832
0.0933734 0.742573 0.613762
0.145719 0.744985 0.60673
0.195363 0.745227 0.607218
0.245645 0.74496 0.608313
0.0407717 0.640404 0.737842
0.0910059 0.640761 0.735416
0.14054 0.645727 0.721813
0.190575 0.645331 0.722461
0.24034 0.645278 0.72322
0.041138 0.690213 0.736379
0.090979 0.690571 0.734068
0.140347 0.69568 0.720918
0.19034 0.695586 0.722272
0.240111 0.695308 0.722899
0.0424811 0.73986 0.736251
0.0936524 0.742765 0.741615
0.144537 0.745369 0.736007
0.195653 0.744991 0.73652
0.245361 0.744887 0.737301
0.0407222 0.640276 0.865341
0.0911153 0.640536 0.864129
0.140267 0.645755 0.8506
0.190322 0.645601 0.851631
0.240209 0.645495 0.852038
0.041277 0.690201 0.864748
0.0910762 0.691407 0.863821
0.140279 0.695977 0.849504
0.190101 0.695607 0.850854
0.240072 0.695549 0.852151
0.0415149 0.73993 0.863293
0.0933652 0.742581 0.869445
0.145437 0.745136 0.863617
0.195144 0.745033 0.865069
0.245412 0.744973 0.865746
0.0414565 0.640545 0.994553
0.0913001 0.641451 0.992112
0.140418 0.646105 0.979712
0.19005 0.64569 0.980134
0.240038 0.64572 0.980976
0.0414484 0.69052 0.993654
0.0916858 0.690834 0.991557
0.139974 0.695786 0.978786
0.189988 0.695728 0.980023
0.239685 0.69552 0.981036
0.042753 0.740042 0.992553
0.093248 0.742174 0.99577
0.143915 0.744781 0.992855
0.194976 0.744159 0.993547
0.244547 0.744569 0.994201
0.0465993 0.788629 0.103825
0.0964336 0.792009 0.116191
0.145669 0.794552 0.115882
0.1956 0.794928 0.11678
0.24585 0.794855 0.117539
0.0463498 0.838592 0.105187
0.0963202 0.839678 0.112142
0.146717 0.844395 0.116709
0.196279 0.844761 0.118778
0.246315 0.844835 0.119804
0.0468546 0.788733 0.225646
0.0956672 0.793026 0.23793
0.145926 0.79473 0.237035
0.196138 0.795156 0.237789
0.245879 0.795275 0.238726
0.0460466 0.83853 0.226649
0.0969669 0.841473 0.238042
0.146751 0.84432 0.238787
0.196666 0.845161 0.239235
0.246556 0.845217 0.240497
0.0465601 0.788865 0.346311
0.0971684 0.792347 0.358435
0.146154 0.794884 0.358367
0.195924 0.795527 0.359334
0.24606 0.795648 0.359956
0.0464629 0.838756 0.34724
0.095758 0.843374 0.360554
0.14683 0.844911 0.359653
0.196535 0.845606 0.360717
0.246795 0.845331 0.362153
0.0465879 0.789221 0.466264
0.0966362 0.794171 0.480473
0.146532 0.795266 0.480166
0.196204 0.796092 0.480269
0.245977 0.795971 0.482259
0.0462752 0.839324 0.467577
0.0970775 0.8443 0.480112
0.146974 0.844896 0.482295
0.196767 0.84571 0.482877
0.246927 0.84575 0.48383
0.046379 0.789373 0.593796
0.0466863 0.839638 0.595203
0.0962357 0.793621 0.608372
0.146019 0.795317 0.608881
0.195975 0.795477 0.61021
0.24604 0.795844 0.609941
0.0961976 0.844972 0.609611
0.146981 0.845207 0.610128
0.196486 0.845597 0.611943
0.246662 0.845565 0.612456
0.0466536 0.789518 0.722098
0.0959224 0.794931 0.735559
0.146036 0.795117 0.737315
0.195709 0.795737 0.738006
0.245844 0.795372 0.739629
0.0465537 0.839456 0.723691
0.0961779 0.84465 0.737894
0.146359 0.845089 0.740134
0.196351 0.84527 0.740833
0.246495 0.845287 0.741372
0.0466654 0.789253 0.850555
0.0958273 0.793833 0.865408
0.145707 0.794981 0.865634
0.195512 0.795168 0.867639
0.245836 0.795234 0.867427
0.0466535 0.839307 0.852896
0.0960317 0.844837 0.867444
0.146383 0.845033 0.867724
0.196049 0.845012 0.869514
0.246205 0.845037 0.869984
0.0470373 0.789042 0.9804
0.0948747 0.794055 0.992732
0.145338 0.794195 0.994612
0.195243 0.794882 0.99523
0.245563 0.794513 0.996497
0.0463033 0.838841 0.981917
0.0956211 0.843326 0.993927
0.145447 0.844714 0.996847
0.196164 0.844558 0.997402
0.246095 0.844658 0.998418
0.197332 0.945093 4.97232e-04
0.247444 0.944986 0.00120054
0.0940047 0.992611 0.00186269
0.04578 0.889074 0.107419
0.0949143 0.889789 0.120679
0.146702 0.894591 0.119463
0.196825 0.895014 0.11982
0.247123 0.894891 0.120944
0.0462394 0.938642 0.108924
0.0967975 0.9381 0.114075
0.147848 0.944863 0.119123
0.19804 0.944854 0.1202
0.247553 0.945104 0.12248
0.044264 0.990125 0.111474
0.0944923 0.989913 0.122318
0.143411 0.995417 0.112653
0.192245 0.995419 0.110292
0.242705 0.995226 0.110668
0.0465138 0.888906 0.228506
0.096511 0.88883 0.234243
0.146751 0.894921 0.239839
0.197105 0.895042 0.240788
0.247164 0.895294 0.241788
0.0460411 0.938923 0.2297
0.0982596 0.94132 0.232171
0.147623 0.945276 0.239937
0.197581 0.945283 0.241389
0.248032 0.945085 0.242453
0.0448255 0.989204 0.233438
0.0939137 0.991068 0.232107
0.142699 0.9968 0.234632
0.192778 0.994768 0.229759
0.24221 0.995306 0.232499
0.0463999 0.888893 0.348764
0.0972366 0.892928 0.357822
0.146869 0.895243 0.361214
0.197199 0.895219 0.3619
0.247152 0.895393 0.3632
0.0462424 0.939066 0.350704
0.0955006 0.938978 0.3534
0.147845 0.945191 0.361514
0.198062 0.944943 0.361857
0.247677 0.945165 0.364351
0.0447753 0.990393 0.351899
0.0937544 0.99024 0.347675
0.141835 0.994721 0.351129
0.192162 0.995153 0.352548
0.242584 0.994796 0.352627
0.0462735 0.889143 0.469011
0.0969387 0.893681 0.482599
0.147313 0.895218 0.482032
0.197263 0.895482 0.48427
0.247248 0.895663 0.48555
0.0465506 0.939376 0.470833
0.0983851 0.94344 0.476353
0.147749 0.944733 0.484204
0.197471 0.945463 0.485358
0.247767 0.94523 0.486622
0.0447683 0.989925 0.473487
0.0939458 0.992397 0.469516
0.142781 0.994893 0.472484
0.19215 0.993666 0.472702
0.24252 0.99425 0.473965
0.0467108 0.889379 0.596524
0.0466357 0.939325 0.598709
0.0938833 0.992507 0.592237
0.0962972 0.894761 0.611206
0.146844 0.895236 0.612509
0.196949 0.895366 0.613576
0.246946 0.895585 0.614167
0.0962941 0.94513 0.612155
0.14726 0.945323 0.613689
0.197334 0.945429 0.614991
0.247342 0.945551 0.616219
0.0461692 0.990055 0.600561
0.141555 0.994812 0.600529
0.191883 0.994742 0.601011
0.241709 0.994737 0.602823
0.04679 0.889493 0.725556
0.0962302 0.895075 0.740043
0.146949 0.895308 0.740605
0.196676 0.895533 0.74267
0.247 0.895283 0.743193
0.0463678 0.939155 0.72733
0.0966013 0.944693 0.741291
0.147165 0.945294 0.743584
0.197074 0.945468 0.744505
0.247377 0.945393 0.745058
0.0456883 0.989853 0.730207
0.0938771 0.99301 0.736095
0.141886 0.995165 0.730421
0.191562 0.994899 0.730499
0.241863 0.994945 0.731473
0.0465735 0.889328 0.854472
0.09583 0.894638 0.869227
0.146687 0.894838 0.870231
0.196503 0.895142 0.871281
0.246708 0.894889 0.871929
0.0465164 0.93919 0.856463
0.0963438 0.944929 0.871184
0.147009 0.945442 0.871954
0.197274 0.945368 0.872672
0.247264 0.945485 0.873973
0.0463343 0.990229 0.85931
0.0937567 0.992589 0.879954
0.141291 0.995015 0.859548
0.191879 0.995113 0.859296
0.24168 0.995069 0.860269
0.0465032 0.889037 0.984068
0.0945289 0.893983 0.997998
0.146311 0.894605 0.998101
0.196377 0.894832 0.999015
0.246782 0.894616 0.999673
0.0458284 0.938708 0.985603
0.0965927 0.942698 0.998502
0.146759 0.945512 0.9995
0.0447618 0.988567 0.990957
0.14284 0.996812 0.992266
0.192799 0.995708 0.987144
0.242065 0.995615 0.98946
0.291634 0.0456146 0.110833
0.341635 0.0453824 0.112194
0.39186 0.0453451 0.11284
0.441634 0.0450487 0.1137
0.491664 0.0448828 0.114602
0.291208 0.0955164 0.110187
0.341217 0.0953022 0.110993
0.391345 0.0952719 0.111828
0.441264 0.0949425 0.112683
0.491279 0.0948506 0.11374
0.291394 0.0451044 0.232397
0.341866 0.0452697 0.233144
0.391617 0.0448739 0.234089
0.441967 0.0450082 0.235133
0.491671 0.0445752 0.23607
0.291257 0.095279 0.231384
0.341223 0.0950325 0.232121
0.3914 0.094884 0.233416
0.44132 0.0947035 0.234281
0.491367 0.094542 0.235162
0.291827 0.0447883 0.352825
0.341688 0.0446309 0.354334
0.391987 0.044633 0.355034
0.441861 0.044342 0.355996
0.492053 0.0442445 0.356845
0.291393 0.0947112 0.352059
0.341429 0.0944855 0.353201
0.391523 0.0944297 0.35403
0.441588 0.0943491 0.355184
0.491589 0.0941071 0.35627
0.2918 0.0443334 0.474306
0.342004 0.0443163 0.475208
0.392087 0.0441774 0.476154
0.442197 0.04399 0.477307
0.492199 0.043729 0.478207
0.291486 0.0942224 0.473516
0.341677 0.0942608 0.474332
0.391584 0.0941046 0.475747
0.44175 0.0940283 0.476472
0.491639 0.0936532 0.477607
0.291774 0.0449004 0.602345
0.34158 0.0446804 0.603889
0.391893 0.0446018 0.604362
0.441577 0.0443183 0.606069
0.492028 0.0441439 0.606332
0.291237 0.0945667 0.601681
0.341233 0.0945448 0.603125
0.391332 0.09427 0.60371
0.441506 0.0942539 0.604679
0.491447 0.0939847 0.605443
0.291357 0.0452824 0.732007
0.341645 0.0449915 0.731933
0.391501 0.0449746 0.733953
0.44176 0.044554 0.734125
0.491563 0.0445246 0.735682
0.290959 0.0950634 0.73107
0.341128 0.0948569 0.7315
0.391177 0.0947601 0.732569
0.441268 0.0944452 0.733071
0.491275 0.0942226 0.734286
0.291517 0.0454726 0.860395
0.341443 0.0453845 0.861855
0.39167 0.0451256 0.862022
0.441448 0.0450015 0.863731
0.491669 0.0446358 0.863599
0.290963 0.0953712 0.859782
0.340957 0.095073 0.860658
0.391097 0.0950582 0.861374
0.441131 0.0947381 0.862247
0.491103 0.0946462 0.863051
0.291264 0.0459709 0.98977
0.341669 0.0457734 0.98978
0.391328 0.0455851 0.991318
0.441718 0.0455086 0.991504
0.491308 0.0451211 0.993363
0.290811 0.0957693 0.988091
0.340828 0.0955671 0.989023
0.390989 0.0954874 0.989779
0.440831 0.0951747 0.990693
0.490916 0.0950003 0.991482
0.290899 0.145446 0.109497
0.341034 0.145503 0.110411
0.390896 0.145072 0.111244
0.441086 0.145085 0.11226
0.490798 0.144694 0.113168
0.290858 0.195594 0.108971
0.34067 0.195252 0.109814
0.390767 0.195213 0.110636
0.440616 0.194787 0.111606
0.49079 0.19472 0.112566
0.290526 0.245461 0.10814
0.34072 0.245517 0.108913
0.390529 0.245119 0.110178
0.440616 0.244956 0.111013
0.490452 0.244517 0.112152
0.290972 0.145194 0.231062
0.341161 0.145191 0.23156
0.390952 0.144793 0.232783
0.441076 0.144703 0.233638
0.491017 0.144508 0.234791
0.290964 0.195401 0.230126
0.340804 0.195156 0.231362
0.390891 0.194902 0.232086
0.440773 0.194582 0.233081
0.490824 0.194479 0.234166
0.290745 0.245448 0.229437
0.340847 0.245318 0.230509
0.390699 0.244976 0.231727
0.440691 0.244712 0.232644
0.490745 0.24432 0.233446
0.291262 0.144952 0.351781
0.341177 0.144686 0.352604
0.391341 0.144592 0.353706
0.441209 0.144296 0.354594
0.491243 0.144184 0.355832
0.29101 0.195066 0.351271
0.341033 0.194765 0.352077
0.390975 0.194629 0.352966
0.44101 0.194332 0.353896
0.491055 0.194145 0.355082
0.291041 0.24518 0.350376
0.34093 0.244918 0.351489
0.390924 0.244645 0.352395
0.440955 0.244455 0.353535
0.490833 0.244167 0.354523
0.291451 0.144556 0.473109
0.341312 0.144324 0.473982
0.391446 0.144182 0.475345
0.441406 0.143969 0.475987
0.49162 0.143844 0.476881
0.291246 0.194698 0.472626
0.341297 0.19445 0.473554
0.391203 0.194103 0.474207
0.44131 0.194093 0.475232
0.491295 0.193831 0.476276
0.291292 0.244804 0.471798
0.341164 0.244487 0.472961
0.39119 0.244278 0.473913
0.441146 0.244001 0.474858
0.491237 0.243972 0.475745
0.291214 0.144793 0.60127
0.341092 0.144479 0.602168
0.391184 0.144526 0.603111
0.441129 0.144143 0.604161
0.491324 0.144227 0.604991
0.290957 0.194756 0.600976
0.341029 0.194782 0.601676
0.390892 0.194373 0.602573
0.441074 0.194344 0.603258
0.491035 0.194058 0.604284
0.29109 0.245023 0.600292
0.340856 0.244684 0.601063
0.391006 0.244637 0.601996
0.440801 0.244225 0.603099
0.491011 0.244103 0.604092
0.290939 0.145096 0.730095
0.340931 0.14493 0.731019
0.390918 0.144769 0.731679
0.441047 0.144571 0.732565
0.490937 0.144393 0.73359
0.290778 0.195026 0.729535
0.340812 0.194851 0.73016
0.390777 0.194812 0.731268
0.440747 0.194617 0.73187
0.4908 0.194403 0.732942
0.290743 0.24518 0.729095
0.340684 0.244954 0.729907
0.390669 0.24481 0.730569
0.440646 0.244611 0.731699
0.490777 0.244428 0.732556
0.290787 0.145356 0.85902
0.340887 0.145248 0.859978
0.390904 0.145013 0.860704
0.440845 0.144899 0.861669
0.490836 0.144687 0.862424
0.290715 0.195372 0.858587
0.340628 0.195309 0.859277
0.390659 0.195056 0.859733
0.440579 0.194923 0.861006
0.490564 0.19475 0.861719
0.290542 0.245378 0.858066
0.340557 0.245258 0.85879
0.390541 0.245113 0.85937
0.44044 0.24485 0.860444
0.490432 0.244592 0.861159
0.290583 0.145732 0.987694
0.340701 0.145589 0.988356
0.390609 0.145459 0.989286
0.440633 0.145303 0.990174
0.490505 0.144971 0.99117
0.290533 0.195869 0.987218
0.340453 0.195516 0.987738
0.390424 0.195516 0.988631
0.440322 0.195158 0.989343
0.490377 0.194989 0.990369
0.290257 0.245753 0.986524
0.340305 0.245643 0.98725
0.390212 0.245407 0.988237
0.440258 0.245305 0.988882
0.490182 0.244905 0.98997
0.29065 0.295692 0.107566
0.340484 0.295273 0.108364
0.390535 0.295249 0.109668
0.440482 0.294859 0.110257
0.490558 0.294634 0.111604
0.290443 0.345366 0.107033
0.34064 0.345353 0.107796
0.390424 0.345059 0.108761
0.44062 0.344868 0.109619
0.490398 0.344495 0.110788
0.290733 0.295464 0.228731
0.340627 0.295271 0.229807
0.390699 0.294995 0.230986
0.440644 0.294753 0.231726
0.490617 0.2944 0.232861
0.29061 0.345297 0.228297
0.340683 0.345144 0.229246
0.390584 0.344958 0.230415
0.44067 0.344705 0.231117
0.490583 0.344355 0.232147
0.290948 0.295206 0.349893
0.340906 0.295003 0.351082
0.390832 0.294647 0.351585
0.440799 0.294441 0.35285
0.490855 0.294173 0.353814
0.290749 0.34515 0.349466
0.340786 0.344896 0.35041
0.390841 0.344664 0.351215
0.44084 0.344381 0.352425
0.490789 0.344213 0.353467
0.291151 0.294741 0.471424
0.341299 0.294623 0.472295
0.391096 0.294306 0.473281
0.441244 0.294199 0.474227
0.491113 0.293901 0.475325
0.291102 0.34487 0.470851
0.341084 0.344509 0.471744
0.39122 0.344375 0.472761
0.441046 0.344037 0.473771
0.491236 0.343992 0.474675
0.290843 0.294913 0.599872
0.290931 0.345162 0.599295
0.340856 0.344678 0.599798
0.340999 0.294902 0.600698
0.390808 0.294505 0.601389
0.440912 0.294322 0.602599
0.490906 0.29403 0.603461
0.390942 0.344659 0.600779
0.440825 0.344268 0.601975
0.490958 0.344166 0.602678
0.290631 0.295152 0.728351
0.340729 0.294967 0.729135
0.390536 0.294724 0.730013
0.440655 0.294562 0.730969
0.490684 0.294292 0.732072
0.290692 0.345259 0.727934
0.340649 0.344958 0.728716
0.390697 0.34486 0.729439
0.440679 0.344485 0.730371
0.490707 0.344288 0.73141
0.290516 0.295505 0.857281
0.340479 0.295265 0.857966
0.390435 0.295121 0.858724
0.4405 0.294887 0.859929
0.490445 0.294688 0.860843
0.290496 0.345402 0.85665
0.340552 0.345256 0.857326
0.390471 0.344978 0.85847
0.44052 0.34481 0.85944
0.490481 0.344554 0.860257
0.290281 0.295839 0.985623
0.340258 0.295553 0.986445
0.390228 0.29543 0.9873
0.440124 0.295162 0.988333
0.490168 0.29496 0.989251
0.290134 0.34575 0.985274
0.340199 0.345566 0.985865
0.390135 0.345362 0.986846
0.440287 0.345186 0.987955
0.490176 0.344842 0.988671
0.290595 0.39547 0.106256
0.340434 0.395171 0.107385
0.390563 0.395196 0.108241
0.440384 0.394837 0.109245
0.490558 0.394691 0.110103
0.290381 0.445384 0.105715
0.340506 0.445289 0.10665
0.390286 0.44495 0.107575
0.440541 0.44502 0.108408
0.490248 0.444477 0.109369
0.290642 0.495525 0.104868
0.34043 0.495214 0.106125
0.390456 0.495134 0.106727
0.440222 0.49479 0.107577
0.49041 0.494647 0.108587
0.290657 0.395324 0.2277
0.340614 0.395133 0.228758
0.390507 0.394868 0.229763
0.440578 0.394695 0.230657
0.490609 0.394382 0.231544
0.290645 0.445313 0.226934
0.34057 0.445105 0.228028
0.390583 0.444917 0.229054
0.44056 0.444651 0.22994
0.490577 0.444459 0.230878
0.290587 0.495168 0.226325
0.340606 0.495055 0.227567
0.390471 0.494821 0.228492
0.440513 0.494615 0.229236
0.490459 0.494448 0.230226
0.290762 0.395081 0.349009
0.340768 0.394826 0.349759
0.390791 0.394661 0.350708
0.440836 0.394361 0.35136
0.490895 0.394186 0.352336
0.290863 0.444987 0.348334
0.34083 0.444897 0.349102
0.390759 0.44467 0.350211
0.440761 0.444399 0.351033
0.490809 0.444185 0.351793
0.290752 0.494941 0.347401
0.340657 0.494858 0.348841
0.390729 0.494533 0.34954
0.440747 0.494367 0.350493
0.490728 0.494167 0.351309
0.290986 0.394854 0.470409
0.341138 0.394577 0.471209
0.39104 0.394273 0.472134
0.441144 0.39418 0.47294
0.491144 0.393853 0.474194
0.291187 0.444798 0.469938
0.341013 0.444508 0.470824
0.391162 0.444336 0.47159
0.44105 0.444108 0.472366
0.491149 0.44382 0.473171
0.291004 0.494684 0.469012
0.341163 0.494595 0.470061
0.390937 0.494265 0.470947
0.441055 0.494125 0.471827
0.491036 0.493794 0.472577
0.290773 0.39491 0.598506
0.34092 0.394904 0.599415
0.290896 0.445064 0.598154
0.340756 0.444759 0.599057
0.390979 0.44468 0.599655
0.290746 0.494902 0.597631
0.340946 0.494864 0.598026
0.390766 0.494547 0.599274
0.440957 0.494519 0.599969
0.390869 0.394505 0.600267
0.440973 0.394408 0.601569
0.490884 0.394048 0.602219
0.440897 0.444326 0.600688
0.491026 0.444202 0.601313
0.490822 0.494049 0.600801
0.290684 0.395179 0.727133
0.340706 0.395003 0.728047
0.390653 0.394819 0.728939
0.440672 0.394515 0.729945
0.490684 0.394355 0.730883
0.290604 0.445203 0.726871
0.340591 0.445003 0.727592
0.39072 0.44481 0.728316
0.440663 0.444536 0.729483
0.490699 0.444373 0.729782
0.290681 0.495143 0.726113
0.340608 0.494986 0.726775
0.390604 0.494854 0.727604
0.440571 0.49458 0.728392
0.490686 0.49435 0.729492
0.290546 0.395491 0.856228
0.340529 0.395301 0.856947
0.39051 0.39502 0.857678
0.440468 0.394795 0.858866
0.490443 0.39454 0.859695
0.290476 0.445378 0.85562
0.340448 0.445318 0.856218
0.39039 0.445031 0.85713
0.440563 0.444792 0.858196
0.490421 0.444487 0.858734
0.290481 0.495411 0.855069
0.340436 0.495247 0.855566
0.390399 0.495113 0.856555
0.44036 0.494802 0.857403
0.490417 0.494644 0.85797
0.290232 0.395751 0.984616
0.340152 0.395487 0.985311
0.390278 0.395378 0.986208
0.440198 0.3951 0.987145
0.490216 0.394898 0.988195
0.290247 0.445675 0.984141
0.340243 0.445468 0.984815
0.39013 0.445308 0.985692
0.440242 0.44514 0.98657
0.490206 0.444889 0.987426
0.290253 0.495682 0.983264
0.340143 0.495454 0.983754
0.390138 0.495252 0.984844
0.440078 0.49506 0.985628
0.490103 0.494942 0.986552
0.290191 0.545214 0.104385
0.340471 0.545334 0.105266
0.390229 0.544958 0.106142
0.440311 0.544889 0.107021
0.490204 0.54447 0.107918
0.290332 0.595383 0.103931
0.340095 0.595007 0.104624
0.390188 0.595061 0.1056
0.439953 0.594733 0.106426
0.490069 0.594648 0.107466
0.290518 0.545102 0.225682
0.340577 0.544884 0.226679
0.390336 0.544767 0.227646
0.440291 0.54459 0.228631
0.490364 0.544445 0.229442
0.290402 0.595042 0.224814
0.340277 0.594958 0.226283
0.390351 0.594837 0.226865
0.44007 0.594553 0.228003
0.490142 0.594321 0.228783
0.290781 0.544833 0.346614
0.340631 0.544727 0.347822
0.390598 0.544663 0.349088
0.440545 0.544312 0.349666
0.490666 0.544152 0.350452
0.290607 0.594868 0.345884
0.340456 0.594698 0.347007
0.390323 0.594631 0.348118
0.440362 0.59428 0.348859
0.490402 0.594148 0.349629
0.291049 0.54466 0.468311
0.340925 0.544462 0.469426
0.391018 0.544395 0.470265
0.440849 0.544097 0.471237
0.491071 0.543965 0.471831
0.290848 0.594563 0.467591
0.340718 0.594535 0.468479
0.390731 0.594302 0.469493
0.440809 0.59417 0.470483
0.490743 0.593833 0.471109
0.290836 0.544919 0.59682
0.340686 0.544781 0.597559
0.390798 0.544723 0.598142
0.44072 0.5444 0.599205
0.490928 0.544182 0.599903
0.290437 0.594731 0.59606
0.340574 0.594871 0.596755
0.390422 0.594668 0.597505
0.440589 0.59448 0.598379
0.490471 0.594074 0.599356
0.290633 0.545205 0.725537
0.340517 0.544925 0.725983
0.390616 0.544876 0.726673
0.440498 0.544538 0.727773
0.490591 0.54438 0.728369
0.290283 0.595124 0.72493
0.340287 0.594979 0.725555
0.390224 0.594916 0.726133
0.44028 0.594544 0.726926
0.490313 0.594422 0.728179
0.290284 0.545289 0.854263
0.340367 0.545223 0.85485
0.390218 0.545048 0.855517
0.440349 0.5448 0.856426
0.49033 0.544588 0.857294
0.290296 0.595298 0.853695
0.340135 0.595228 0.85428
0.39012 0.594976 0.854873
0.439983 0.594824 0.855877
0.489959 0.594648 0.856778
0.290117 0.545647 0.982675
0.340101 0.545586 0.983428
0.390005 0.545241 0.98422
0.440063 0.545155 0.985208
0.489912 0.544836 0.98573
0.290132 0.595773 0.982294
0.33993 0.595396 0.982784
0.389889 0.595356 0.983533
0.439669 0.595059 0.984692
0.489792 0.594883 0.985415
0.289991 0.645288 0.103378
0.339971 0.645283 0.104678
0.389735 0.644948 0.105424
0.439808 0.644906 0.105988
0.489668 0.644433 0.107211
0.289591 0.695256 0.104592
0.339803 0.695219 0.104787
0.389484 0.694929 0.106434
0.439744 0.694691 0.106341
0.489443 0.694383 0.10795
0.294998 0.745162 0.115892
0.344763 0.744678 0.117556
0.395043 0.744785 0.117502
0.444613 0.744299 0.119042
0.494968 0.744249 0.119262
0.290114 0.645124 0.224824
0.340059 0.645044 0.225776
0.389808 0.6448 0.226582
0.439974 0.644786 0.22788
0.489782 0.644256 0.228283
0.289946 0.695408 0.225354
0.339431 0.695135 0.226794
0.389877 0.695021 0.226804
0.439438 0.694752 0.228126
0.48971 0.694487 0.22859
0.294719 0.745021 0.238125
0.345207 0.74518 0.237472
0.394836 0.744623 0.239713
0.445233 0.74476 0.239203
0.494796 0.744217 0.241372
0.290385 0.644901 0.345622
0.34021 0.644747 0.346662
0.390155 0.644608 0.34717
0.439994 0.644296 0.348392
0.490043 0.64416 0.349359
0.289747 0.695305 0.346562
0.340016 0.695045 0.346622
0.389675 0.694876 0.348202
0.439852 0.694592 0.348519
0.489584 0.694352 0.349868
0.295122 0.745449 0.358162
0.344802 0.745002 0.35987
0.395118 0.745054 0.359791
0.444801 0.744483 0.361474
0.495271 0.74447 0.361385
0.290579 0.644698 0.467054
0.340384 0.644446 0.467921
0.390338 0.64436 0.469054
0.44045 0.644143 0.469737
0.490451 0.64386 0.470612
0.290189 0.695062 0.46656
0.33993 0.694947 0.467898
0.390026 0.694747 0.468233
0.439852 0.694526 0.469687
0.490071 0.69422 0.469794
0.294936 0.745651 0.481037
0.345381 0.745492 0.481206
0.395023 0.745401 0.482815
0.445493 0.744855 0.482754
0.494964 0.744914 0.484209
0.290437 0.644911 0.595179
0.340267 0.64471 0.596086
0.390338 0.644792 0.596678
0.440163 0.644251 0.597859
0.490341 0.644231 0.598693
0.289955 0.695211 0.594845
0.340104 0.695274 0.59554
0.389759 0.69489 0.596695
0.440047 0.694715 0.596817
0.489876 0.694361 0.598417
0.29547 0.744962 0.609171
0.345469 0.744776 0.610107
0.395331 0.744531 0.610874
0.445558 0.744196 0.611697
0.495386 0.743938 0.612903
0.290237 0.645147 0.723929
0.340159 0.644994 0.72458
0.39004 0.644896 0.72532
0.440044 0.644575 0.726562
0.490108 0.64438 0.727264
0.290095 0.695372 0.723452
0.339806 0.69505 0.724439
0.390046 0.694944 0.724901
0.439789 0.69473 0.726132
0.490009 0.694514 0.727009
0.295499 0.744846 0.738113
0.345236 0.74457 0.739259
0.395506 0.744532 0.739801
0.445166 0.744169 0.741038
0.495578 0.74386 0.74136
0.290008 0.64536 0.853083
0.340034 0.645198 0.853854
0.389854 0.644958 0.854561
0.439921 0.644796 0.855179
0.489846 0.644427 0.856375
0.289899 0.695334 0.852846
0.339929 0.695222 0.853388
0.389756 0.695009 0.854092
0.439776 0.694829 0.854909
0.489749 0.694484 0.855912
0.295156 0.744708 0.867559
0.345438 0.74454 0.867408
0.395082 0.744295 0.869152
0.445364 0.744129 0.869339
0.495165 0.743803 0.870942
0.289829 0.645394 0.981577
0.339866 0.64545 0.982844
0.389618 0.645108 0.983096
0.439531 0.645078 0.984335
0.489455 0.644591 0.985253
0.289751 0.695389 0.982056
0.339555 0.695216 0.982647
0.389642 0.69507 0.983382
0.439437 0.694742 0.984315
0.489683 0.694539 0.985039
0.294994 0.743891 0.995123
0.344669 0.744223 0.99591
0.394889 0.743656 0.996767
0.444632 0.743801 0.997679
0.494941 0.743059 0.998403
0.445511 0.793942 6.51941e-05
0.495636 0.793808 7.20514e-04
0.346104 0.844432 9.88366e-05
0.396205 0.84405 9.53077e-04
0.446222 0.843994 0.00181772
0.496355 0.843546 0.00264756
0.295669 0.794828 0.118989
0.345928 0.794768 0.119264
0.395677 0.794589 0.12059
0.445895 0.794392 0.121078
0.495728 0.794074 0.122111
0.296418 0.844679 0.120702
0.346352 0.844638 0.121705
0.396313 0.844649 0.122608
0.446413 0.844208 0.122975
0.496424 0.844096 0.124093
0.29595 0.795129 0.239894
0.345786 0.795126 0.240793
0.396017 0.794846 0.241114
0.445657 0.794796 0.242316
0.496109 0.794373 0.242951
0.296557 0.845052 0.24171
0.346619 0.845068 0.242416
0.396579 0.844897 0.243379
0.446653 0.844731 0.243571
0.496497 0.844321 0.244971
0.295893 0.795527 0.36094
0.346013 0.795418 0.361587
0.395899 0.795139 0.362669
0.446106 0.7949 0.36307
0.495939 0.794629 0.364278
0.29661 0.845655 0.362849
0.346711 0.845201 0.363651
0.396672 0.845263 0.3645
0.446756 0.844735 0.365343
0.496744 0.844709 0.36593
0.296251 0.795951 0.481921
0.345903 0.795681 0.483827
0.396274 0.795503 0.483613
0.446049 0.795268 0.485468
0.49642 0.794853 0.485021
0.29688 0.845699 0.484864
0.347042 0.845439 0.48563
0.396897 0.845278 0.486484
0.447165 0.845011 0.487083
0.497052 0.844737 0.487941
0.295891 0.795488 0.611532
0.346044 0.795489 0.611747
0.395987 0.795085 0.613208
0.44609 0.794979 0.613135
0.496082 0.79449 0.614756
0.296693 0.845498 0.61303
0.346798 0.845185 0.614219
0.396686 0.845052 0.614824
0.446843 0.844752 0.615792
0.496754 0.844435 0.616687
0.295884 0.795485 0.73964
0.345832 0.795178 0.741406
0.395988 0.795078 0.741041
0.445806 0.794596 0.743043
0.496004 0.794454 0.742699
0.296628 0.845189 0.742298
0.346637 0.845079 0.743266
0.396789 0.844755 0.743953
0.4467 0.844554 0.745053
0.496793 0.844149 0.745525
0.295754 0.795123 0.869211
0.345845 0.794924 0.8694
0.395585 0.794714 0.870715
0.445859 0.794495 0.870768
0.495649 0.794108 0.872695
0.296395 0.844817 0.871269
0.34639 0.844748 0.871744
0.396439 0.84452 0.872969
0.446441 0.844336 0.873308
0.496574 0.843896 0.874655
0.295493 0.794644 0.997524
0.34568 0.794335 0.99844
0.395523 0.794342 0.998948
0.296236 0.844463 0.999144
0.296807 0.894681 9.25192e-04
0.346842 0.894528 0.00187305
0.396753 0.894349 0.00277383
0.446716 0.894063 0.00355472
0.496775 0.893894 0.00429647
0.29736 0.944965 0.00281994
0.347542 0.944915 0.0031134
0.397318 0.944762 0.0049695
0.447494 0.944515 0.00486142
0.497308 0.944184 0.00678946
0.297053 0.894912 0.122224
0.347053 0.894894 0.123063
0.396926 0.894713 0.124241
0.447084 0.894556 0.124376
0.496977 0.894198 0.125685
0.297805 0.945156 0.122912
0.347456 0.944976 0.124731
0.397753 0.945036 0.124551
0.447438 0.944545 0.126365
0.497735 0.94457 0.126228
0.292192 0.995356 0.112219
0.342485 0.995008 0.112476
0.392236 0.995058 0.114045
0.442614 0.994752 0.114498
0.492244 0.994727 0.116051
0.297255 0.895099 0.243237
0.347044 0.8952 0.244138
0.39734 0.894988 0.244806
0.447121 0.894855 0.245527
0.497238 0.894499 0.246446
0.297549 0.945312 0.244238
0.347949 0.945083 0.244376
0.397587 0.945019 0.246242
0.447875 0.94485 0.246049
0.497487 0.944689 0.24799
0.292559 0.995029 0.232573
0.342372 0.995264 0.234557
0.392634 0.994856 0.234384
0.442247 0.99474 0.236286
0.492515 0.994447 0.236132
0.297223 0.895281 0.364765
0.347186 0.895398 0.365292
0.397252 0.894932 0.366332
0.447146 0.894993 0.366838
0.497169 0.894559 0.367922
0.297818 0.94521 0.364609
0.347667 0.945103 0.366518
0.397867 0.94505 0.366639
0.447567 0.944728 0.368323
0.497897 0.944572 0.36825
0.292302 0.994849 0.354311
0.342713 0.994781 0.354997
0.392504 0.994672 0.356242
0.442839 0.994295 0.356637
0.492491 0.994254 0.358186
0.297304 0.895479 0.486406
0.347432 0.895371 0.487198
0.397581 0.895215 0.487894
0.447492 0.894932 0.488859
0.49749 0.894636 0.489662
0.297699 0.945354 0.487771
0.347843 0.945204 0.488415
0.397713 0.944898 0.489749
0.448003 0.944707 0.490101
0.497702 0.944553 0.491241
0.292324 0.993765 0.475098
0.342671 0.994246 0.476439
0.392569 0.993582 0.476997
0.44284 0.993772 0.47832
0.492544 0.993126 0.479118
0.297147 0.895287 0.615395
0.347265 0.895307 0.615755
0.397325 0.894909 0.616816
0.447244 0.894791 0.617634
0.497306 0.894356 0.61834
0.29752 0.945279 0.616873
0.347542 0.945202 0.617648
0.397635 0.94493 0.618779
0.447623 0.944887 0.6195
0.497629 0.944428 0.620366
0.292118 0.994559 0.603224
0.342005 0.99452 0.604874
0.392256 0.994183 0.605166
0.442033 0.994125 0.606777
0.492271 0.99372 0.607065
0.297065 0.89521 0.743995
0.347132 0.894975 0.744979
0.397216 0.894834 0.745847
0.44709 0.894591 0.746914
0.497094 0.894266 0.747445
0.297293 0.945291 0.746122
0.347464 0.945062 0.746635
0.397312 0.944976 0.747751
0.447552 0.944558 0.748456
0.497398 0.944349 0.749609
0.291728 0.99473 0.732475
0.342075 0.994527 0.733268
0.391899 0.994505 0.734458
0.442141 0.994074 0.73507
0.49192 0.994007 0.736581
0.296859 0.89498 0.872783
0.347123 0.894807 0.873624
0.396949 0.894664 0.874884
0.44703 0.894299 0.875331
0.496915 0.894163 0.876222
0.297596 0.945209 0.874629
0.347412 0.945122 0.875982
0.397561 0.944919 0.876284
0.447335 0.944682 0.878043
0.497549 0.944433 0.877922
0.291918 0.994947 0.861506
0.341727 0.994719 0.862121
0.391958 0.99458 0.863239
0.441817 0.994301 0.864147
0.492013 0.994147 0.865027
0.292508 0.995823 0.989624
0.341967 0.99534 0.991179
0.392441 0.995539 0.991505
0.441948 0.994948 0.99284
0.492418 0.995058 0.993493
0.740659 0.0388892 0.00931732
0.740918 0.0886215 0.00902342
0.74056 0.0381128 0.12957
0.541448 0.0446153 0.115752
0.591501 0.0445999 0.116547
0.641088 0.0442484 0.117819
0.691366 0.0437536 0.118279
0.540975 0.09448 0.114923
0.591036 0.0944354 0.115724
0.640831 0.0941073 0.11712
0.691144 0.0933032 0.117974
0.740767 0.0886376 0.13023
0.740225 0.0388468 0.251243
0.541786 0.0444467 0.236868
0.591418 0.0441357 0.23802
0.641539 0.0442825 0.239099
0.691452 0.043394 0.239622
0.541176 0.0942634 0.236042
0.591176 0.0940831 0.237294
0.641001 0.0938269 0.237904
0.690885 0.0934124 0.240026
0.740791 0.0880676 0.250141
0.740894 0.0378689 0.373158
0.541728 0.0439689 0.357828
0.591969 0.0439944 0.358809
0.641645 0.0437343 0.359928
0.691682 0.0432725 0.360771
0.541459 0.0940582 0.35732
0.59153 0.0938327 0.357833
0.641326 0.0937047 0.359347
0.691441 0.0930344 0.360735
0.740709 0.088256 0.37228
0.740633 0.0384296 0.495363
0.542139 0.0436288 0.479124
0.592207 0.0435966 0.480139
0.641973 0.0434162 0.481293
0.692487 0.043327 0.483105
0.541778 0.093591 0.478421
0.591605 0.0933745 0.47938
0.641759 0.0933632 0.480305
0.691725 0.0927637 0.48223
0.740771 0.0878118 0.494567
0.740967 0.0375485 0.625779
0.541727 0.0440194 0.607897
0.591966 0.043896 0.607832
0.641391 0.0436291 0.609901
0.691977 0.043323 0.610005
0.541455 0.0940333 0.607026
0.59141 0.0938242 0.607518
0.641158 0.0936777 0.609257
0.691494 0.0936846 0.610847
0.740503 0.0882636 0.623898
0.740673 0.0386366 0.75359
0.541648 0.0443837 0.73608
0.591394 0.0443552 0.737673
0.641196 0.0441 0.739034
0.691525 0.0441532 0.741579
0.541249 0.0942036 0.734992
0.591182 0.0939649 0.736143
0.64106 0.0936935 0.736722
0.691361 0.0934223 0.738782
0.740841 0.0882688 0.752736
0.740868 0.0380622 0.882393
0.541397 0.0446143 0.865358
0.591523 0.0444588 0.865326
0.641077 0.0441684 0.867271
0.691745 0.0434451 0.867205
0.540891 0.0944441 0.864392
0.590874 0.0944016 0.865039
0.640444 0.0941091 0.866745
0.691301 0.094025 0.867627
0.740627 0.0885285 0.881607
0.541534 0.0450091 0.993588
0.59108 0.0448907 0.995228
0.640941 0.0445663 0.996265
0.690763 0.0439812 0.996941
0.540706 0.0947547 0.992883
0.590835 0.0946863 0.993718
0.640443 0.0939778 0.994534
0.690819 0.0938817 0.996178
0.740912 0.13857 0.00886525
0.740733 0.1882 0.00776766
0.740876 0.238122 0.00816324
0.540821 0.144606 0.11417
0.590634 0.144296 0.115316
0.640448 0.143859 0.116534
0.690661 0.143424 0.118626
0.740753 0.138144 0.128996
0.540475 0.194251 0.113708
0.590653 0.194304 0.11516
0.640463 0.193852 0.115979
0.690759 0.19277 0.117083
0.740706 0.188309 0.129123
0.540504 0.244347 0.112946
0.590231 0.243994 0.114416
0.64019 0.243572 0.115387
0.690406 0.243079 0.117211
0.740515 0.237784 0.127857
0.54103 0.144311 0.23577
0.59089 0.143996 0.236918
0.640882 0.143859 0.237962
0.691069 0.143046 0.238712
0.740644 0.138251 0.250588
0.540722 0.194232 0.235191
0.590712 0.193954 0.236217
0.640518 0.193459 0.237169
0.690808 0.193124 0.238983
0.740641 0.187795 0.249034
0.540604 0.244167 0.234633
0.590562 0.24387 0.235646
0.640644 0.243591 0.236863
0.69071 0.24265 0.237424
0.740537 0.237948 0.249159
0.541193 0.144036 0.356603
0.591327 0.143851 0.357533
0.641217 0.143507 0.358852
0.691089 0.14319 0.36029
0.740771 0.137849 0.371187
0.541065 0.194091 0.356286
0.591097 0.193804 0.356912
0.64113 0.193501 0.358249
0.691153 0.19272 0.359275
0.740735 0.187892 0.371265
0.540882 0.243984 0.355583
0.590871 0.243736 0.35648
0.640824 0.243181 0.357573
0.690834 0.242782 0.359481
0.740584 0.237592 0.369662
0.541516 0.143663 0.477819
0.591809 0.143555 0.478781
0.641574 0.143335 0.480301
0.692171 0.143139 0.481636
0.740621 0.137978 0.493793
0.541501 0.193748 0.4773
0.591338 0.193343 0.478152
0.641425 0.193213 0.479425
0.691755 0.192584 0.480896
0.740713 0.187648 0.493299
0.541196 0.243774 0.476993
0.591419 0.243573 0.477772
0.641272 0.243115 0.478574
0.691929 0.242805 0.480126
0.740515 0.237708 0.492771
0.541112 0.143908 0.6062
0.59137 0.143981 0.606945
0.641085 0.143378 0.608312
0.691427 0.143274 0.609387
0.740686 0.138113 0.623138
0.541212 0.194007 0.605422
0.591098 0.193837 0.606564
0.641047 0.19366 0.608134
0.691298 0.193401 0.609501
0.740684 0.188073 0.622782
0.54095 0.24382 0.605072
0.591152 0.243757 0.6057
0.640886 0.243318 0.606752
0.691307 0.243026 0.607888
0.740562 0.237767 0.621802
0.541 0.144222 0.734863
0.590974 0.144121 0.736003
0.640767 0.143822 0.737778
0.691219 0.14374 0.738947
0.74077 0.138304 0.752143
0.540784 0.194047 0.733864
0.590767 0.194017 0.734991
0.640636 0.193511 0.736189
0.691263 0.193275 0.737632
0.740779 0.188035 0.751412
0.540677 0.24414 0.733622
0.590798 0.243981 0.734512
0.640468 0.243694 0.736484
0.69108 0.243423 0.737443
0.74062 0.238016 0.750943
0.540714 0.144529 0.863461
0.590731 0.144311 0.864563
0.640598 0.143885 0.86569
0.691209 0.143567 0.867317
0.740888 0.138202 0.880777
0.540454 0.194436 0.863023
0.590617 0.194304 0.863958
0.640301 0.193805 0.865969
0.691073 0.193618 0.866734
0.74061 0.188267 0.88044
0.540462 0.244403 0.86245
0.59042 0.24416 0.863499
0.640424 0.24354 0.864637
0.690926 0.243377 0.866107
0.74067 0.237861 0.879635
0.540446 0.14492 0.992325
0.590343 0.144418 0.993383
0.640156 0.144264 0.99542
0.690222 0.143245 0.99583
0.540183 0.194527 0.991473
0.590174 0.194447 0.992861
0.639975 0.193601 0.993785
0.690401 0.193472 0.995695
0.540077 0.244658 0.99119
0.590002 0.244205 0.99193
0.639878 0.243896 0.994367
0.689933 0.242827 0.994374
0.740691 0.287846 0.00656475
0.740846 0.33784 0.00668318
0.74065 0.287935 0.127946
0.54026 0.294202 0.112612
0.590356 0.293943 0.11359
0.640062 0.29356 0.114847
0.690608 0.292579 0.115741
0.540405 0.344326 0.111824
0.590253 0.343812 0.112625
0.640128 0.343337 0.113788
0.690299 0.342835 0.115872
0.740481 0.337417 0.126714
0.740505 0.287374 0.248044
0.54048 0.294032 0.234052
0.590481 0.293885 0.235218
0.640389 0.293234 0.235967
0.690489 0.292829 0.237684
0.54051 0.344163 0.233284
0.590463 0.343714 0.2341
0.640481 0.343405 0.235407
0.690616 0.342422 0.236123
0.740384 0.337626 0.247901
0.740598 0.28768 0.369953
0.540768 0.293953 0.355133
0.590924 0.293657 0.355693
0.640918 0.29337 0.356885
0.691008 0.292397 0.357775
0.540702 0.343799 0.354303
0.590848 0.343548 0.354925
0.64078 0.343057 0.355885
0.690818 0.342798 0.35801
0.740494 0.337306 0.368236
0.740554 0.287414 0.491945
0.541249 0.293664 0.4763
0.591248 0.293421 0.477067
0.641385 0.293064 0.477746
0.691543 0.292368 0.4795
0.54111 0.343627 0.475665
0.591401 0.343506 0.47657
0.641321 0.342987 0.477048
0.691921 0.342803 0.478779
0.740495 0.337467 0.491289
0.740603 0.287722 0.62126
0.5411 0.293988 0.604437
0.590964 0.293707 0.605305
0.640883 0.29341 0.606665
0.691129 0.293177 0.607743
0.540853 0.343744 0.603722
0.591085 0.343696 0.604435
0.640851 0.34319 0.605376
0.691318 0.342933 0.606594
0.740653 0.33752 0.62047
0.740632 0.287649 0.749916
0.540738 0.294162 0.732984
0.590713 0.2939 0.733815
0.640607 0.29332 0.734708
0.691113 0.293052 0.736149
0.540735 0.344107 0.732356
0.590804 0.343946 0.733301
0.640495 0.343423 0.735127
0.690996 0.343142 0.73626
0.740568 0.337757 0.749741
0.740521 0.287938 0.879504
0.540315 0.29433 0.861819
0.59045 0.294101 0.863003
0.64017 0.293558 0.864638
0.690836 0.29331 0.865324
0.540452 0.344326 0.860954
0.590406 0.343817 0.862017
0.64026 0.34343 0.863347
0.690928 0.342955 0.864593
0.740674 0.337581 0.878104
0.539963 0.294504 0.990431
0.590079 0.294254 0.991393
0.639813 0.293538 0.992587
0.690215 0.293248 0.994348
0.540125 0.344628 0.98993
0.589975 0.344057 0.990677
0.639783 0.343798 0.992587
0.689874 0.342589 0.993185
0.740648 0.387591 0.00516374
0.740664 0.437712 0.00516914
0.740575 0.487631 0.00393368
0.540317 0.394206 0.111026
0.590455 0.393892 0.111937
0.640201 0.393506 0.113497
0.690526 0.392422 0.114296
0.740566 0.387601 0.126464
0.540373 0.444322 0.110281
0.590208 0.443903 0.111246
0.640111 0.443373 0.112338
0.690321 0.442806 0.114384
0.740432 0.437265 0.12468
0.540132 0.494188 0.109748
0.590326 0.494015 0.110356
0.6402 0.493572 0.111956
0.690627 0.492617 0.113015
0.740547 0.487639 0.125132
0.540502 0.394047 0.232114
0.590571 0.393734 0.233261
0.640357 0.393263 0.234264
0.690562 0.392708 0.235972
0.740459 0.387143 0.246419
0.54055 0.444182 0.231571
0.590527 0.443824 0.232738
0.640614 0.443534 0.23367
0.690658 0.442439 0.234404
0.740297 0.437579 0.246232
0.540399 0.494153 0.230765
0.590527 0.493853 0.2315
0.640346 0.493445 0.232887
0.690412 0.492895 0.234796
0.740407 0.487074 0.245023
0.540865 0.393842 0.353337
0.590901 0.393678 0.354406
0.640917 0.393242 0.355321
0.690943 0.392427 0.356498
0.740532 0.387549 0.368561
0.54077 0.443898 0.352537
0.590944 0.443517 0.353148
0.640813 0.443052 0.354487
0.69084 0.442705 0.35614
0.74046 0.437229 0.366936
0.540787 0.493964 0.351991
0.590921 0.493658 0.352547
0.640861 0.493409 0.353828
0.690866 0.492418 0.354983
0.740505 0.487477 0.367256
0.541312 0.39365 0.474689
0.591248 0.393261 0.475322
0.641274 0.393087 0.476337
0.691525 0.392433 0.47805
0.740527 0.387216 0.49062
0.541109 0.443605 0.474139
0.591344 0.443518 0.474961
0.64121 0.443009 0.475722
0.691809 0.442633 0.477425
0.740388 0.437423 0.489947
0.541254 0.493791 0.47327
0.591214 0.493332 0.473827
0.641249 0.493125 0.474947
0.691405 0.492268 0.476483
0.740444 0.487182 0.489245
0.541021 0.393994 0.602966
0.590936 0.393686 0.603809
0.640847 0.393445 0.605264
0.691056 0.39316 0.606747
0.740471 0.387588 0.619981
0.540827 0.443837 0.602358
0.591049 0.443826 0.603037
0.640754 0.443124 0.603898
0.691124 0.442794 0.605279
0.740429 0.437502 0.619312
0.541025 0.494082 0.601565
0.590986 0.493876 0.602358
0.640784 0.493456 0.603734
0.691049 0.493087 0.605292
0.740211 0.487584 0.618598
0.540652 0.394095 0.7315
0.590683 0.393796 0.732406
0.640475 0.393216 0.73355
0.691097 0.392952 0.734919
0.740586 0.387577 0.748787
0.540715 0.444102 0.730754
0.590694 0.443934 0.73161
0.640411 0.443499 0.733655
0.690939 0.443204 0.734704
0.740339 0.437715 0.748675
0.54076 0.494237 0.730044
0.590792 0.493984 0.730836
0.640554 0.493311 0.732193
0.691021 0.492929 0.733659
0.74034 0.487532 0.747523
0.540377 0.394301 0.860495
0.590402 0.394016 0.861373
0.640114 0.393595 0.86314
0.690799 0.393143 0.864077
0.740429 0.387726 0.878304
0.540427 0.4443 0.85971
0.590373 0.44403 0.860637
0.640233 0.443481 0.861795
0.690823 0.443004 0.863459
0.740432 0.437473 0.876942
0.540406 0.494359 0.859148
0.590448 0.494092 0.859646
0.640063 0.493657 0.861779
0.690788 0.493288 0.862739
0.740263 0.487814 0.876925
0.540064 0.394458 0.988967
0.5901 0.394213 0.990076
0.639878 0.393373 0.99102
0.690217 0.393051 0.992828
0.540156 0.44459 0.988348
0.590067 0.444148 0.989108
0.639786 0.443817 0.99133
0.689855 0.442626 0.991858
0.540005 0.494574 0.987525
0.590051 0.494281 0.988571
0.639861 0.49353 0.98974
0.690243 0.493084 0.991354
0.740716 0.537913 0.00408585
0.740589 0.587686 0.00285794
0.740475 0.537394 0.123689
0.54033 0.544457 0.108725
0.590108 0.544039 0.109916
0.640133 0.543578 0.111161
0.690387 0.542984 0.112963
0.539981 0.594294 0.1086
0.590292 0.594158 0.109381
0.640163 0.59374 0.111054
0.690486 0.592759 0.112262
0.740544 0.587727 0.124012
0.740325 0.537658 0.245052
0.540519 0.544299 0.230179
0.590485 0.543888 0.231279
0.640552 0.543637 0.232433
0.690613 0.542578 0.232953
0.54023 0.594137 0.229574
0.590545 0.593923 0.230341
0.64036 0.593507 0.231868
0.690534 0.59314 0.233789
0.740545 0.587221 0.24405
0.740327 0.537216 0.365333
0.540706 0.543941 0.351136
0.590817 0.543683 0.35198
0.640816 0.543219 0.353203
0.69074 0.542854 0.354762
0.540572 0.593949 0.35061
0.590859 0.593824 0.351304
0.640938 0.59358 0.352687
0.690784 0.592551 0.354128
0.740463 0.587589 0.366075
0.740307 0.53741 0.488596
0.541035 0.543682 0.472368
0.591331 0.543519 0.47355
0.641214 0.543187 0.474268
0.691819 0.542717 0.475872
0.540891 0.593676 0.472105
0.591147 0.593482 0.472635
0.641161 0.593247 0.473727
0.691369 0.592532 0.475472
0.74041 0.587311 0.487737
0.740419 0.537505 0.617883
0.540831 0.543986 0.600809
0.591013 0.54387 0.601435
0.64078 0.543331 0.60256
0.691169 0.542885 0.603834
0.540757 0.594126 0.60025
0.590828 0.5938 0.601038
0.640691 0.593607 0.602396
0.690969 0.593348 0.604007
0.740345 0.587793 0.617225
0.74045 0.537719 0.747314
0.540571 0.544222 0.729662
0.59077 0.543995 0.730514
0.640407 0.54367 0.732264
0.690875 0.543297 0.733431
0.540421 0.594206 0.728854
0.590619 0.59401 0.729816
0.64039 0.593586 0.730671
0.690917 0.593077 0.732033
0.740501 0.587711 0.746161
0.740382 0.537666 0.875513
0.540316 0.544423 0.858148
0.590251 0.544189 0.859436
0.640155 0.543522 0.860292
0.690823 0.543201 0.862257
0.540072 0.594357 0.857944
0.590176 0.594194 0.858937
0.640099 0.593634 0.860354
0.690798 0.593409 0.861362
0.740404 0.587851 0.87568
0.539966 0.544611 0.986873
0.589891 0.54425 0.988027
0.639754 0.543904 0.989995
0.689904 0.542682 0.99021
0.539709 0.594501 0.986294
0.589856 0.594375 0.987371
0.639599 0.593545 0.9885
0.690055 0.593157 0.990738
0.740827 0.637794 0.00298423
0.740516 0.68789 0.00187783
0.595204 0.742463 8.39512e-04
0.644568 0.743393 0.00119677
0.694358 0.741894 0.0044733
0.741139 0.740084 0.00186068
0.539811 0.64411 0.107946
0.589811 0.643978 0.109124
0.640207 0.643707 0.10982
0.690587 0.643211 0.112028
0.74074 0.637283 0.122532
0.539571 0.694118 0.108304
0.589367 0.693703 0.110107
0.639556 0.693833 0.110904
0.690807 0.694176 0.113969
0.740589 0.687966 0.122833
0.544832 0.743459 0.121387
0.595098 0.743614 0.121628
0.644881 0.743122 0.123397
0.695169 0.743729 0.126821
0.742324 0.738157 0.121882
0.539956 0.644105 0.229739
0.590182 0.643884 0.230223
0.640613 0.643876 0.231399
0.690573 0.642934 0.232528
0.740387 0.637726 0.243825
0.539256 0.693952 0.229886
0.589873 0.693979 0.230813
0.639435 0.693238 0.232479
0.689918 0.6934 0.233716
0.740517 0.687097 0.242102
0.54526 0.744094 0.24152
0.594832 0.743379 0.243904
0.645154 0.744287 0.242659
0.693998 0.742646 0.246445
0.741165 0.738684 0.243946
0.540174 0.64381 0.350232
0.590445 0.643722 0.350929
0.64081 0.643507 0.351855
0.690834 0.643384 0.353686
0.740454 0.637308 0.363998
0.539883 0.694003 0.350091
0.589772 0.693793 0.35198
0.640213 0.693605 0.35243
0.691234 0.694371 0.354748
0.740608 0.68763 0.364381
0.545154 0.743782 0.363452
0.595527 0.743928 0.363716
0.645478 0.743399 0.365201
0.695839 0.742931 0.368618
0.743064 0.739005 0.365227
0.540558 0.643639 0.471584
0.590788 0.643491 0.472522
0.641091 0.64339 0.473192
0.691702 0.643058 0.4747
0.740264 0.637719 0.487603
0.539814 0.693937 0.471452
0.590237 0.693756 0.47206
0.64014 0.693579 0.473502
0.691085 0.693127 0.473976
0.740541 0.687373 0.486215
0.545601 0.744373 0.484692
0.595133 0.744419 0.486198
0.645558 0.744397 0.485481
0.693942 0.743762 0.486763
0.741129 0.739684 0.490317
0.540298 0.643792 0.599808
0.540157 0.694287 0.598606
0.590677 0.643861 0.600291
0.640607 0.643418 0.601442
0.69097 0.643213 0.602558
0.740344 0.637712 0.616219
0.590089 0.69402 0.600095
0.640306 0.693832 0.600535
0.691402 0.694207 0.603129
0.740347 0.687889 0.615909
0.545809 0.743715 0.613701
0.595701 0.743504 0.614853
0.645877 0.74343 0.614922
0.695274 0.741195 0.621852
0.7421 0.738052 0.614043
0.540205 0.644171 0.728221
0.590344 0.64392 0.729108
0.640194 0.643636 0.731523
0.690999 0.64333 0.732035
0.740512 0.637858 0.745952
0.53982 0.694135 0.727942
0.590142 0.69402 0.728829
0.640079 0.693675 0.730032
0.691447 0.693175 0.730975
0.740424 0.688256 0.74533
0.545427 0.743635 0.742584
0.595941 0.743354 0.743352
0.645733 0.743521 0.744173
0.695581 0.744378 0.743699
0.742084 0.740814 0.75068
0.539951 0.644286 0.857191
0.590058 0.64399 0.858354
0.640267 0.643576 0.859029
0.690844 0.643136 0.861352
0.740627 0.637743 0.874574
0.539854 0.694166 0.856975
0.590014 0.694155 0.857906
0.640131 0.693815 0.858899
0.691112 0.693486 0.861408
0.740411 0.688082 0.874761
0.545635 0.743485 0.871096
0.595455 0.743238 0.872692
0.645831 0.743006 0.874101
0.694257 0.741069 0.879796
0.741496 0.73765 0.873235
0.539686 0.644391 0.986225
0.589662 0.644024 0.986985
0.639716 0.643848 0.989345
0.689924 0.642178 0.989455
0.53949 0.6942 0.98594
0.58967 0.694078 0.987203
0.63934 0.69323 0.987955
0.6891 0.692077 0.994655
0.544697 0.743268 0.999522
0.545721 0.793338 0.00199084
0.595816 0.793272 0.00271905
0.646035 0.79322 0.00358601
0.696369 0.793782 0.00500629
0.546152 0.843452 0.00374144
0.596322 0.843107 0.00431443
0.646075 0.843479 0.00488697
0.696459 0.843968 0.00584735
0.747456 0.788772 0.112601
0.545963 0.793612 0.122952
0.595952 0.793546 0.124065
0.646317 0.793752 0.124364
0.696688 0.794807 0.123876
0.546444 0.843566 0.125266
0.596385 0.843539 0.125793
0.646286 0.843915 0.12659
0.696717 0.844051 0.127226
0.746691 0.838965 0.113749
0.74638 0.787836 0.233492
0.545966 0.794111 0.244111
0.596363 0.793825 0.24488
0.646126 0.794029 0.245391
0.696777 0.794477 0.245421
0.546682 0.844115 0.245798
0.596545 0.844025 0.246892
0.646622 0.844197 0.246897
0.696764 0.844718 0.246862
0.746841 0.838847 0.234949
0.747325 0.788621 0.354179
0.546182 0.794373 0.364617
0.596205 0.794152 0.365976
0.6465 0.794196 0.365894
0.696938 0.794817 0.364734
0.546679 0.844228 0.36707
0.59662 0.844265 0.368184
0.646759 0.844079 0.368554
0.697091 0.844116 0.368401
0.746748 0.839187 0.35585
0.745143 0.78746 0.476432
0.546063 0.794621 0.487227
0.596441 0.79453 0.486942
0.646161 0.794246 0.489031
0.696704 0.794662 0.487191
0.546979 0.844432 0.488715
0.59694 0.844424 0.489576
0.646909 0.844327 0.489967
0.696819 0.844581 0.490195
0.746228 0.83919 0.476122
0.745821 0.788459 0.601475
0.54619 0.794477 0.615023
0.59616 0.794139 0.616626
0.646332 0.794244 0.616207
0.696727 0.793914 0.617461
0.546841 0.844153 0.617472
0.596863 0.843928 0.618399
0.646686 0.843964 0.619172
0.696722 0.844097 0.619301
0.746103 0.838443 0.604799
0.746024 0.787921 0.732782
0.545866 0.794086 0.744945
0.59623 0.793953 0.744942
0.646153 0.793609 0.746548
0.696823 0.793843 0.746982
0.546697 0.843905 0.746683
0.596729 0.843628 0.747592
0.646643 0.84372 0.747884
0.696684 0.843899 0.748562
0.746258 0.838593 0.733468
0.745826 0.788788 0.860902
0.546045 0.793792 0.872857
0.595871 0.793647 0.874484
0.646207 0.79348 0.874624
0.696744 0.793583 0.876042
0.546445 0.843616 0.87534
0.596513 0.843384 0.876364
0.646385 0.843439 0.876837
0.696683 0.843902 0.87769
0.746066 0.838447 0.862881
0.746662 0.788219 0.990497
0.746761 0.838423 0.991499
0.54675 0.893567 0.00545599
0.596478 0.893534 0.00617346
0.646141 0.893475 0.00700451
0.696389 0.893916 0.0075397
0.54732 0.94424 0.00659993
0.596864 0.944023 0.00825071
0.646816 0.944124 0.0079642
0.696682 0.944354 0.00862738
0.547021 0.893993 0.126396
0.596726 0.894022 0.127565
0.646533 0.89396 0.127688
0.696512 0.894212 0.127922
0.746673 0.888878 0.115276
0.547127 0.944386 0.128237
0.597324 0.944334 0.128512
0.646779 0.944303 0.129556
0.696844 0.943937 0.12897
0.745827 0.939075 0.116134
0.542562 0.994416 0.116155
0.592096 0.994463 0.117903
0.642307 0.994167 0.118164
0.692576 0.994411 0.117396
0.744712 0.989185 0.115353
0.54695 0.894374 0.247736
0.596952 0.894163 0.248104
0.646554 0.894177 0.249105
0.696787 0.894333 0.248615
0.746405 0.889436 0.23572
0.547738 0.944536 0.248211
0.597333 0.944381 0.249718
0.64738 0.94433 0.24927
0.696783 0.944727 0.249792
0.746089 0.939146 0.237442
0.542247 0.994428 0.238191
0.592649 0.994275 0.238005
0.642219 0.994422 0.240037
0.692736 0.993665 0.237586
0.744886 0.98857 0.238293
0.547119 0.89446 0.368505
0.597043 0.894312 0.369698
0.647013 0.894203 0.37019
0.696745 0.894444 0.369351
0.746469 0.889287 0.357567
0.547535 0.944353 0.370365
0.597629 0.944219 0.369901
0.647243 0.944294 0.371789
0.697035 0.943753 0.370857
0.746038 0.939455 0.359187
0.542784 0.994085 0.358634
0.592588 0.994176 0.360418
0.642757 0.993866 0.360334
0.692999 0.994079 0.36034
0.744767 0.98898 0.359628
0.547303 0.894504 0.490636
0.597319 0.894486 0.491416
0.647032 0.89437 0.492246
0.697002 0.89432 0.491975
0.745269 0.889091 0.478506
0.547835 0.944491 0.492006
0.597502 0.944327 0.493078
0.64757 0.944545 0.493814
0.696252 0.944425 0.495162
0.745582 0.939669 0.479866
0.542785 0.993476 0.480101
0.592488 0.992938 0.480801
0.642402 0.993153 0.48168
0.692299 0.99267 0.481417
0.742183 0.988662 0.485039
0.547204 0.894297 0.618832
0.597112 0.894035 0.620214
0.646848 0.89393 0.621103
0.696719 0.894231 0.621594
0.746231 0.888784 0.606706
0.547377 0.944338 0.621126
0.597393 0.94415 0.621964
0.647077 0.944016 0.623113
0.697058 0.94394 0.62384
0.746038 0.938143 0.610383
0.541972 0.993822 0.608619
0.592227 0.993795 0.609375
0.642051 0.993709 0.611148
0.693043 0.994876 0.614842
0.745559 0.988497 0.608786
0.547097 0.893938 0.748319
0.59698 0.89383 0.749153
0.64668 0.893668 0.750658
0.696752 0.893873 0.750485
0.746101 0.888336 0.735921
0.547437 0.944245 0.750165
0.597024 0.944133 0.751186
0.646975 0.944162 0.75199
0.696563 0.944478 0.753815
0.745596 0.938915 0.736821
0.541963 0.993799 0.737066
0.591764 0.993746 0.737997
0.641648 0.993206 0.738112
0.691937 0.993471 0.738804
0.744636 0.98773 0.740518
0.546954 0.893676 0.876738
0.596632 0.893685 0.878304
0.646568 0.893653 0.878613
0.696509 0.894056 0.879583
0.746275 0.888569 0.864315
0.547238 0.944268 0.879452
0.597284 0.944155 0.879609
0.646553 0.94394 0.880992
0.696792 0.943787 0.881155
0.745786 0.937935 0.867308
0.541781 0.993871 0.86573
0.591839 0.993919 0.867068
0.641604 0.993664 0.868282
0.693004 0.994527 0.869421
0.745417 0.989027 0.865713
0.74682 0.888728 0.992743
0.746113 0.938654 0.993817
0.541778 0.994581 0.994537
0.592087 0.994865 0.995147
0.641587 0.994279 0.996461
0.6922 0.9941 0.993862
0.745528 0.988096 0.994428
0.790742 0.038795 0.00878739
0.840329 0.0387919 0.00679585
0.89033 0.0390705 0.00603461
0.940071 0.0393294 0.0040259
0.990197 0.0396748 0.00277342
0.791173 0.089061 0.00828751
0.840981 0.0892945 0.00700219
0.890863 0.0894455 0.00536617
0.940888 0.0897434 0.00396759
0.991067 0.0897431 0.00260137
0.790193 0.0386422 0.129083
0.840253 0.0386089 0.128266
0.889898 0.0391099 0.126399
0.939954 0.039298 0.125297
0.989757 0.0396973 0.12291
0.790887 0.0887147 0.129525
0.840539 0.0890032 0.128576
0.890471 0.0891518 0.126698
0.940374 0.0895026 0.12548
0.99061 0.0897387 0.123891
0.790241 0.038281 0.250644
0.839722 0.0387165 0.248742
0.890057 0.0387997 0.247743
0.939571 0.0393053 0.245539
0.989971 0.039426 0.244126
0.79057 0.0886124 0.250433
0.840496 0.088663 0.249343
0.890155 0.0890601 0.24797
0.94036 0.089059 0.246223
0.990355 0.0895818 0.244764
0.789963 0.0382432 0.371288
0.840002 0.038514 0.370615
0.889649 0.0389329 0.368378
0.939891 0.0391698 0.367377
0.989694 0.0394904 0.36493
0.790535 0.0884503 0.371999
0.840368 0.0884981 0.370682
0.890121 0.0888722 0.369383
0.9403 0.0890422 0.367881
0.990067 0.0893202 0.365981
0.790143 0.0382951 0.494288
0.839887 0.0386312 0.492748
0.889959 0.0386159 0.491129
0.939694 0.039171 0.489427
0.989966 0.0392784 0.48809
0.790314 0.0882988 0.494118
0.840145 0.0884223 0.492266
0.889951 0.088614 0.491262
0.940032 0.0887844 0.489129
0.990006 0.0893099 0.488487
0.790238 0.0381037 0.62321
0.840225 0.038409 0.621594
0.890096 0.0386812 0.620162
0.940205 0.0388699 0.618597
0.990189 0.0393044 0.617344
0.790538 0.088426 0.622573
0.84041 0.0884688 0.621356
0.890271 0.0887715 0.619601
0.940483 0.0889843 0.618623
0.990471 0.0892836 0.617006
0.790606 0.0385944 0.752278
0.84027 0.0385893 0.750249
0.890391 0.0387602 0.749048
0.940267 0.0389981 0.747689
0.990436 0.0391984 0.746533
0.790813 0.0886679 0.751627
0.840568 0.0886907 0.749902
0.890491 0.0888774 0.748583
0.940483 0.0891206 0.747402
0.990669 0.0893316 0.746064
0.790599 0.0385315 0.880499
0.840547 0.0384176 0.879719
0.890186 0.0389548 0.877774
0.940354 0.0389248 0.876704
0.990357 0.0394531 0.875118
0.790996 0.088689 0.880391
0.840684 0.0890414 0.878741
0.890733 0.0890998 0.877322
0.940633 0.0894762 0.876134
0.990912 0.0894697 0.87465
0.79131 0.139014 0.00750757
0.841295 0.139262 0.00640649
0.891118 0.139585 0.00498545
0.941289 0.139769 0.00369504
0.991396 0.139873 0.00216119
0.791263 0.188801 0.00719323
0.841208 0.189236 0.00569463
0.891442 0.189374 0.00443391
0.941522 0.18962 0.00277443
0.991643 0.189772 0.00158361
0.7912 0.238649 0.00605975
0.841472 0.239095 0.00506217
0.891496 0.239468 0.00340984
0.941628 0.239688 0.00230806
0.99165 0.24005 0.00121062
0.79094 0.138778 0.128915
0.840806 0.139011 0.127708
0.890868 0.139276 0.126668
0.940832 0.139498 0.124853
0.991001 0.139611 0.123713
0.790862 0.188496 0.127892
0.841075 0.189016 0.127298
0.891064 0.189258 0.125846
0.941102 0.189465 0.124503
0.991313 0.189697 0.123292
0.790887 0.238458 0.127638
0.841123 0.238806 0.126426
0.891283 0.239091 0.12506
0.941232 0.239381 0.123793
0.991312 0.239688 0.122336
0.790715 0.138423 0.249752
0.840599 0.138851 0.248871
0.890707 0.138979 0.247566
0.940541 0.139246 0.246022
0.990681 0.139284 0.24431
0.790632 0.18845 0.249007
0.84069 0.188712 0.247868
0.890811 0.189075 0.246937
0.940883 0.18923 0.245224
0.990837 0.189433 0.244085
0.790719 0.238103 0.248508
0.840949 0.238634 0.247466
0.890912 0.238902 0.246071
0.940909 0.239287 0.245117
0.990876 0.239494 0.243339
0.790657 0.138392 0.371171
0.840424 0.138664 0.37
0.89066 0.138773 0.368926
0.940328 0.139107 0.367018
0.990558 0.139167 0.365979
0.790551 0.188364 0.370493
0.840741 0.18859 0.369574
0.890539 0.188942 0.368201
0.940793 0.18895 0.366742
0.990535 0.18946 0.365109
0.790675 0.23809 0.369948
0.840652 0.238536 0.368701
0.890895 0.238781 0.367591
0.940566 0.239194 0.366032
0.990732 0.239422 0.364843
0.790449 0.138131 0.493322
0.840253 0.138386 0.492137
0.89026 0.138447 0.490805
0.940165 0.138791 0.489265
0.990273 0.139043 0.487838
0.790567 0.187972 0.492347
0.840503 0.188132 0.491243
0.890416 0.188502 0.490139
0.940404 0.188688 0.488475
0.990285 0.189117 0.487224
0.790409 0.237799 0.491736
0.840406 0.238134 0.490725
0.890513 0.238323 0.489315
0.94039 0.238878 0.488329
0.99039 0.239193 0.486566
0.790715 0.138324 0.622077
0.840554 0.138555 0.62026
0.890566 0.13873 0.619641
0.94042 0.138882 0.617724
0.990653 0.139174 0.616432
0.79066 0.188279 0.621297
0.840589 0.188427 0.620292
0.89074 0.18866 0.618628
0.940816 0.188992 0.617385
0.9907 0.18922 0.615684
0.790793 0.238008 0.62069
0.840658 0.238391 0.61891
0.890805 0.238672 0.617879
0.940605 0.239016 0.616445
0.990786 0.239283 0.615316
0.790786 0.138599 0.750824
0.840773 0.138744 0.749429
0.890737 0.138993 0.748162
0.940727 0.139174 0.746991
0.990889 0.139219 0.745611
0.790929 0.188392 0.750515
0.840895 0.188746 0.748978
0.890941 0.188948 0.747309
0.941024 0.189177 0.746084
0.991039 0.189323 0.744502
0.790766 0.238308 0.749741
0.840947 0.238534 0.748087
0.890988 0.238927 0.746869
0.9411 0.239193 0.745293
0.99104 0.239453 0.744195
0.79099 0.138747 0.879573
0.841026 0.138938 0.87805
0.890989 0.139291 0.877032
0.941043 0.139338 0.875312
0.991088 0.139517 0.873884
0.791138 0.188564 0.878842
0.841036 0.188973 0.877499
0.891228 0.189047 0.876203
0.941135 0.189489 0.874776
0.991382 0.189556 0.873479
0.790968 0.238505 0.878344
0.841203 0.238734 0.876615
0.891234 0.239216 0.875505
0.94143 0.239289 0.874123
0.991265 0.239664 0.872725
0.791319 0.288581 0.00566926
0.841267 0.288914 0.0041257
0.891472 0.289349 0.00301447
0.94141 0.289752 0.00148004
0.991542 0.289984 2.65074e-04
0.791092 0.338255 0.00481915
0.841315 0.338775 0.00392985
0.891313 0.339386 0.00228645
0.941381 0.339768 9.21518e-04
0.790871 0.2881 0.126765
0.84119 0.288737 0.126002
0.891227 0.289069 0.124323
0.941199 0.289433 0.123023
0.991032 0.289928 0.121929
0.790798 0.338121 0.126531
0.840885 0.338541 0.125016
0.891043 0.339136 0.123888
0.941096 0.339521 0.122264
0.991068 0.339906 0.120956
0.79057 0.288088 0.247983
0.840785 0.288457 0.246649
0.890936 0.288881 0.245693
0.940816 0.289124 0.243706
0.990757 0.289622 0.242664
0.79064 0.337796 0.247272
0.840684 0.338516 0.246126
0.890692 0.338833 0.24449
0.940726 0.339338 0.243327
0.990643 0.3397 0.242048
0.790441 0.288049 0.369284
0.840755 0.288194 0.36824
0.890577 0.288876 0.366833
0.94078 0.289177 0.36574
0.990433 0.289652 0.364131
0.790566 0.337832 0.368884
0.840428 0.338297 0.367263
0.890745 0.338698 0.366163
0.940494 0.33931 0.364699
0.990591 0.339564 0.363321
0.790369 0.28766 0.490997
0.840387 0.28796 0.489885
0.890367 0.288533 0.48872
0.940306 0.288728 0.487411
0.990285 0.289222 0.48622
0.790432 0.33756 0.490624
0.840274 0.338056 0.489311
0.890278 0.338447 0.488215
0.940205 0.338953 0.486851
0.990266 0.339278 0.485336
0.790647 0.287945 0.619694
0.840695 0.288173 0.618553
0.890591 0.288644 0.617244
0.940712 0.289039 0.616017
0.990621 0.289469 0.614644
0.790659 0.33789 0.61922
0.840619 0.338253 0.617731
0.890645 0.338609 0.616584
0.940508 0.339154 0.61516
0.990636 0.339436 0.613774
0.790802 0.288101 0.748785
0.840752 0.288392 0.74715
0.890882 0.288835 0.746229
0.940892 0.289188 0.744698
0.990967 0.28941 0.743319
0.790703 0.338028 0.748007
0.840773 0.338363 0.74671
0.890837 0.338878 0.745464
0.940863 0.339281 0.744278
0.990908 0.339584 0.743124
0.791102 0.288165 0.877282
0.840979 0.288774 0.876105
0.891266 0.289035 0.874693
0.941118 0.289546 0.873229
0.991241 0.289725 0.872294
0.790957 0.338235 0.876997
0.841073 0.338599 0.875292
0.891005 0.339221 0.874118
0.941175 0.339427 0.87257
0.991073 0.339742 0.871161
0.991365 0.340228 0.999695
0.79114 0.388259 0.00441383
0.841086 0.388838 0.00314721
0.891281 0.389273 0.00152377
0.941192 0.389826 4.4667e-05
0.791015 0.438189 0.00349832
0.841165 0.438784 0.00241692
0.891062 0.43943 8.56277e-04
0.791078 0.488329 0.00322271
0.841059 0.488818 0.00155227
0.790688 0.387884 0.125635
0.840848 0.388673 0.124538
0.890986 0.38908 0.123019
0.940937 0.389643 0.12166
0.990927 0.39002 0.120331
0.790659 0.438124 0.124912
0.840829 0.438544 0.123732
0.890959 0.439048 0.122349
0.940918 0.439469 0.120722
0.990892 0.439874 0.119593
0.790687 0.487927 0.124069
0.840875 0.488612 0.123162
0.890881 0.489049 0.121589
0.940894 0.489546 0.120192
0.99086 0.489974 0.119003
0.790438 0.387942 0.24663
0.840522 0.388348 0.245351
0.890646 0.388895 0.244276
0.940584 0.389332 0.24259
0.990723 0.389785 0.241428
0.790545 0.437681 0.245547
0.840539 0.438404 0.244748
0.890586 0.438904 0.243493
0.940469 0.439392 0.242056
0.990515 0.439723 0.240635
0.790379 0.487973 0.245036
0.840493 0.48822 0.243708
0.890531 0.488915 0.242763
0.940512 0.489207 0.241208
0.990532 0.489666 0.239626
0.790435 0.38783 0.367891
0.840504 0.388192 0.366699
0.890339 0.38889 0.365496
0.940531 0.389115 0.36408
0.99024 0.389726 0.362694
0.790368 0.437767 0.367132
0.840286 0.438334 0.36594
0.890594 0.438639 0.364992
0.940251 0.439283 0.363239
0.990484 0.439594 0.362125
0.790297 0.487789 0.366257
0.840416 0.488185 0.365326
0.8902 0.488824 0.364155
0.940454 0.489191 0.363005
0.990109 0.489719 0.361328
0.790306 0.387574 0.489795
0.840241 0.387932 0.488543
0.890181 0.388428 0.487308
0.940141 0.388767 0.485791
0.990137 0.389402 0.484835
0.790246 0.437518 0.489175
0.840011 0.437995 0.487865
0.890173 0.438369 0.486694
0.940135 0.438907 0.485593
0.990111 0.439346 0.483912
0.790173 0.487483 0.488223
0.840092 0.487809 0.487144
0.890038 0.48841 0.485858
0.940084 0.48888 0.484533
0.990034 0.48937 0.483581
0.790472 0.387845 0.618671
0.840417 0.38819 0.61705
0.890538 0.388704 0.615905
0.940455 0.389178 0.614678
0.990448 0.389589 0.61302
0.790445 0.437674 0.617874
0.840335 0.438162 0.616407
0.89044 0.43864 0.615062
0.940243 0.439175 0.613585
0.990468 0.439485 0.612549
0.790197 0.487805 0.617113
0.840293 0.488162 0.615921
0.890323 0.488677 0.614372
0.940318 0.489128 0.613313
0.990411 0.489566 0.611952
0.790651 0.387999 0.747988
0.840666 0.388402 0.746039
0.890665 0.388858 0.74471
0.940707 0.389241 0.743393
0.990839 0.389537 0.741826
0.790446 0.437986 0.746895
0.840602 0.438425 0.745511
0.890494 0.438894 0.743948
0.940662 0.439374 0.74268
0.990676 0.43975 0.741486
0.790498 0.487908 0.746287
0.840489 0.488464 0.744665
0.890513 0.488981 0.743429
0.940558 0.489346 0.742053
0.99066 0.489536 0.740952
0.790946 0.388088 0.876335
0.840815 0.388755 0.874844
0.890946 0.389074 0.873375
0.940911 0.389585 0.87191
0.991135 0.389906 0.87097
0.790742 0.438176 0.875849
0.840788 0.438544 0.874163
0.890813 0.439196 0.87274
0.941035 0.439355 0.87095
0.991004 0.439977 0.86974
0.790794 0.488054 0.874901
0.840637 0.488776 0.873461
0.890916 0.489127 0.871939
0.940782 0.489591 0.870574
0.991019 0.489951 0.869524
0.991448 0.390147 0.998915
0.941148 0.43978 0.99914
0.991123 0.44026 0.998379
0.891128 0.489249 0.99995
0.941082 0.489808 0.998774
0.991346 0.490016 0.997375
0.791006 0.538353 0.00230778
0.841071 0.538923 0.00104103
0.791131 0.588439 0.00179211
0.841073 0.58906 4.33894e-04
0.790798 0.53808 0.123767
0.840751 0.538659 0.122447
0.89078 0.53912 0.120861
0.940854 0.539566 0.11931
0.990845 0.539952 0.118183
0.790836 0.587933 0.122691
0.840894 0.588756 0.121941
0.890898 0.589125 0.12042
0.940928 0.589491 0.118957
0.991021 0.590004 0.117912
0.790525 0.537738 0.244407
0.840566 0.538381 0.243376
0.890576 0.53881 0.241932
0.940526 0.539343 0.240665
0.99053 0.539687 0.239084
0.79053 0.587896 0.243898
0.840605 0.588405 0.2427
0.890552 0.588879 0.241514
0.940747 0.589091 0.240036
0.990723 0.589731 0.238626
0.790387 0.537732 0.366112
0.840232 0.538273 0.364516
0.890612 0.538606 0.363423
0.940351 0.539248 0.362004
0.990428 0.539541 0.360618
0.790344 0.587839 0.365199
0.840614 0.588134 0.364006
0.890424 0.588834 0.362918
0.940613 0.588991 0.361464
0.990389 0.589541 0.360012
0.790254 0.537445 0.487735
0.840031 0.537951 0.486752
0.890056 0.538328 0.485514
0.940021 0.538965 0.484457
0.990041 0.539308 0.482669
0.790277 0.587583 0.486961
0.840254 0.587907 0.486001
0.890039 0.588391 0.48466
0.940152 0.588734 0.483369
0.990064 0.589297 0.482136
0.790307 0.537814 0.61655
0.840208 0.538179 0.615038
0.890309 0.538655 0.613961
0.940193 0.538983 0.612316
0.990396 0.539524 0.611511
0.79036 0.58787 0.616006
0.840299 0.58821 0.614672
0.890401 0.588612 0.613699
0.940392 0.589054 0.611966
0.990382 0.589524 0.610666
0.790463 0.537995 0.745564
0.840377 0.538489 0.744183
0.890412 0.538912 0.742774
0.940457 0.53941 0.7416
0.990498 0.539654 0.740249
0.790422 0.588193 0.744989
0.840417 0.588626 0.74355
0.890562 0.588944 0.742335
0.940503 0.589396 0.740692
0.990578 0.589562 0.739423
0.790589 0.538386 0.874486
0.840807 0.538676 0.873092
0.890762 0.539291 0.871594
0.940945 0.539422 0.869982
0.990893 0.540031 0.86854
0.790835 0.588296 0.873728
0.840651 0.588898 0.872299
0.890941 0.589173 0.870913
0.940804 0.589657 0.869203
0.991004 0.589915 0.86826
0.890997 0.539475 0.999718
0.941176 0.539895 0.998203
0.9911 0.540317 0.996864
0.89128 0.589463 0.999159
0.941125 0.589996 0.997735
0.991397 0.590163 0.996418
0.790921 0.63879 9.62552e-04
0.841183 0.639234 1.55485e-04
0.791199 0.688858 6.38536e-04
0.791477 0.73955 3.97643e-04
0.790851 0.638294 0.122189
0.840895 0.638852 0.121318
0.891074 0.639238 0.120125
0.941106 0.639599 0.118688
0.991253 0.63984 0.117638
0.791082 0.688435 0.121797
0.841083 0.689013 0.120523
0.891395 0.689291 0.119757
0.941364 0.689519 0.118042
0.991568 0.689738 0.116622
0.79165 0.73821 0.119886
0.842102 0.739043 0.120135
0.891856 0.739075 0.117912
0.942178 0.739354 0.117111
0.992146 0.739139 0.115255
0.790787 0.637864 0.243299
0.840676 0.638646 0.242133
0.890915 0.638762 0.240744
0.94086 0.639223 0.239657
0.990878 0.639536 0.238299
0.790618 0.688317 0.242463
0.841231 0.688296 0.241122
0.891043 0.688962 0.240158
0.941331 0.689045 0.238738
0.991156 0.689425 0.23766
0.791742 0.73848 0.242337
0.841537 0.73853 0.240055
0.892164 0.738985 0.239971
0.941878 0.738875 0.237667
0.992411 0.739394 0.237953
0.790531 0.637759 0.364423
0.84047 0.638336 0.363457
0.890766 0.638544 0.362103
0.940635 0.639062 0.360574
0.990814 0.639201 0.35965
0.790834 0.687963 0.363728
0.840918 0.688208 0.362234
0.891177 0.688443 0.361335
0.941099 0.688816 0.360046
0.991268 0.689105 0.359083
0.791728 0.737864 0.362085
0.841989 0.738666 0.36194
0.891607 0.738675 0.360005
0.942036 0.739126 0.359794
0.991949 0.738865 0.357621
0.790426 0.637698 0.486523
0.840221 0.638056 0.485255
0.890445 0.638275 0.484129
0.940233 0.638877 0.482793
0.990482 0.639031 0.481539
0.79052 0.687611 0.484808
0.841039 0.687767 0.484344
0.890806 0.688024 0.482314
0.941116 0.68854 0.482205
0.990783 0.688749 0.480275
0.791622 0.737719 0.484862
0.841359 0.738358 0.483497
0.89181 0.738281 0.482677
0.9414 0.738768 0.481011
0.991836 0.738815 0.480622
0.79053 0.637978 0.615225
0.840408 0.638464 0.613784
0.89057 0.638674 0.612549
0.940468 0.639052 0.611124
0.990696 0.639395 0.610196
0.790821 0.688214 0.614863
0.840893 0.688257 0.61267
0.891065 0.688648 0.611885
0.941006 0.68883 0.610127
0.991151 0.689302 0.609707
0.791481 0.738539 0.613268
0.841108 0.738913 0.612116
0.891422 0.739137 0.610538
0.94126 0.739511 0.609925
0.991433 0.73964 0.608039
0.790626 0.638304 0.744504
0.840571 0.638633 0.742959
0.890609 0.639005 0.741488
0.940746 0.639354 0.740215
0.990712 0.639714 0.738864
0.790882 0.688083 0.742777
0.841055 0.688511 0.742443
0.890907 0.688734 0.740039
0.941041 0.689192 0.739641
0.991274 0.689258 0.737381
0.791226 0.738808 0.742555
0.841283 0.739125 0.741511
0.891154 0.739264 0.739538
0.941414 0.739788 0.738735
0.991267 0.739793 0.737343
0.790738 0.638651 0.873289
0.840741 0.638955 0.871813
0.890901 0.639323 0.870512
0.941032 0.63951 0.868734
0.991089 0.639939 0.867596
0.791108 0.688574 0.872544
0.841162 0.688861 0.870661
0.891409 0.689129 0.869838
0.941162 0.689403 0.867758
0.991444 0.689759 0.867283
0.79154 0.738723 0.871826
0.841203 0.739123 0.869993
0.891484 0.739515 0.868748
0.941354 0.739579 0.867073
0.991775 0.739665 0.865458
0.891172 0.639665 0.99843
0.941386 0.639851 0.997431
0.99135 0.640305 0.995903
0.84143 0.689259 0.999374
0.891572 0.689564 0.998446
0.941509 0.689926 0.996813
0.991779 0.689868 0.995068
0.842029 0.739415 0.998543
0.891908 0.740084 0.997099
0.942146 0.739883 0.995651
0.99205 0.74061 0.994779
0.797357 0.788687 0.110653
0.846997 0.788597 0.108113
0.897218 0.788793 0.107759
0.947052 0.788906 0.105194
0.997105 0.789009 0.104648
0.796976 0.838384 0.111428
0.846757 0.838476 0.109812
0.896824 0.83876 0.108084
0.946605 0.838669 0.106482
0.99672 0.839199 0.104387
0.796768 0.788395 0.230981
0.847273 0.788597 0.230333
0.897067 0.788804 0.227837
0.947252 0.7889 0.227024
0.996831 0.788825 0.225324
0.79679 0.838648 0.232475
0.846741 0.838708 0.230581
0.896856 0.838861 0.229609
0.946629 0.839019 0.227345
0.99659 0.839093 0.226175
0.797205 0.788557 0.352201
0.846737 0.788732 0.350073
0.897057 0.788773 0.349309
0.946675 0.788987 0.347323
0.99691 0.789155 0.346497
0.79649 0.838507 0.353542
0.846607 0.838829 0.35182
0.896563 0.839202 0.350009
0.946526 0.839413 0.348369
0.996232 0.839242 0.347073
0.796559 0.788799 0.471909
0.846811 0.7887 0.471332
0.896856 0.789166 0.469315
0.946651 0.789128 0.468787
0.996446 0.789368 0.466815
0.796046 0.838848 0.47403
0.846416 0.839356 0.472565
0.896415 0.839578 0.471413
0.946258 0.839796 0.469559
0.99607 0.839716 0.468282
0.846794 0.788464 0.598436
0.896942 0.789058 0.59768
0.946633 0.789172 0.5957
0.996791 0.789514 0.595039
0.896405 0.839358 0.599211
0.946472 0.839561 0.597894
0.996261 0.839666 0.59637
0.79692 0.788435 0.600305
0.796485 0.838719 0.603038
0.846428 0.838955 0.600855
0.796951 0.788438 0.729335
0.846854 0.788514 0.72744
0.896811 0.788874 0.726239
0.94682 0.789173 0.725051
0.99662 0.789359 0.723851
0.796692 0.838526 0.731114
0.846657 0.838622 0.729397
0.896652 0.838941 0.728085
0.946565 0.839385 0.72629
0.996447 0.839512 0.725162
0.797043 0.788444 0.858526
0.847001 0.788522 0.856978
0.896969 0.788827 0.855219
0.946891 0.78898 0.854132
0.996856 0.789317 0.852485
0.797025 0.838595 0.861565
0.846762 0.838297 0.858884
0.89693 0.838818 0.85727
0.94672 0.838953 0.85603
0.996628 0.839366 0.85407
0.797054 0.788247 0.987896
0.84725 0.788446 0.986029
0.897215 0.788664 0.984764
0.947275 0.7889 0.983097
0.996928 0.788991 0.981438
0.797222 0.838569 0.98906
0.84695 0.838263 0.987518
0.89694 0.838578 0.986292
0.946851 0.838797 0.984556
0.996907 0.838878 0.983355
0.796605 0.888555 0.112911
0.846605 0.88868 0.111345
0.896513 0.888641 0.109642
0.946459 0.889169 0.108012
0.996172 0.888911 0.106926
0.796123 0.938397 0.114997
0.846064 0.938508 0.113372
0.896091 0.938907 0.111685
0.946077 0.939039 0.11036
0.996193 0.939381 0.108651
0.795347 0.988431 0.117646
0.845027 0.988937 0.114938
0.89543 0.988831 0.114382
0.945119 0.989471 0.111777
0.995299 0.989605 0.111286
0.796426 0.888529 0.234296
0.846399 0.888796 0.23265
0.896401 0.889112 0.230732
0.946408 0.889251 0.229446
0.996368 0.88932 0.227635
0.796195 0.938754 0.236386
0.845855 0.938781 0.234342
0.896126 0.939199 0.233006
0.94592 0.939242 0.23123
0.99628 0.939428 0.229815
0.79494 0.988754 0.237791
0.84522 0.988592 0.237257
0.895053 0.989215 0.234282
0.945271 0.989075 0.234223
0.994608 0.990186 0.230886
0.796214 0.888924 0.354768
0.846055 0.889111 0.353189
0.896159 0.889335 0.351577
0.946354 0.889783 0.349779
0.996312 0.889468 0.348513
0.795767 0.938905 0.357212
0.845899 0.939194 0.355513
0.895753 0.939368 0.353684
0.946127 0.939675 0.352472
0.996128 0.939772 0.350503
0.795076 0.988523 0.360405
0.844951 0.989117 0.357076
0.895245 0.989135 0.356149
0.945133 0.989899 0.353921
0.995388 0.989645 0.353535
0.796092 0.889197 0.476505
0.845778 0.889166 0.474628
0.896146 0.889838 0.472945
0.945918 0.889824 0.471077
0.996199 0.889902 0.470159
0.795589 0.93895 0.478156
0.845695 0.939513 0.476379
0.895553 0.939532 0.475074
0.945811 0.940062 0.472896
0.996012 0.939934 0.471806
0.794775 0.989472 0.48036
0.844737 0.989287 0.4793
0.895241 0.99014 0.477495
0.944938 0.990073 0.475326
0.995399 0.990938 0.47389
0.946366 0.889852 0.599675
0.99639 0.889761 0.597738
0.995995 0.939526 0.599794
0.796287 0.889014 0.603941
0.84613 0.888953 0.602846
0.896178 0.889443 0.600944
0.79609 0.938566 0.607346
0.845885 0.93858 0.605909
0.895856 0.939071 0.603256
0.946065 0.939445 0.602319
0.795526 0.989161 0.60779
0.845736 0.989012 0.607359
0.895511 0.989411 0.60535
0.945779 0.989772 0.603854
0.995558 0.990023 0.601801
0.796836 0.888458 0.734161
0.846406 0.888494 0.731718
0.896565 0.88895 0.73042
0.946433 0.88932 0.72821
0.996496 0.889488 0.726663
0.796342 0.938442 0.736032
0.845924 0.938569 0.733578
0.896034 0.938648 0.733058
0.946102 0.93922 0.730415
0.996281 0.939151 0.729826
0.796015 0.988704 0.738818
0.845591 0.989 0.735895
0.895782 0.989323 0.734644
0.94557 0.989419 0.732415
0.995965 0.989858 0.731353
0.796617 0.888523 0.862008
0.846519 0.888359 0.860627
0.896478 0.888682 0.859324
0.946686 0.889071 0.85717
0.99656 0.889258 0.856011
0.796442 0.938304 0.864898
0.8461 0.937991 0.863638
0.896178 0.938693 0.861058
0.946275 0.938732 0.860209
0.996333 0.939254 0.857759
0.795794 0.989105 0.865774
0.845965 0.989015 0.864589
0.895623 0.989233 0.863065
0.945835 0.989497 0.861446
0.995686 0.989875 0.859764
0.79696 0.888153 0.991568
0.846931 0.888233 0.989566
0.89676 0.88851 0.987806
0.946718 0.888826 0.986013
0.996492 0.88888 0.984815
0.79651 0.938213 0.993406
0.846096 0.938101 0.991025
0.896417 0.938352 0.990692
0.945962 0.938614 0.987873
0.996166 0.938808 0.987951
0.795583 0.98814 0.995273
0.845795 0.988406 0.993416
0.895217 0.988461 0.991578
0.945662 0.988914 0.990353
0.994869 0.989154 0.987839
0.0181767 0.0170198 0.544545
0.0683744 0.0178713 0.542921
0.119113 0.0180916 0.540888
0.169071 0.0175168 0.541933
0.219139 0.0172855 0.542194
0.0180377 0.06691 0.545792
0.0684429 0.0675233 0.54411
0.118467 0.0678855 0.541327
0.168802 0.067708 0.541308
0.218859 0.067375 0.542015
0.01802 0.116738 0.544822
0.0683282 0.117459 0.543347
0.118515 0.118126 0.541469
0.168825 0.118027 0.541021
0.218857 0.11745 0.541489
0.0183645 0.0169424 0.67388
0.0683963 0.017512 0.672183
0.11902 0.0176534 0.671205
0.169102 0.0177596 0.670753
0.218848 0.0175347 0.672263
0.0181259 0.066901 0.674372
0.0685655 0.067327 0.672381
0.118458 0.0679814 0.670893
0.168635 0.0678631 0.670363
0.218687 0.0677094 0.671446
0.0183879 0.116995 0.67411
0.0685089 0.117633 0.672507
0.118451 0.117979 0.670352
0.168621 0.118067 0.669791
0.218501 0.1177 0.670457
0.168514 0.0681497 0.799844
0.118408 0.118097 0.799514
0.168389 0.118122 0.798988
0.218486 0.118068 0.799654
0.0183182 0.0170077 0.802733
0.0686391 0.0176617 0.801739
0.118935 0.0180072 0.800633
0.168754 0.0176851 0.800687
0.219075 0.017816 0.800972
0.0183496 0.0670292 0.803457
0.0685211 0.0677202 0.802445
0.118428 0.0679678 0.800034
0.218603 0.0677826 0.80028
0.0184201 0.117031 0.802992
0.0687188 0.117349 0.801086
0.0182264 0.0170314 0.93222
0.0682081 0.0178358 0.931638
0.11932 0.0181467 0.929961
0.169144 0.0179724 0.929007
0.219185 0.0178701 0.929812
0.0184222 0.0673087 0.932426
0.068606 0.0678 0.931088
0.118506 0.0682417 0.929416
0.168608 0.0682965 0.928651
0.218536 0.068161 0.929584
0.0186725 0.117304 0.932007
0.0687504 0.117625 0.930992
0.118349 0.118228 0.928499
0.168324 0.118525 0.928109
0.218198 0.118272 0.928683
0.0182571 0.166947 0.544526
0.0683549 0.167637 0.542758
0.118498 0.168304 0.540372
0.168712 0.168098 0.540589
0.218854 0.167711 0.541042
0.0181304 0.216887 0.543807
0.0683625 0.217679 0.54258
0.118372 0.218281 0.54032
0.168707 0.21824 0.540026
0.218656 0.217861 0.540805
0.0183241 0.16694 0.673159
0.0686376 0.167516 0.671589
0.118373 0.168213 0.669859
0.168496 0.16809 0.669097
0.218625 0.167954 0.669843
0.018458 0.217091 0.673137
0.0684679 0.217782 0.671411
0.118385 0.218151 0.669301
0.168492 0.218259 0.668655
0.218392 0.217967 0.669528
0.118359 0.168132 0.798652
0.168286 0.168322 0.798396
0.218174 0.168065 0.798749
0.068726 0.217609 0.799345
0.118326 0.218396 0.798144
0.168141 0.218376 0.797648
0.218292 0.218253 0.798454
0.018567 0.167099 0.80268
0.0685541 0.167724 0.801214
0.0186253 0.217165 0.801776
0.0188168 0.167242 0.931379
0.0687218 0.167788 0.929615
0.118196 0.168483 0.927903
0.168081 0.168592 0.927248
0.21807 0.168453 0.928062
0.0188407 0.217497 0.930821
0.0686972 0.21793 0.929582
0.118151 0.218454 0.927222
0.16799 0.218626 0.926492
0.21796 0.218418 0.927482
0.0181523 0.267046 0.543521
0.0682754 0.267824 0.541804
0.118322 0.268509 0.539513
0.168516 0.268207 0.539574
0.218659 0.267973 0.540139
0.0180247 0.317216 0.542317
0.0682399 0.317841 0.541294
0.118278 0.318486 0.539185
0.168526 0.318307 0.539024
0.218479 0.317937 0.539815
0.0179732 0.367359 0.54201
0.0680872 0.367991 0.540328
0.118133 0.368578 0.538263
0.168433 0.368305 0.538176
0.218515 0.367996 0.539003
0.0182615 0.267141 0.67208
0.0685215 0.267648 0.670067
0.118385 0.268391 0.668387
0.16828 0.268302 0.6681
0.218409 0.268099 0.669111
0.0183824 0.317294 0.671665
0.0682595 0.317898 0.669861
0.118228 0.318367 0.668031
0.16829 0.318385 0.667599
0.218271 0.318001 0.668322
0.0181067 0.367377 0.670588
0.0683799 0.367862 0.668767
0.118103 0.368495 0.66752
0.168131 0.3684 0.666817
0.218297 0.368203 0.667811
0.0685372 0.267936 0.799785
0.118166 0.268396 0.797387
0.168144 0.268568 0.79703
0.218039 0.268222 0.797936
0.068582 0.317776 0.798326
0.118174 0.318503 0.797006
0.168039 0.318456 0.796274
0.218156 0.318375 0.79721
0.0184071 0.367503 0.799952
0.0683378 0.368118 0.79866
0.118023 0.368422 0.796358
0.168057 0.368593 0.796065
0.218032 0.36826 0.796602
0.0186227 0.267367 0.801304
0.0184639 0.317451 0.800407
0.0187842 0.267552 0.930118
0.0686196 0.267904 0.928308
0.118103 0.268658 0.926581
0.167864 0.268679 0.92613
0.217931 0.26854 0.926669
0.0185902 0.317715 0.929443
0.0686705 0.318082 0.928245
0.118027 0.318574 0.926032
0.167875 0.318807 0.925386
0.217908 0.318542 0.926329
0.0185604 0.367631 0.928735
0.0684594 0.368088 0.927018
0.118019 0.368669 0.925348
0.167809 0.368756 0.924872
0.217857 0.368562 0.925558
0.017867 0.417219 0.54111
0.0680897 0.417924 0.539905
0.118109 0.418464 0.537895
0.168452 0.418361 0.537671
0.218425 0.417869 0.538769
0.0178686 0.467275 0.540832
0.0679952 0.467912 0.53916
0.118024 0.46841 0.537068
0.168346 0.468152 0.536993
0.218458 0.46789 0.537806
0.0182131 0.417461 0.67035
0.0681713 0.418043 0.668802
0.11808 0.418394 0.66707
0.168239 0.418388 0.666433
0.218176 0.418011 0.667299
0.0179667 0.467325 0.6694
0.068272 0.467819 0.667903
0.118032 0.468456 0.666436
0.168101 0.468271 0.665807
0.218214 0.468053 0.66688
0.0181767 0.417506 0.799029
0.0683706 0.417737 0.797191
0.11804 0.418483 0.795972
0.168013 0.41844 0.795316
0.218047 0.418281 0.796161
0.018364 0.467504 0.798705
0.0682002 0.468009 0.797403
0.117844 0.468369 0.795355
0.167924 0.468443 0.794982
0.217897 0.468212 0.795537
0.0184798 0.417764 0.92829
0.0684415 0.418043 0.927206
0.117957 0.418421 0.92479
0.167803 0.418719 0.924442
0.217748 0.418509 0.92529
0.018527 0.467633 0.927265
0.0684001 0.468022 0.925857
0.117888 0.468571 0.924234
0.167747 0.468609 0.923747
0.21782 0.468461 0.924349
0.0176985 0.517192 0.539952
0.0680259 0.51778 0.538773
0.118026 0.518275 0.536713
0.16839 0.518155 0.536476
0.218419 0.517703 0.536909
0.017898 0.567126 0.539375
0.0680051 0.567766 0.537927
0.118011 0.568148 0.535926
0.168284 0.567831 0.535761
0.218397 0.567654 0.536284
0.0179424 0.617002 0.538712
0.0682261 0.617469 0.537607
0.118025 0.617919 0.535692
0.168282 0.617957 0.535017
0.218213 0.617535 0.535785
0.0180587 0.517347 0.669162
0.0680635 0.517891 0.667495
0.118044 0.518196 0.665752
0.168172 0.518298 0.665254
0.218128 0.517899 0.665897
0.0179167 0.567281 0.668246
0.0682381 0.567593 0.666626
0.117994 0.568158 0.665028
0.168072 0.568128 0.664304
0.218178 0.567952 0.665218
0.0181321 0.617268 0.667856
0.0680954 0.617735 0.666563
0.118052 0.617866 0.664679
0.16807 0.618049 0.663894
0.217965 0.61779 0.664475
0.0180849 0.51745 0.797701
0.0683586 0.517793 0.795858
0.117974 0.518381 0.794771
0.167937 0.518263 0.794244
0.218006 0.518155 0.794998
0.0183043 0.567432 0.79727
0.0681154 0.567948 0.796054
0.117852 0.568113 0.793955
0.167993 0.56834 0.793303
0.217815 0.56809 0.794225
0.018195 0.617408 0.796148
0.0684579 0.617588 0.794534
0.117937 0.618191 0.793467
0.167878 0.618204 0.792872
0.217913 0.618037 0.793661
0.0184698 0.517742 0.926964
0.0683641 0.518002 0.92594
0.117965 0.518375 0.923384
0.167755 0.518535 0.923006
0.217797 0.518306 0.923856
0.018486 0.567639 0.926201
0.0683192 0.567914 0.924689
0.117915 0.568317 0.922938
0.16774 0.568431 0.922558
0.217771 0.568274 0.923248
0.0184922 0.617596 0.925567
0.068346 0.617758 0.924256
0.117917 0.618132 0.922179
0.167776 0.618365 0.921801
0.217671 0.61818 0.922659
0.0182821 0.667039 0.538462
0.0683573 0.667435 0.537664
0.118002 0.667772 0.535064
0.168184 0.667725 0.53442
0.218167 0.667588 0.535219
0.0183878 0.717139 0.538163
0.0687025 0.71741 0.537282
0.118316 0.717693 0.535706
0.168253 0.718058 0.535316
0.217961 0.717904 0.536041
0.0183131 0.667217 0.667131
0.0684655 0.667336 0.664982
0.118029 0.667863 0.663681
0.16806 0.667918 0.6634
0.217923 0.667937 0.664265
0.0185725 0.71732 0.666956
0.0684668 0.7178 0.664866
0.118264 0.717882 0.663846
0.168235 0.718054 0.664191
0.217923 0.717941 0.665205
0.018453 0.667398 0.795911
0.0684475 0.667708 0.794744
0.117912 0.667993 0.792523
0.167905 0.668102 0.792158
0.217753 0.66799 0.792915
0.0183891 0.717312 0.794496
0.0688625 0.717492 0.793377
0.117961 0.717906 0.792116
0.167972 0.718203 0.792906
0.218 0.71802 0.794043
0.0186628 0.667474 0.925006
0.0685069 0.667658 0.922987
0.117817 0.668073 0.921399
0.167606 0.668289 0.921194
0.217617 0.668259 0.922017
0.0186906 0.717456 0.924338
0.0686464 0.717633 0.922331
0.11804 0.718074 0.920727
0.167958 0.718292 0.921754
0.217693 0.718076 0.922858
0.0187031 0.766773 0.536528
0.0687021 0.767358 0.536699
0.118278 0.767472 0.537641
0.168644 0.767681 0.537557
0.218316 0.768107 0.5384
0.0188656 0.817285 0.536955
0.069032 0.817253 0.536986
0.118813 0.817478 0.538963
0.168879 0.817871 0.539394
0.218797 0.818147 0.540365
0.0187143 0.867135 0.538606
0.0690625 0.86708 0.538332
0.119028 0.867626 0.540145
0.169214 0.867977 0.540573
0.219276 0.868105 0.541903
0.0187358 0.766929 0.665568
0.0686927 0.767247 0.664555
0.118517 0.767311 0.665149
0.16849 0.7677 0.666746
0.218448 0.767603 0.667017
0.0189508 0.81709 0.665652
0.0691893 0.817366 0.665662
0.118606 0.817913 0.666678
0.16881 0.817854 0.668154
0.218821 0.817969 0.668822
0.0189884 0.867218 0.66705
0.0691139 0.867387 0.667491
0.119127 0.867713 0.669108
0.169028 0.867922 0.670245
0.219248 0.867832 0.671253
0.0189775 0.766794 0.794117
0.0689476 0.767307 0.792876
0.118163 0.767819 0.794043
0.168617 0.767685 0.79467
0.218251 0.767836 0.796184
0.0191714 0.817033 0.794453
0.0691424 0.817379 0.794435
0.118617 0.81768 0.796712
0.16859 0.817833 0.797355
0.218622 0.817668 0.798151
0.019164 0.867068 0.796182
0.0692419 0.867222 0.796483
0.118691 0.867786 0.797913
0.169051 0.867818 0.798903
0.218969 0.867761 0.800006
0.0191211 0.766776 0.922682
0.068962 0.767111 0.921435
0.118283 0.76751 0.922853
0.168301 0.767612 0.924864
0.218162 0.767544 0.924775
0.0192299 0.816714 0.92339
0.0691031 0.817147 0.92338
0.118557 0.817541 0.924728
0.168325 0.817554 0.926365
0.218492 0.817404 0.9269
0.0191611 0.866789 0.925525
0.0690457 0.867193 0.92535
0.118736 0.867728 0.927708
0.168757 0.867414 0.928367
0.218806 0.867452 0.928548
0.0188079 0.91738 0.54014
0.0693073 0.917172 0.539358
0.119111 0.917461 0.541471
0.169365 0.917765 0.542092
0.21962 0.91798 0.543356
0.0185783 0.967257 0.542508
0.0687195 0.966878 0.540605
0.119081 0.967117 0.541225
0.169414 0.967772 0.542648
0.219543 0.967782 0.544138
0.0189926 0.917168 0.669074
0.0692344 0.917246 0.669245
0.118984 0.917823 0.670386
0.169366 0.918 0.671509
0.219446 0.917913 0.672861
0.0185133 0.967165 0.670585
0.0687059 0.967396 0.67084
0.119274 0.96756 0.671418
0.169164 0.967931 0.672226
0.219472 0.967873 0.673157
0.0190156 0.916974 0.798405
0.0691787 0.917375 0.798103
0.0688809 0.967214 0.799989
0.119137 0.917557 0.80028
0.169165 0.917883 0.80098
0.219505 0.917666 0.801827
0.0189149 0.967258 0.800722
0.118933 0.967622 0.800849
0.169346 0.96797 0.801418
0.219441 0.9678 0.802211
0.018912 0.916927 0.927675
0.0690853 0.917276 0.927463
0.118968 0.917286 0.928583
0.169077 0.917574 0.929574
0.219372 0.91741 0.930498
0.0185033 0.967046 0.928963
0.0683665 0.967139 0.929573
0.119544 0.967543 0.930565
0.169406 0.967924 0.930599
0.219679 0.967753 0.931043
0.26929 0.0172839 0.543884
0.319373 0.0171668 0.544503
0.369528 0.0170151 0.54588
0.419499 0.016785 0.546425
0.46959 0.016593 0.547741
0.268849 0.0671674 0.543105
0.319128 0.0671134 0.544015
0.369105 0.0669334 0.545177
0.419243 0.0668431 0.54615
0.469199 0.0664698 0.547214
0.268857 0.117135 0.542754
0.318772 0.117018 0.543587
0.368822 0.116933 0.544644
0.418816 0.11671 0.545697
0.468928 0.116626 0.54663
0.269233 0.0175663 0.67283
0.319113 0.0172754 0.674243
0.36941 0.0172982 0.674515
0.419193 0.0168625 0.676242
0.469469 0.0168332 0.676541
0.268738 0.0674157 0.672012
0.318821 0.0674185 0.673211
0.368882 0.0671361 0.673914
0.418918 0.0670213 0.675325
0.469027 0.0667117 0.675676
0.268628 0.117555 0.671426
0.31852 0.117244 0.672267
0.368686 0.117207 0.673387
0.418677 0.116937 0.674432
0.468764 0.116818 0.675324
0.269036 0.0175297 0.80252
0.319333 0.0175763 0.802705
0.369177 0.0172463 0.8042
0.419383 0.0171968 0.804619
0.469189 0.0167906 0.805809
0.268646 0.0678842 0.801609
0.318783 0.0675123 0.801991
0.368838 0.0675028 0.803386
0.418901 0.0672044 0.803718
0.468899 0.0671661 0.805167
0.268334 0.117813 0.80041
0.318524 0.117649 0.801476
0.368399 0.117459 0.802422
0.418635 0.117304 0.803208
0.46853 0.117057 0.803647
0.269197 0.0178175 0.930874
0.319296 0.0176361 0.931591
0.369339 0.0175696 0.932848
0.419382 0.0172947 0.933265
0.469417 0.0171852 0.934493
0.268627 0.0680062 0.93034
0.318684 0.0678983 0.931419
0.368827 0.0676632 0.931844
0.418795 0.0676012 0.9329
0.46886 0.0672132 0.933548
0.268266 0.118184 0.929471
0.318222 0.117857 0.9304
0.368428 0.117868 0.931138
0.418416 0.11754 0.931913
0.468497 0.117472 0.932843
0.468616 0.166579 0.545813
0.268721 0.167301 0.542175
0.318697 0.167173 0.54304
0.368607 0.166917 0.544064
0.418772 0.166806 0.544954
0.268698 0.217559 0.541949
0.318553 0.217208 0.542415
0.368673 0.217077 0.543344
0.418524 0.216746 0.544452
0.468709 0.216731 0.545231
0.268412 0.167522 0.670669
0.318486 0.167439 0.671688
0.368413 0.167188 0.672633
0.418501 0.167075 0.673612
0.468456 0.166825 0.674321
0.26849 0.217748 0.670586
0.318306 0.217393 0.671346
0.368371 0.217335 0.672104
0.418271 0.217087 0.672785
0.468367 0.216998 0.673911
0.268281 0.167923 0.799895
0.268231 0.217872 0.799392
0.318219 0.217763 0.799949
0.318247 0.167621 0.800736
0.368392 0.167503 0.801702
0.41833 0.167258 0.802292
0.468313 0.167136 0.8034
0.368089 0.217522 0.800931
0.41823 0.217392 0.801671
0.46809 0.217118 0.802549
0.268091 0.168119 0.928665
0.318223 0.167955 0.929899
0.368182 0.167784 0.930303
0.418221 0.167704 0.931298
0.468142 0.167375 0.932206
0.268085 0.218225 0.92818
0.317964 0.218004 0.929263
0.368072 0.217889 0.92985
0.417896 0.217618 0.930682
0.467946 0.217487 0.931625
0.268561 0.267483 0.541239
0.318691 0.267449 0.542102
0.368433 0.267041 0.54292
0.418583 0.266942 0.543851
0.468525 0.266593 0.54515
0.268652 0.317702 0.540653
0.318479 0.317305 0.541489
0.368542 0.317161 0.542218
0.418453 0.316821 0.543379
0.468527 0.316698 0.544482
0.268431 0.36758 0.539936
0.318523 0.367357 0.540863
0.368428 0.367077 0.541797
0.418596 0.366957 0.542776
0.468419 0.366604 0.543713
0.268259 0.267652 0.670137
0.31832 0.267538 0.670804
0.36816 0.267339 0.671457
0.418252 0.267191 0.672679
0.468251 0.266802 0.673581
0.268307 0.317927 0.669255
0.318122 0.317456 0.670201
0.368313 0.317421 0.670862
0.418173 0.317001 0.671953
0.468359 0.316902 0.672891
0.268185 0.367777 0.668802
0.318378 0.367564 0.669536
0.368198 0.367268 0.670305
0.418384 0.367108 0.671521
0.468243 0.366762 0.672387
0.268178 0.268049 0.798891
0.318075 0.267766 0.799598
0.268089 0.318 0.798074
0.318084 0.317819 0.798844
0.368058 0.317605 0.799643
0.268124 0.368049 0.797573
0.317972 0.367786 0.798535
0.368106 0.367636 0.799175
0.368067 0.267594 0.800447
0.418065 0.267351 0.801149
0.468107 0.267224 0.802133
0.418118 0.317402 0.800741
0.46807 0.317075 0.801579
0.418095 0.367236 0.800166
0.468127 0.36717 0.800989
0.267814 0.268153 0.927609
0.317917 0.268107 0.928515
0.367893 0.267775 0.9291
0.417934 0.267736 0.929925
0.467808 0.267337 0.931162
0.267915 0.318386 0.926992
0.317825 0.317999 0.927755
0.367878 0.317961 0.928718
0.417762 0.317595 0.92964
0.467879 0.317433 0.930621
0.267789 0.36819 0.926355
0.31786 0.367915 0.927224
0.367827 0.367812 0.928026
0.417889 0.367645 0.929083
0.467835 0.367327 0.929911
0.26844 0.417691 0.539569
0.318396 0.417308 0.540311
0.368503 0.417144 0.541228
0.418481 0.416864 0.542172
0.468518 0.416721 0.543131
0.268381 0.467461 0.538986
0.318504 0.467402 0.53998
0.368421 0.467005 0.540749
0.418519 0.466967 0.541487
0.468432 0.466602 0.542535
0.268322 0.41784 0.667974
0.318208 0.417523 0.669108
0.368344 0.417337 0.66979
0.418265 0.417018 0.670706
0.468343 0.416912 0.671689
0.268167 0.467735 0.667752
0.318252 0.467594 0.668473
0.368195 0.467339 0.669326
0.418293 0.467055 0.670121
0.468215 0.466846 0.67092
0.268002 0.417888 0.796971
0.318076 0.417782 0.79773
0.367998 0.417566 0.798676
0.418092 0.417385 0.799714
0.268045 0.468014 0.796424
0.317914 0.467711 0.797192
0.368023 0.467569 0.798209
0.417937 0.467335 0.799105
0.468087 0.467156 0.799649
0.468011 0.417002 0.800365
0.267829 0.418306 0.9259
0.317782 0.417866 0.926749
0.367891 0.417827 0.927515
0.417793 0.417532 0.928351
0.467905 0.417447 0.929415
0.267812 0.46818 0.925415
0.317942 0.467971 0.926119
0.367756 0.467703 0.926898
0.417888 0.467586 0.927508
0.467851 0.467329 0.928448
0.268485 0.517526 0.538124
0.318318 0.517225 0.539065
0.368432 0.517123 0.539926
0.418302 0.516807 0.54087
0.468499 0.516751 0.541482
0.268323 0.567263 0.537625
0.31828 0.567272 0.538538
0.368148 0.56705 0.539155
0.418244 0.566923 0.540189
0.468252 0.566634 0.540911
0.268165 0.617342 0.536707
0.317951 0.617149 0.537672
0.36797 0.617095 0.538338
0.417952 0.616858 0.539353
0.468101 0.616708 0.540316
0.268226 0.517804 0.667112
0.31808 0.517434 0.667667
0.368147 0.517376 0.668504
0.418121 0.517094 0.669252
0.468259 0.516921 0.670366
0.268015 0.567573 0.666312
0.318097 0.567577 0.667103
0.367918 0.567315 0.667776
0.418079 0.567147 0.668499
0.46803 0.566841 0.669497
0.268044 0.617693 0.66545
0.317766 0.617425 0.66629
0.367759 0.617407 0.666978
0.417744 0.617037 0.668118
0.467884 0.616917 0.668883
0.267931 0.517864 0.795729
0.318003 0.517785 0.796511
0.367941 0.51751 0.797153
0.418009 0.517326 0.798185
0.46787 0.517072 0.798818
0.267899 0.567918 0.795144
0.317839 0.567685 0.796021
0.367877 0.567609 0.796414
0.417731 0.56727 0.797418
0.467899 0.567106 0.798134
0.267689 0.617802 0.794579
0.317706 0.617826 0.795226
0.36762 0.617512 0.795958
0.417647 0.617391 0.796717
0.467528 0.617026 0.797458
0.26783 0.51819 0.924651
0.317765 0.517948 0.925345
0.367787 0.51783 0.926102
0.417717 0.517558 0.926929
0.467748 0.517346 0.927643
0.267739 0.568104 0.923927
0.317714 0.567947 0.924785
0.367593 0.567675 0.92542
0.417641 0.567591 0.926085
0.467527 0.56732 0.92701
0.267607 0.618121 0.923384
0.317489 0.61796 0.924161
0.36743 0.617795 0.92499
0.417322 0.617512 0.925626
0.467322 0.617387 0.926787
0.467734 0.666634 0.539501
0.267881 0.667404 0.53622
0.317845 0.667362 0.537166
0.367605 0.667148 0.537878
0.41769 0.666938 0.5387
0.267815 0.717758 0.536767
0.317677 0.717644 0.537593
0.367584 0.717404 0.538528
0.417521 0.717249 0.539042
0.467666 0.716908 0.540386
0.267856 0.667689 0.664954
0.317684 0.667608 0.665685
0.367561 0.667418 0.666522
0.417647 0.667198 0.667421
0.467619 0.666869 0.668464
0.267895 0.717846 0.665843
0.31758 0.717638 0.666905
0.367677 0.717569 0.667833
0.417633 0.717224 0.668149
0.467754 0.716957 0.669289
0.267693 0.667958 0.793975
0.317568 0.667696 0.794747
0.367494 0.667538 0.795439
0.417329 0.667275 0.796292
0.467508 0.667102 0.797159
0.267648 0.717896 0.795104
0.317699 0.717804 0.795585
0.367535 0.717427 0.796359
0.41762 0.717329 0.797204
0.467528 0.717105 0.79836
0.267401 0.668042 0.922989
0.317407 0.66799 0.924195
0.367267 0.667706 0.924508
0.417242 0.667591 0.925283
0.467254 0.667229 0.926196
0.267664 0.717967 0.923717
0.317449 0.717761 0.924682
0.367579 0.717632 0.925279
0.417438 0.717317 0.926194
0.467556 0.7171 0.926908
0.268289 0.76778 0.539354
0.318104 0.767683 0.539902
0.368221 0.767415 0.541086
0.4182 0.767303 0.54178
0.468227 0.766881 0.542834
0.268875 0.818041 0.541151
0.318876 0.817839 0.542166
0.368991 0.817616 0.542666
0.418945 0.81745 0.543735
0.469086 0.817155 0.544406
0.269454 0.867998 0.542734
0.319522 0.867949 0.543644
0.369609 0.867685 0.544526
0.419682 0.86748 0.545117
0.469637 0.867132 0.54626
0.268174 0.767753 0.668163
0.318269 0.767442 0.668638
0.368118 0.767363 0.669914
0.418401 0.767033 0.67014
0.46818 0.766828 0.671344
0.268775 0.81775 0.670048
0.318789 0.81771 0.670571
0.368803 0.817453 0.67149
0.418934 0.817354 0.672142
0.468893 0.816818 0.673389
0.269207 0.867941 0.671907
0.319434 0.867606 0.672685
0.36935 0.867583 0.67349
0.419485 0.86722 0.674289
0.469418 0.867007 0.6753
0.268339 0.767536 0.796599
0.317998 0.767539 0.79797
0.368243 0.767225 0.798275
0.418005 0.767122 0.799851
0.268591 0.817688 0.798775
0.318714 0.817388 0.799813
0.468309 0.766683 0.800066
0.368731 0.817339 0.800532
0.418775 0.816991 0.80157
0.468814 0.81676 0.802171
0.269178 0.867493 0.800951
0.319133 0.867495 0.801899
0.369355 0.867245 0.802505
0.419227 0.867084 0.803485
0.469408 0.866735 0.804178
0.26815 0.767514 0.92641
0.318105 0.767384 0.926748
0.368075 0.767156 0.928109
0.418076 0.766958 0.928328
0.468104 0.766621 0.929715
0.268405 0.817348 0.927984
0.318554 0.81728 0.92891
0.36854 0.817141 0.929721
0.418567 0.816771 0.930454
0.468513 0.816554 0.931212
0.268956 0.867264 0.929538
0.319012 0.867307 0.930534
0.369077 0.866956 0.931524
0.419047 0.866816 0.932365
0.469133 0.866451 0.93303
0.269848 0.917966 0.544553
0.319983 0.917833 0.545524
0.370108 0.917661 0.546209
0.420097 0.917422 0.547264
0.469981 0.917231 0.54804
0.269788 0.967787 0.544872
0.319787 0.967674 0.545949
0.370035 0.967519 0.546726
0.419929 0.967274 0.547986
0.470034 0.967045 0.548681
0.269689 0.917754 0.673525
0.319759 0.917759 0.674704
0.369845 0.917506 0.675448
0.419915 0.917308 0.676284
0.469923 0.916995 0.67704
0.269632 0.967782 0.674189
0.319831 0.96766 0.6748
0.369696 0.967587 0.675865
0.419854 0.967234 0.676711
0.469915 0.96705 0.677947
0.269501 0.917602 0.802716
0.319636 0.91747 0.803317
0.369742 0.917305 0.804387
0.419683 0.917131 0.805462
0.469769 0.916943 0.806368
0.269726 0.967785 0.803102
0.319709 0.96759 0.803857
0.369782 0.967361 0.804761
0.419791 0.967211 0.805716
0.469847 0.966964 0.8067
0.469581 0.916634 0.934966
0.269429 0.91735 0.931011
0.319593 0.91729 0.932195
0.369579 0.917151 0.933117
0.419662 0.916927 0.934315
0.269749 0.967657 0.932302
0.319857 0.967653 0.932793
0.369925 0.967499 0.934176
0.419802 0.967254 0.934839
0.469924 0.967052 0.93577
0.51944 0.0164765 0.548445
0.569472 0.0163869 0.549646
0.61935 0.0162329 0.550084
0.669216 0.0160499 0.551511
0.718504 0.0156051 0.552366
0.519249 0.0664548 0.548127
0.569107 0.066387 0.548836
0.619061 0.066307 0.549862
0.668896 0.0662268 0.551655
0.718379 0.0658635 0.553342
0.518973 0.116396 0.547564
0.568928 0.116407 0.548698
0.618795 0.116145 0.549291
0.668714 0.116117 0.550299
0.718183 0.115869 0.552071
0.519102 0.01658 0.677999
0.569278 0.0165638 0.67852
0.618862 0.0165053 0.679851
0.668795 0.0168015 0.682327
0.718635 0.0156162 0.684299
0.519007 0.0666609 0.676929
0.568907 0.0664982 0.677608
0.61878 0.0664678 0.678939
0.668819 0.0661406 0.679721
0.71827 0.0659795 0.681749
0.518605 0.11668 0.676257
0.568779 0.116679 0.677307
0.618502 0.116445 0.678504
0.668685 0.116411 0.680028
0.718266 0.11596 0.680986
0.519334 0.0167762 0.806505
0.569088 0.0165281 0.807551
0.619105 0.0164345 0.808036
0.668851 0.0160887 0.809562
0.718684 0.0158386 0.809691
0.518812 0.0669006 0.805555
0.568617 0.0669027 0.806818
0.618568 0.0667466 0.807793
0.668615 0.0667417 0.809756
0.718382 0.0661192 0.810562
0.518498 0.116999 0.80495
0.568436 0.116773 0.805823
0.618395 0.116624 0.806728
0.668365 0.116262 0.808061
0.718293 0.116124 0.809625
0.519275 0.0168935 0.935089
0.569071 0.01694 0.936293
0.618868 0.0166415 0.937031
0.668713 0.0167684 0.938282
0.718747 0.0159681 0.94049
0.518674 0.0671917 0.934891
0.568603 0.0669867 0.935536
0.618455 0.0667668 0.93662
0.668575 0.0664762 0.937206
0.71833 0.0661572 0.939359
0.518306 0.117228 0.93407
0.568384 0.117031 0.935051
0.618321 0.116867 0.936015
0.668447 0.116401 0.936774
0.718299 0.116039 0.938644
0.518843 0.166559 0.546935
0.568752 0.166248 0.547898
0.618744 0.166221 0.548904
0.668643 0.16603 0.550497
0.718193 0.165612 0.55162
0.518638 0.216417 0.546431
0.568683 0.216291 0.547393
0.618538 0.216082 0.548191
0.668611 0.21585 0.549006
0.71815 0.215532 0.550857
0.568418 0.166455 0.676472
0.618489 0.166408 0.677748
0.668389 0.165974 0.678817
0.718189 0.165794 0.680542
0.518497 0.166729 0.675571
0.518295 0.216694 0.674834
0.568321 0.216584 0.676281
0.618286 0.216337 0.677385
0.66846 0.216175 0.678874
0.718165 0.215588 0.679677
0.618168 0.166534 0.806791
0.668465 0.166309 0.808218
0.718245 0.16578 0.809273
0.518209 0.166972 0.804217
0.56827 0.166815 0.805585
0.518161 0.216973 0.803516
0.568031 0.216694 0.804924
0.618215 0.216454 0.80582
0.668261 0.215915 0.806919
0.718222 0.215733 0.808549
0.61801 0.166646 0.935605
0.668169 0.16617 0.936557
0.718234 0.165781 0.938276
0.518068 0.167295 0.93342
0.568024 0.166884 0.934465
0.517832 0.21722 0.932703
0.567884 0.216882 0.933718
0.617931 0.216576 0.935192
0.668148 0.216076 0.936025
0.718141 0.215685 0.937625
0.518573 0.266493 0.545976
0.568577 0.266209 0.54683
0.618571 0.266053 0.547448
0.668448 0.26579 0.548764
0.718078 0.265305 0.549991
0.51848 0.316331 0.545144
0.568547 0.316236 0.546137
0.618526 0.315948 0.546742
0.668484 0.315747 0.547446
0.718062 0.315337 0.549526
0.51854 0.36651 0.544558
0.568463 0.36614 0.545481
0.618582 0.366003 0.546098
0.668529 0.365639 0.547271
0.718056 0.365143 0.548712
0.518405 0.266804 0.674274
0.568263 0.266408 0.6754
0.618333 0.266176 0.676317
0.668298 0.265716 0.677328
0.718031 0.265507 0.679017
0.518213 0.316619 0.673819
0.568334 0.316554 0.674782
0.618238 0.316125 0.676024
0.668373 0.315987 0.677131
0.718196 0.315297 0.678211
0.518302 0.366712 0.673115
0.568269 0.366366 0.67403
0.618317 0.36609 0.674929
0.668276 0.365628 0.675971
0.718141 0.365305 0.677906
0.517993 0.266895 0.803207
0.568077 0.266703 0.804344
0.618025 0.266336 0.805735
0.668239 0.266061 0.80676
0.718143 0.265471 0.808095
0.518099 0.316959 0.802606
0.568014 0.316592 0.803577
0.618082 0.316143 0.804599
0.668093 0.315729 0.805688
0.718191 0.315379 0.80714
0.517991 0.366839 0.802059
0.568122 0.366613 0.802946
0.618017 0.366157 0.804378
0.668293 0.365841 0.805626
0.718169 0.36528 0.806828
0.517797 0.267187 0.932114
0.56771 0.266764 0.933462
0.617876 0.266396 0.934573
0.667932 0.265912 0.935603
0.718165 0.265362 0.937202
0.517811 0.317074 0.931536
0.567834 0.316751 0.932636
0.617738 0.316336 0.933704
0.668024 0.315859 0.934312
0.718048 0.315347 0.936187
0.517879 0.367063 0.930946
0.567748 0.366678 0.931944
0.617801 0.366331 0.932998
0.66796 0.365705 0.934077
0.718101 0.365077 0.936085
0.518528 0.416357 0.54368
0.56856 0.416237 0.544653
0.618397 0.415918 0.545541
0.668447 0.415654 0.545981
0.718027 0.415226 0.548101
0.518562 0.466533 0.542992
0.568488 0.466222 0.543965
0.618525 0.466055 0.544586
0.668416 0.465618 0.545895
0.717925 0.465076 0.547168
0.518204 0.416617 0.672581
0.568351 0.41647 0.67316
0.618261 0.416155 0.674544
0.668328 0.415868 0.676305
0.718097 0.415161 0.677128
0.518337 0.466763 0.671692
0.568262 0.466484 0.672371
0.618343 0.466185 0.673551
0.668173 0.465628 0.674599
0.717923 0.465256 0.676506
0.568015 0.416492 0.801917
0.618043 0.416275 0.803099
0.668075 0.41563 0.804461
0.718063 0.415247 0.806255
0.518107 0.416916 0.801206
0.518025 0.46687 0.800492
0.568055 0.466591 0.801269
0.617967 0.466341 0.802946
0.668257 0.46585 0.804411
0.718025 0.465283 0.805618
0.617761 0.416323 0.932321
0.668031 0.415744 0.933288
0.718012 0.41527 0.935064
0.517752 0.417006 0.930398
0.567883 0.416728 0.931284
0.517805 0.467086 0.929357
0.56779 0.466712 0.930415
0.617843 0.466325 0.931517
0.667966 0.465774 0.932733
0.71797 0.46515 0.934746
0.518444 0.516407 0.542242
0.568476 0.516301 0.543318
0.618407 0.515958 0.543826
0.668424 0.515746 0.544609
0.717938 0.515158 0.54662
0.518368 0.566491 0.541613
0.568406 0.566292 0.542347
0.618461 0.56612 0.543289
0.668437 0.565814 0.544581
0.717986 0.565143 0.546025
0.518077 0.616304 0.540924
0.568227 0.616169 0.542126
0.618251 0.616112 0.542627
0.668293 0.615954 0.543304
0.717934 0.615383 0.545479
0.518251 0.516637 0.671063
0.568285 0.516565 0.671915
0.618305 0.516237 0.67313
0.668418 0.515899 0.674506
0.717984 0.515272 0.67535
0.518196 0.566735 0.670212
0.568142 0.566436 0.671311
0.618253 0.566254 0.672272
0.668172 0.565687 0.672954
0.71798 0.565395 0.675029
0.517793 0.616519 0.669842
0.568078 0.616462 0.670679
0.617991 0.616366 0.671773
0.668271 0.616212 0.673564
0.718004 0.61543 0.674372
0.518073 0.516951 0.79983
0.517771 0.566899 0.799134
0.517723 0.616948 0.798592
0.56766 0.6166 0.799692
0.567992 0.516624 0.800713
0.618082 0.516322 0.801687
0.668097 0.515749 0.803139
0.717937 0.515453 0.804591
0.568 0.566784 0.800116
0.617884 0.566384 0.801522
0.668301 0.566012 0.80291
0.718025 0.565415 0.803903
0.618001 0.616333 0.800723
0.668167 0.615933 0.801846
0.718026 0.615524 0.803557
0.517664 0.51703 0.928708
0.567846 0.516856 0.929592
0.617701 0.516429 0.930914
0.667968 0.51592 0.93194
0.718031 0.515378 0.933842
0.517685 0.567139 0.928179
0.567624 0.566787 0.92918
0.617735 0.566397 0.930405
0.667929 0.565862 0.93145
0.718118 0.565327 0.933405
0.517335 0.617073 0.927557
0.567543 0.616892 0.928767
0.617644 0.616556 0.929936
0.667864 0.615907 0.930906
0.718056 0.61541 0.932525
0.517851 0.66641 0.540806
0.567895 0.666184 0.541557
0.618083 0.666073 0.542246
0.66834 0.666163 0.543579
0.717903 0.665396 0.544436
0.517652 0.716691 0.540822
0.567772 0.716349 0.541917
0.617966 0.716382 0.54262
0.66812 0.715847 0.543494
0.718286 0.715221 0.544072
0.567795 0.666397 0.67034
0.618034 0.66631 0.671453
0.668166 0.666126 0.672142
0.718054 0.665601 0.674151
0.517703 0.666709 0.669215
0.517661 0.716656 0.670099
0.567849 0.716375 0.670996
0.618005 0.716259 0.672144
0.668211 0.71598 0.67308
0.718752 0.715477 0.674339
0.567686 0.666605 0.799301
0.517499 0.66678 0.79812
0.517702 0.716864 0.799284
0.567697 0.716452 0.799944
0.617814 0.666369 0.800625
0.668417 0.666269 0.802197
0.718145 0.665529 0.803148
0.618164 0.716379 0.800935
0.668369 0.715899 0.801634
0.718378 0.71543 0.803462
0.617716 0.666331 0.929214
0.668014 0.665958 0.930397
0.718103 0.665421 0.932976
0.517282 0.66698 0.927383
0.567382 0.666681 0.928386
0.517489 0.716753 0.928218
0.567769 0.716472 0.928901
0.61788 0.716329 0.930382
0.66829 0.715751 0.931443
0.718494 0.715269 0.933154
0.518246 0.766571 0.54347
0.568407 0.766364 0.544727
0.618406 0.766227 0.545446
0.668867 0.766098 0.546639
0.718546 0.766407 0.5452
0.518904 0.81673 0.545326
0.569083 0.816736 0.545851
0.619015 0.816439 0.546652
0.669255 0.816423 0.547364
0.719292 0.816162 0.547006
0.519569 0.866947 0.547144
0.569572 0.866671 0.548095
0.619421 0.866596 0.548729
0.669395 0.866448 0.549291
0.719252 0.866437 0.548659
0.518425 0.766447 0.671991
0.568346 0.766375 0.673435
0.61859 0.766136 0.67396
0.668311 0.766256 0.674091
0.719032 0.766521 0.6737
0.518949 0.816643 0.674012
0.568917 0.816338 0.675232
0.619038 0.816257 0.675851
0.669145 0.816028 0.676413
0.719278 0.816284 0.675217
0.519472 0.86661 0.6761
0.569291 0.866479 0.676966
0.6193 0.866307 0.677925
0.66924 0.866278 0.678693
0.719218 0.866106 0.677806
0.518164 0.766497 0.801678
0.568536 0.766078 0.801775
0.618467 0.765992 0.803717
0.668637 0.76566 0.805061
0.718443 0.76627 0.805118
0.518796 0.816424 0.803586
0.568856 0.816227 0.804078
0.618924 0.816004 0.804945
0.668953 0.815998 0.805682
0.719121 0.816069 0.805187
0.519283 0.866535 0.805257
0.569286 0.866197 0.805932
0.619076 0.866119 0.807166
0.669161 0.866095 0.80743
0.719138 0.866203 0.806759
0.518211 0.766327 0.930085
0.568273 0.76599 0.931794
0.618243 0.765876 0.932189
0.668644 0.76602 0.933516
0.718869 0.766405 0.933786
0.518646 0.816128 0.932293
0.568592 0.81597 0.933208
0.618855 0.815752 0.93392
0.668823 0.815913 0.934398
0.71901 0.816185 0.93422
0.519133 0.866313 0.933835
0.569003 0.865916 0.93491
0.618892 0.865943 0.935561
0.668865 0.865995 0.936291
0.718995 0.866277 0.936089
0.669634 0.916547 0.551438
0.719304 0.916367 0.550997
0.520031 0.916948 0.548968
0.569953 0.916896 0.549636
0.619872 0.91674 0.550711
0.519875 0.966926 0.549803
0.569967 0.966784 0.550682
0.619669 0.966782 0.551778
0.669612 0.967076 0.553615
0.718708 0.966576 0.554167
0.569698 0.916523 0.678873
0.619539 0.916529 0.67978
0.669285 0.916331 0.680922
0.719109 0.91633 0.680248
0.519806 0.916731 0.678175
0.519892 0.966817 0.678415
0.56964 0.966649 0.679416
0.619458 0.966607 0.679764
0.669336 0.966502 0.681434
0.718835 0.966688 0.68084
0.519762 0.916509 0.80689
0.569565 0.916427 0.807852
0.619305 0.91637 0.808793
0.669235 0.916264 0.809346
0.719181 0.916004 0.80841
0.519692 0.966787 0.807178
0.569617 0.966674 0.808282
0.619278 0.966695 0.808881
0.669252 0.966706 0.810911
0.718693 0.966641 0.811963
0.519598 0.916341 0.935616
0.569311 0.916208 0.936541
0.619163 0.916166 0.937583
0.668888 0.916111 0.938344
0.718889 0.916183 0.937502
0.51975 0.966736 0.936361
0.569671 0.966724 0.937472
0.619257 0.966713 0.938182
0.66905 0.966559 0.938606
0.718506 0.96674 0.937628
0.768076 0.0155486 0.55255
0.817977 0.0158479 0.550451
0.867979 0.0160699 0.549385
0.917834 0.0164598 0.547622
0.968141 0.0167247 0.546314
0.768028 0.0657717 0.5532
0.817926 0.0657758 0.551487
0.867697 0.0660715 0.550134
0.917867 0.0662736 0.548461
0.967752 0.066572 0.547106
0.768053 0.115685 0.552318
0.817952 0.115857 0.55102
0.867982 0.115942 0.549568
0.917923 0.11617 0.548281
0.96794 0.116458 0.546742
0.768067 0.0154789 0.682498
0.818044 0.0158736 0.679649
0.86789 0.0161583 0.678008
0.91808 0.0164679 0.676883
0.968117 0.0166892 0.675105
0.768052 0.0659291 0.681806
0.817915 0.0660257 0.680571
0.867963 0.0660815 0.678905
0.917907 0.066425 0.677461
0.968065 0.0665736 0.676094
0.768172 0.11591 0.681249
0.818227 0.116019 0.679872
0.868001 0.116211 0.678598
0.918206 0.116251 0.677295
0.968139 0.116652 0.675634
0.768324 0.0159234 0.809947
0.818135 0.0160378 0.808145
0.868095 0.0163199 0.806964
0.917976 0.0165673 0.805625
0.968215 0.016736 0.804191
0.768292 0.0661727 0.811006
0.818279 0.0661312 0.809468
0.868025 0.0664683 0.807872
0.918056 0.0665335 0.806484
0.968088 0.0667898 0.804992
0.768461 0.115985 0.810341
0.818338 0.116315 0.80867
0.868419 0.116421 0.807321
0.918222 0.116691 0.805984
0.968384 0.116688 0.80456
0.768355 0.0159717 0.938857
0.818108 0.0160006 0.937621
0.868102 0.0163593 0.936129
0.917872 0.016566 0.934818
0.968002 0.0169558 0.932698
0.768413 0.0662385 0.939448
0.818393 0.0663634 0.938044
0.868179 0.0666655 0.936552
0.918126 0.0668713 0.935114
0.968165 0.0671592 0.93378
0.768556 0.116182 0.938875
0.818592 0.116522 0.937524
0.868547 0.116695 0.936069
0.918559 0.117003 0.934652
0.968651 0.117102 0.933132
0.768009 0.165615 0.551744
0.818041 0.165794 0.55038
0.868078 0.165995 0.549283
0.918156 0.166203 0.547616
0.968065 0.166589 0.54614
0.768126 0.215338 0.550901
0.818046 0.215633 0.549475
0.86814 0.215876 0.54831
0.918099 0.216231 0.546904
0.96823 0.216558 0.545522
0.768326 0.165737 0.680714
0.818195 0.165965 0.679525
0.868311 0.166109 0.677983
0.91827 0.166437 0.67655
0.968392 0.166554 0.675152
0.768187 0.21569 0.679858
0.818354 0.215893 0.678551
0.868384 0.216172 0.67726
0.918412 0.216319 0.675984
0.968361 0.216713 0.674357
0.768259 0.165911 0.809649
0.818541 0.16611 0.808132
0.868422 0.166473 0.806707
0.918554 0.166706 0.805267
0.968479 0.166852 0.80395
0.768389 0.215721 0.808817
0.818461 0.216169 0.807423
0.868627 0.216305 0.806168
0.918593 0.216699 0.804497
0.968675 0.216807 0.803351
0.768519 0.166143 0.938107
0.818737 0.166396 0.936863
0.868659 0.166685 0.935414
0.918822 0.166878 0.933977
0.968835 0.16713 0.932484
0.768572 0.215816 0.937319
0.818678 0.216368 0.936087
0.868887 0.21657 0.934653
0.918932 0.216962 0.933269
0.968987 0.217103 0.932046
0.767958 0.265301 0.550112
0.818124 0.265526 0.548905
0.868101 0.265925 0.547591
0.918169 0.266272 0.546288
0.968079 0.266641 0.545095
0.767951 0.315096 0.549376
0.817878 0.315449 0.548138
0.868032 0.315843 0.546943
0.918012 0.316369 0.545513
0.968104 0.316702 0.54421
0.767859 0.365148 0.548468
0.817952 0.365364 0.547507
0.867897 0.365912 0.546449
0.917967 0.366283 0.544961
0.967864 0.366838 0.543568
0.768234 0.265432 0.67904
0.818157 0.265713 0.677667
0.868371 0.266004 0.676377
0.918292 0.266425 0.675104
0.968363 0.266712 0.673672
0.768141 0.315309 0.678473
0.818286 0.315616 0.677034
0.868235 0.316087 0.67608
0.918295 0.316356 0.674566
0.968282 0.316881 0.673212
0.768167 0.365229 0.677858
0.818062 0.365648 0.676627
0.868172 0.366012 0.675046
0.918116 0.366508 0.673857
0.968188 0.366855 0.67235
0.768262 0.265634 0.808114
0.818536 0.265836 0.806631
0.868487 0.266365 0.80537
0.91867 0.266525 0.80427
0.968591 0.266977 0.802802
0.768384 0.315469 0.807128
0.81836 0.315865 0.80581
0.868538 0.316196 0.80461
0.918419 0.316666 0.803345
0.968617 0.316866 0.802002
0.768249 0.365385 0.807015
0.818421 0.365711 0.805297
0.868289 0.366282 0.803979
0.91842 0.366601 0.802722
0.968412 0.367102 0.801412
0.768566 0.265732 0.936748
0.818784 0.266061 0.935426
0.868766 0.266635 0.933845
0.918921 0.266826 0.932815
0.968789 0.267179 0.931433
0.768513 0.315536 0.935995
0.818633 0.316041 0.934672
0.868761 0.316415 0.933372
0.918742 0.316975 0.932011
0.968784 0.317273 0.930863
0.768508 0.365463 0.935448
0.818695 0.3659 0.934295
0.868548 0.366508 0.932684
0.918633 0.366831 0.931303
0.968607 0.367344 0.929918
0.767856 0.415008 0.54807
0.817769 0.415411 0.546584
0.867869 0.415807 0.545666
0.917796 0.41628 0.544187
0.967864 0.416738 0.542764
0.767756 0.465074 0.547387
0.817777 0.465364 0.546435
0.867729 0.465906 0.544803
0.917818 0.466337 0.543543
0.967705 0.466825 0.542296
0.768046 0.415235 0.677402
0.818146 0.415589 0.675845
0.86803 0.416054 0.674509
0.918085 0.416488 0.673262
0.968054 0.416967 0.67192
0.767953 0.465188 0.676497
0.817844 0.465654 0.675269
0.867988 0.466019 0.673773
0.917964 0.466513 0.672449
0.968071 0.466834 0.670916
0.968197 0.46716 0.799929
0.768231 0.415352 0.806214
0.818272 0.415877 0.804631
0.868328 0.416185 0.803515
0.918318 0.416705 0.801636
0.968362 0.41697 0.800509
0.768083 0.465421 0.805699
0.818242 0.465728 0.804063
0.868175 0.466338 0.802573
0.918253 0.466694 0.801162
0.768399 0.415352 0.934794
0.818468 0.415975 0.933531
0.868589 0.41651 0.932058
0.918458 0.41696 0.930541
0.968597 0.417287 0.929255
0.768311 0.465547 0.934037
0.818451 0.465987 0.932729
0.868467 0.46658 0.930994
0.918619 0.466815 0.929734
0.968481 0.467337 0.928508
0.767753 0.515025 0.546576
0.817612 0.515386 0.545609
0.867718 0.515842 0.544395
0.917653 0.516314 0.542679
0.967771 0.516686 0.541589
0.767713 0.565168 0.545859
0.817825 0.565445 0.544809
0.867767 0.565979 0.543957
0.917759 0.566314 0.542309
0.967807 0.56675 0.541124
0.767894 0.615181 0.545102
0.817839 0.615552 0.544144
0.867888 0.615939 0.543062
0.917844 0.616269 0.541608
0.968017 0.616601 0.540337
0.76789 0.515283 0.675881
0.81794 0.51561 0.674419
0.867882 0.516118 0.673208
0.917948 0.516467 0.671984
0.967912 0.516928 0.670485
0.767943 0.565373 0.674987
0.817857 0.565765 0.67415
0.867933 0.566063 0.672643
0.917956 0.5665 0.671148
0.967946 0.566828 0.66977
0.767988 0.615587 0.674352
0.818061 0.615769 0.67317
0.867948 0.616271 0.672096
0.918116 0.616488 0.670608
0.968078 0.616937 0.669304
0.968219 0.517051 0.799294
0.968055 0.567165 0.798719
0.918184 0.616841 0.79958
0.96833 0.617065 0.79793
0.768192 0.515387 0.804841
0.818111 0.515891 0.803558
0.868133 0.516251 0.801976
0.918088 0.516773 0.800762
0.768073 0.565573 0.804139
0.818139 0.56587 0.802808
0.868095 0.566462 0.80139
0.918187 0.566695 0.800272
0.768248 0.615593 0.803668
0.818168 0.616064 0.802483
0.868227 0.616365 0.801014
0.768328 0.515454 0.933455
0.8183 0.516085 0.932066
0.868487 0.51651 0.930596
0.918465 0.517044 0.929354
0.968604 0.517342 0.928023
0.768424 0.56568 0.932831
0.818506 0.566102 0.931739
0.868434 0.566695 0.930244
0.918573 0.567016 0.928701
0.968463 0.567368 0.927467
0.768466 0.615702 0.932294
0.818484 0.616308 0.931069
0.868479 0.616674 0.929541
0.91855 0.61709 0.928174
0.96861 0.617339 0.926664
0.76806 0.665547 0.54459
0.818089 0.665731 0.543397
0.868246 0.666039 0.542189
0.918228 0.666266 0.540673
0.968249 0.666686 0.53991
0.768703 0.715561 0.543154
0.818661 0.715913 0.542835
0.868759 0.716057 0.541501
0.918724 0.716524 0.540734
0.968601 0.716568 0.539156
0.768086 0.665681 0.673475
0.818206 0.665952 0.672319
0.868253 0.666166 0.670668
0.918319 0.666547 0.669955
0.968307 0.666759 0.668253
0.768473 0.716155 0.674153
0.818745 0.716028 0.672084
0.868598 0.716517 0.670164
0.918757 0.716548 0.669288
0.968527 0.717072 0.667821
0.918358 0.666638 0.798789
0.968421 0.667151 0.797446
0.868843 0.716352 0.799827
0.918487 0.716813 0.797909
0.968637 0.716837 0.796554
0.768223 0.665844 0.802843
0.818319 0.66609 0.801482
0.868385 0.666561 0.800317
0.768974 0.715689 0.801955
0.818633 0.716166 0.800785
0.768473 0.666002 0.931676
0.818598 0.666434 0.930636
0.868632 0.666767 0.929258
0.918732 0.666947 0.927967
0.968656 0.667241 0.9261
0.768792 0.716216 0.932623
0.818742 0.716361 0.930539
0.86883 0.716634 0.928574
0.918772 0.716866 0.92741
0.968884 0.717153 0.925628
0.769081 0.765806 0.542969
0.819135 0.766037 0.541766
0.869344 0.766337 0.540135
0.919098 0.766453 0.539304
0.969033 0.76673 0.537661
0.768823 0.815892 0.544028
0.819018 0.816374 0.542776
0.868986 0.816668 0.541394
0.919014 0.81698 0.539933
0.968839 0.817099 0.538262
0.768701 0.866089 0.546495
0.81871 0.866281 0.544599
0.868824 0.866787 0.542959
0.91885 0.867114 0.541584
0.968727 0.867411 0.539934
0.768966 0.766113 0.672287
0.81902 0.765956 0.671024
0.869346 0.766253 0.669502
0.919092 0.766592 0.668119
0.969053 0.766803 0.666654
0.768735 0.815614 0.673705
0.819193 0.816057 0.671417
0.869253 0.816361 0.669924
0.919224 0.816749 0.668382
0.969049 0.816838 0.666856
0.768905 0.866035 0.675426
0.818846 0.86602 0.673271
0.869068 0.866478 0.6718
0.918967 0.866847 0.670201
0.968959 0.867116 0.668678
0.869109 0.766275 0.798392
0.919146 0.76648 0.797249
0.968982 0.766723 0.795685
0.869287 0.816203 0.798801
0.919293 0.816425 0.797552
0.969162 0.816802 0.795828
0.91919 0.866488 0.799527
0.969025 0.866669 0.797629
0.768995 0.765941 0.801845
0.81923 0.765933 0.800366
0.769027 0.815903 0.802361
0.819135 0.815947 0.800842
0.768894 0.865692 0.804651
0.819112 0.865878 0.80268
0.869053 0.86609 0.800918
0.76889 0.766059 0.930521
0.819034 0.766001 0.929043
0.869371 0.76619 0.927955
0.919219 0.766379 0.925716
0.969332 0.766558 0.9244
0.768919 0.81575 0.932016
0.819311 0.815768 0.929913
0.869438 0.816007 0.928272
0.91943 0.816251 0.926637
0.969343 0.816518 0.925223
0.768963 0.865915 0.933387
0.819124 0.865934 0.931496
0.869262 0.866035 0.930115
0.919229 0.866246 0.928663
0.969277 0.866582 0.927004
0.768597 0.916204 0.547603
0.818649 0.916414 0.546428
0.868483 0.916676 0.544861
0.918649 0.917122 0.543244
0.968578 0.917362 0.5415
0.768579 0.965857 0.549994
0.818348 0.966252 0.548547
0.868312 0.966547 0.546784
0.918388 0.966908 0.545206
0.968526 0.967291 0.543002
0.768769 0.915851 0.678602
0.818803 0.916057 0.675802
0.868765 0.916235 0.674252
0.918758 0.916838 0.672365
0.968906 0.91707 0.670694
0.768606 0.966307 0.679681
0.818324 0.966221 0.677341
0.868554 0.966473 0.676491
0.918358 0.966645 0.674237
0.968719 0.967123 0.67289
0.96901 0.916872 0.799587
0.768775 0.91605 0.805923
0.818926 0.915945 0.804637
0.868762 0.916261 0.803063
0.918906 0.916504 0.801772
0.768612 0.965744 0.809246
0.818804 0.966113 0.807024
0.868444 0.966233 0.80486
0.918608 0.966741 0.803644
0.968578 0.966906 0.801678
0.768917 0.915827 0.935274
0.818924 0.915801 0.933734
0.868896 0.916022 0.932215
0.918795 0.916395 0.930301
0.968996 0.916627 0.928876
0.768557 0.966029 0.935793
0.818387 0.966102 0.935159
0.868464 0.966258 0.933638
0.918424 0.966599 0.932231
0.968466 0.966818 0.930386
0.0441326 0.0209823 0.0613965
0.0946103 0.0168106 0.0454285
0.144571 0.0158822 0.0608518
0.194917 0.0139525 0.0500287
0.244994 0.0177891 0.0660328
0.0180598 0.0433541 0.0483839
0.0446663 0.0670681 0.0465007
0.0727024 0.0434853 0.0600938
0.118751 0.0422053 0.0623992
0.0944519 0.0710178 0.0592078
0.144359 0.0651694 0.049656
0.171769 0.0417199 0.0514522
0.194397 0.0681903 0.0635461
0.218473 0.0417389 0.0643809
0.24458 0.0645169 0.0522859
0.0223705 0.0931666 0.0590901
0.0683714 0.0933455 0.0451031
0.0446819 0.121214 0.0588808
0.121411 0.0928494 0.0476537
0.0942986 0.116776 0.0438089
0.144147 0.118956 0.0626481
0.168124 0.0925676 0.0634229
0.19425 0.114986 0.0504532
0.221799 0.0922162 0.051675
0.244228 0.118402 0.0643619
0.0169952 0.0218947 0.116869
0.0437261 0.0176648 0.169721
0.0724856 0.0166483 0.115606
0.0944832 0.0198679 0.181292
0.117993 0.013198 0.115141
0.14494 0.0136852 0.170424
0.17291 0.0177892 0.115599
0.194876 0.0173777 0.184394
0.217873 0.0133576 0.116519
0.245157 0.0136875 0.171781
0.022434 0.0667614 0.116189
0.0213947 0.0432982 0.181668
0.0691613 0.0434044 0.168821
0.0679706 0.07185 0.115162
0.0446289 0.0708968 0.18064
0.0945677 0.0668746 0.166181
0.12302 0.0693194 0.114711
0.122158 0.0421904 0.169575
0.144602 0.0679457 0.182247
0.168884 0.0417072 0.183421
0.167861 0.0640996 0.115471
0.19464 0.0643503 0.172313
0.222499 0.0417377 0.17293
0.222495 0.0683153 0.116369
0.244828 0.06783 0.184398
0.0184763 0.0930859 0.169376
0.0181198 0.121165 0.11578
0.0726087 0.0933551 0.180751
0.0446879 0.117191 0.1677
0.0729965 0.116306 0.114318
0.118595 0.0927832 0.182198
0.0944044 0.121383 0.179536
0.117526 0.114445 0.11434
0.144511 0.114986 0.170163
0.172167 0.0922152 0.171675
0.17258 0.118905 0.115155
0.194441 0.118218 0.183973
0.218333 0.0919245 0.184299
0.217715 0.114115 0.116045
0.244423 0.114113 0.172694
0.0220191 0.0166485 0.238118
0.067411 0.0223015 0.237136
0.123179 0.0188706 0.23566
0.0943346 0.0165743 0.289605
0.167741 0.0133029 0.236313
0.194928 0.0135074 0.291353
0.172368 0.0415157 0.292849
0.223675 0.0180428 0.237259
0.0179048 0.0711198 0.237628
0.0180545 0.0431419 0.291347
0.0731031 0.0662373 0.236387
0.0445748 0.0670581 0.289837
0.118183 0.0644414 0.235449
0.144839 0.0646832 0.29183
0.172666 0.0681622 0.236297
0.218413 0.063709 0.237177
0.244791 0.0638394 0.294582
0.0224531 0.116701 0.236771
0.0687416 0.0933503 0.288109
0.0680216 0.122096 0.235694
0.0946228 0.116983 0.286826
0.123085 0.119612 0.235098
0.122216 0.0927728 0.29048
0.167873 0.114235 0.236082
0.194561 0.114312 0.292877
0.222761 0.118265 0.237021
0.222208 0.0918214 0.293897
0.0170214 0.0213962 0.359042
0.0439136 0.0209508 0.303584
0.0726781 0.0166076 0.35774
0.118114 0.0137286 0.356873
0.144823 0.0165709 0.302144
0.173582 0.0182692 0.35748
0.217698 0.0132234 0.358604
0.245158 0.0176564 0.306988
0.218748 0.0414115 0.305465
0.0221444 0.0662541 0.358529
0.0726071 0.0434703 0.302626
0.0683866 0.0717039 0.357161
0.119164 0.0423947 0.302812
0.0948482 0.0712688 0.301197
0.123476 0.0690805 0.356639
0.168346 0.0636697 0.357358
0.194666 0.0676882 0.304138
0.222667 0.0679123 0.358479
0.0219555 0.0929343 0.301823
0.017876 0.120782 0.357968
0.0445534 0.120924 0.300726
0.0729232 0.116216 0.35654
0.118205 0.114556 0.35632
0.144675 0.118451 0.304008
0.168702 0.0920758 0.304383
0.173111 0.118431 0.357283
0.218112 0.113694 0.358193
0.244681 0.117683 0.305672
0.0228302 0.0148961 0.479888
0.0439367 0.0171451 0.411293
0.0675196 0.0224845 0.478995
0.0949368 0.019046 0.425761
0.124211 0.0192779 0.478361
0.144898 0.0133326 0.411948
0.16711 0.0126247 0.479401
0.194823 0.0179687 0.427926
0.168514 0.0414311 0.426781
0.245081 0.0134271 0.413511
0.224433 0.0186511 0.480055
0.222849 0.0413552 0.414977
0.0211038 0.0427609 0.424255
0.017065 0.0711761 0.479068
0.0699376 0.0429782 0.411335
0.0737612 0.0651767 0.477958
0.0447231 0.0700913 0.422239
0.0948602 0.0667731 0.407556
0.122643 0.0421139 0.411817
0.117928 0.0633837 0.47777
0.144944 0.0680919 0.425207
0.173337 0.0684135 0.478913
0.194735 0.0636087 0.414786
0.218056 0.0627634 0.479643
0.244822 0.067666 0.427028
0.0181347 0.0925837 0.411041
0.0228172 0.115675 0.478521
0.0723805 0.093207 0.423016
0.0445191 0.116667 0.409462
0.0676699 0.122875 0.477144
0.119041 0.0926279 0.424132
0.0945944 0.121451 0.421522
0.12375 0.119702 0.477492
0.145034 0.114729 0.412583
0.172748 0.0918553 0.413831
0.168073 0.113382 0.478557
0.194889 0.118008 0.427066
0.218458 0.0914432 0.427179
0.223698 0.118322 0.479186
0.244747 0.113499 0.414895
0.0437311 0.0228529 0.549447
0.0943035 0.0131081 0.535258
0.144478 0.0195596 0.556981
0.194662 0.0113212 0.537207
0.244767 0.0194135 0.559596
0.0162737 0.0423831 0.531495
0.0440799 0.0650941 0.530838
0.0751022 0.0429846 0.549121
0.11673 0.0425818 0.556073
0.0942487 0.0738516 0.547053
0.144345 0.0619161 0.538212
0.174906 0.0418854 0.539268
0.19443 0.0694918 0.555026
0.217098 0.0416981 0.556367
0.244408 0.0613088 0.540576
0.0239877 0.0923458 0.547608
0.0669522 0.0929854 0.526953
0.044007 0.12265 0.546875
0.124668 0.0926508 0.536138
0.0941301 0.115547 0.528755
0.144343 0.120062 0.554491
0.166965 0.0922348 0.554815
0.194401 0.111701 0.538449
0.22483 0.0917939 0.539456
0.244408 0.119077 0.556309
0.0159721 0.0221817 0.608633
0.0436377 0.0149473 0.659325
0.0734818 0.0150888 0.607426
0.0941939 0.0220912 0.680526
0.116711 0.0127987 0.608253
0.144566 0.0117039 0.665475
0.175099 0.0192824 0.608734
0.194407 0.0193995 0.688888
0.216463 0.0121538 0.610114
0.244716 0.0117172 0.667289
0.0233654 0.0653261 0.60777
0.0239865 0.0425669 0.678132
0.067248 0.0428181 0.656413
0.0671771 0.0735067 0.605839
0.0441892 0.0726916 0.676014
0.094143 0.0649575 0.656164
0.124201 0.0424121 0.665963
0.123983 0.0701552 0.607114
0.144056 0.06983 0.684049
0.16738 0.0625253 0.608158
0.166853 0.0420863 0.685667
0.194199 0.0619443 0.668712
0.224389 0.04194 0.669806
0.223596 0.0691014 0.609069
0.244227 0.069303 0.685603
0.0166485 0.0924256 0.660453
0.016823 0.12176 0.607228
0.0745676 0.0930686 0.677549
0.0441354 0.115338 0.659104
0.0739284 0.114911 0.605314
0.116353 0.0928333 0.684644
0.0940604 0.123815 0.6761
0.116973 0.112924 0.60675
0.144117 0.112406 0.666451
0.174319 0.0923157 0.667364
0.174136 0.119409 0.607532
0.194089 0.119594 0.685064
0.216792 0.0921961 0.685406
0.217061 0.112344 0.608213
0.244187 0.111846 0.66802
0.0235221 0.0150508 0.73738
0.0666736 0.0232722 0.735945
0.09414 0.0150723 0.786484
0.124605 0.0196789 0.737195
0.166182 0.012238 0.738767
0.194494 0.011662 0.795395
0.225194 0.0191069 0.739146
0.0167099 0.0720409 0.736466
0.0164213 0.0425706 0.789792
0.0441678 0.0654152 0.787729
0.0740776 0.0648977 0.734316
0.116571 0.0628442 0.736304
0.14407 0.0622668 0.795997
0.173427 0.0694779 0.737632
0.174276 0.0420919 0.797942
0.217101 0.0626946 0.73834
0.244259 0.0619927 0.798466
0.0234335 0.115707 0.736304
0.0669082 0.0929607 0.784225
0.0669746 0.123809 0.73429
0.0939707 0.115284 0.785316
0.123868 0.120486 0.736069
0.124318 0.0927746 0.794265
0.166853 0.112666 0.736905
0.19402 0.112126 0.796097
0.223841 0.119402 0.737485
0.224269 0.0923361 0.797082
0.0159098 0.0224753 0.866804
0.0438546 0.0227368 0.807726
0.0735135 0.0154156 0.864517
0.116482 0.012918 0.865539
0.144277 0.019294 0.816642
0.174887 0.01913 0.867239
0.216503 0.0122803 0.867868
0.244581 0.0193497 0.818829
0.023602 0.0658902 0.865642
0.0745694 0.0432206 0.807193
0.0669394 0.0736022 0.864293
0.116308 0.0427135 0.814335
0.0940585 0.0737959 0.806092
0.123723 0.0703023 0.865598
0.166827 0.062938 0.866611
0.194066 0.0696241 0.813855
0.216955 0.0421483 0.815173
0.223523 0.0694409 0.867173
0.0242173 0.0925868 0.805027
0.016959 0.122071 0.865361
0.0442557 0.12274 0.804555
0.0740307 0.114901 0.863132
0.11632 0.113015 0.86486
0.166609 0.0925482 0.814042
0.143941 0.120186 0.813552
0.173807 0.11978 0.865815
0.216649 0.112736 0.866456
0.243942 0.119632 0.814999
0.0227126 0.0164807 0.995608
0.0672049 0.0229367 0.994008
0.0436457 0.0152946 0.917514
0.12376 0.0190881 0.993934
0.0941653 0.022976 0.934541
0.14452 0.0112597 0.924278
0.166977 0.0128333 0.995192
0.194696 0.019405 0.945936
0.224471 0.0184891 0.996276
0.244831 0.0116684 0.924985
0.0176947 0.0719087 0.994939
0.0242096 0.042873 0.935444
0.0734255 0.065695 0.99334
0.0667353 0.0432448 0.915479
0.0442053 0.0733689 0.934533
0.116529 0.0635304 0.99411
0.0940121 0.0649581 0.916231
0.124391 0.0426731 0.924165
0.144049 0.0701204 0.942631
0.173021 0.0691867 0.99504
0.166731 0.0423304 0.942865
0.194125 0.0622576 0.926284
0.21745 0.0632791 0.99591
0.224438 0.0422495 0.927239
0.244076 0.0697677 0.943246
0.0233004 0.11655 0.994397
0.0167479 0.0928053 0.918792
0.0672208 0.122816 0.993054
0.0748271 0.0932398 0.93552
0.0443143 0.115559 0.91704
0.123036 0.120504 0.993257
0.116042 0.093013 0.942024
0.09388 0.123928 0.934329
0.143848 0.112733 0.923781
0.166762 0.113707 0.994379
0.174135 0.0927598 0.925281
0.193816 0.120153 0.942912
0.243865 0.112345 0.925619
0.223074 0.119417 0.995225
0.216529 0.0926231 0.94298
0.0183926 0.143171 0.0474848
0.0725799 0.143585 0.0594354
0.11752 0.143024 0.0618127
0.143871 0.165234 0.0483513
0.171784 0.142698 0.0501139
0.217858 0.142552 0.0635404
0.244079 0.164703 0.0510892
0.0225152 0.193303 0.0577672
0.0447164 0.167059 0.0453703
0.0678169 0.193752 0.0434076
0.094022 0.171771 0.0585357
0.121374 0.193187 0.0464229
0.193998 0.168993 0.0629291
0.167489 0.192931 0.0623861
0.221594 0.192491 0.0507944
0.0182181 0.243519 0.045934
0.0445577 0.221624 0.0574448
0.0724511 0.243987 0.0579532
0.0940425 0.21693 0.0425815
0.11731 0.243229 0.060662
0.143705 0.219271 0.0614304
0.193884 0.214999 0.0495687
0.171458 0.242848 0.0487364
0.243915 0.218738 0.063316
0.217473 0.242604 0.0625721
0.0221738 0.143113 0.179581
0.0684352 0.143589 0.166198
0.121876 0.142972 0.169067
0.168269 0.142554 0.183187
0.167347 0.164514 0.114568
0.194266 0.164726 0.17153
0.222127 0.142136 0.172577
0.0227179 0.166958 0.115184
0.0185557 0.193249 0.16858
0.0445832 0.171055 0.179136
0.0675956 0.172483 0.113928
0.0723172 0.193757 0.179877
0.0942485 0.167211 0.165371
0.122604 0.170103 0.113662
0.118031 0.193196 0.181601
0.144235 0.168922 0.182379
0.171944 0.192622 0.17091
0.22236 0.168771 0.115688
0.24437 0.168165 0.184067
0.218134 0.192315 0.183196
0.0180332 0.221258 0.114661
0.0221637 0.243372 0.17854
0.0445264 0.217471 0.167134
0.0725966 0.216673 0.113158
0.0680882 0.243926 0.165131
0.0941311 0.221894 0.178272
0.117213 0.214785 0.113271
0.121796 0.243294 0.167977
0.144105 0.215159 0.169483
0.172175 0.219344 0.114122
0.194197 0.218634 0.182658
0.168048 0.24271 0.182011
0.217382 0.214314 0.11494
0.244131 0.214496 0.17186
0.221756 0.242418 0.171688
0.0183257 0.142971 0.290118
0.0727146 0.166555 0.235301
0.117829 0.164921 0.234861
0.144507 0.165149 0.291359
0.172226 0.14231 0.292646
0.217977 0.164148 0.2365
0.2445 0.164279 0.293424
0.018119 0.170937 0.236455
0.0684146 0.193707 0.287055
0.0445842 0.167159 0.288972
0.122045 0.193196 0.290014
0.094453 0.171568 0.299901
0.172495 0.168855 0.235719
0.222131 0.19215 0.293396
0.0226358 0.216932 0.235932
0.0181634 0.243236 0.288949
0.0678249 0.2224 0.234798
0.12266 0.220088 0.234234
0.0943469 0.217335 0.285928
0.167761 0.214645 0.235241
0.194381 0.214774 0.29216
0.172065 0.24262 0.29172
0.222362 0.218575 0.236101
0.022384 0.166545 0.357253
0.0725464 0.14348 0.301551
0.118695 0.142958 0.302396
0.168215 0.164217 0.356786
0.218473 0.141895 0.304651
0.0220986 0.193048 0.300461
0.0679948 0.172241 0.356007
0.122968 0.169785 0.355852
0.194563 0.168147 0.304016
0.168451 0.192502 0.30347
0.222708 0.168201 0.357601
0.0177924 0.22094 0.356939
0.0443617 0.221201 0.300009
0.0727971 0.21645 0.355768
0.0722965 0.243802 0.300651
0.117895 0.214965 0.355629
0.118492 0.243248 0.301724
0.144467 0.218948 0.303123
0.172828 0.218984 0.356372
0.218021 0.21408 0.35706
0.244456 0.218114 0.304521
0.218305 0.242237 0.303837
0.0216607 0.14279 0.421805
0.068434 0.143415 0.407276
0.0733729 0.165617 0.476671
0.122548 0.142877 0.411038
0.118089 0.164019 0.476916
0.168765 0.14217 0.425613
0.194693 0.164325 0.413722
0.222677 0.141669 0.414513
0.217905 0.163181 0.478663
0.0170933 0.171308 0.478213
0.0181083 0.192862 0.409915
0.0444382 0.170594 0.420973
0.0722105 0.193645 0.422319
0.0945058 0.16697 0.406903
0.118552 0.192957 0.423787
0.144882 0.168903 0.425094
0.17353 0.168987 0.478241
0.172621 0.192376 0.41307
0.244752 0.167857 0.426759
0.218488 0.191834 0.42581
0.0229814 0.215921 0.477679
0.0217141 0.243063 0.420948
0.0443617 0.217151 0.408505
0.0682071 0.243706 0.406017
0.0675315 0.223311 0.476244
0.0944378 0.221938 0.420803
0.123441 0.220149 0.476662
0.122315 0.243204 0.410215
0.144677 0.214924 0.411944
0.168024 0.213615 0.477668
0.194764 0.21847 0.425651
0.168568 0.242413 0.424951
0.223386 0.218528 0.478341
0.222403 0.242124 0.413703
0.244578 0.214018 0.414033
0.0165374 0.142418 0.531553
0.0743956 0.143158 0.548111
0.0439859 0.165419 0.530185
0.116877 0.14301 0.554498
0.144358 0.162491 0.536937
0.174773 0.142414 0.537963
0.21696 0.141988 0.555093
0.24432 0.161539 0.538986
0.0239851 0.192571 0.546876
0.066845 0.193259 0.526453
0.0941237 0.173919 0.546385
0.124675 0.19307 0.535673
0.194393 0.169613 0.55462
0.166964 0.192562 0.554393
0.224788 0.192128 0.538395
0.0165288 0.242577 0.530577
0.0440474 0.222977 0.546349
0.0744937 0.243452 0.547388
0.0940292 0.215772 0.527511
0.116641 0.243205 0.553546
0.144277 0.220417 0.553559
0.194254 0.211997 0.537551
0.174661 0.242599 0.537037
0.244199 0.21945 0.555352
0.216867 0.24228 0.55437
0.0242387 0.142535 0.675716
0.0235125 0.16552 0.606695
0.066932 0.143119 0.654608
0.124261 0.142858 0.664819
0.0940407 0.165459 0.655834
0.166782 0.142471 0.684044
0.167267 0.162818 0.606988
0.1942 0.162245 0.667037
0.224325 0.142163 0.667666
0.0166804 0.192547 0.659525
0.067253 0.173757 0.604711
0.0442385 0.172848 0.675008
0.0745183 0.19334 0.676532
0.123924 0.170584 0.606332
0.116376 0.193074 0.683973
0.144049 0.170288 0.682989
0.174279 0.192538 0.666391
0.223983 0.169247 0.607762
0.244061 0.169472 0.684975
0.21676 0.192391 0.684147
0.0167554 0.221865 0.606212
0.0241502 0.242763 0.674712
0.0441554 0.215597 0.657531
0.0740883 0.215131 0.604312
0.0669098 0.243281 0.653149
0.116863 0.213246 0.605752
0.0940159 0.224026 0.67541
0.124194 0.243045 0.663756
0.14408 0.212603 0.665458
0.166589 0.242677 0.68294
0.174118 0.219661 0.60656
0.193977 0.219814 0.683826
0.21703 0.212607 0.607203
0.243998 0.212184 0.667072
0.224115 0.242395 0.66655
0.0167108 0.142592 0.78916
0.0441651 0.165538 0.787056
0.0739883 0.164907 0.733503
0.116571 0.163156 0.735292
0.143848 0.162501 0.794825
0.174137 0.142559 0.795721
0.216759 0.162681 0.736809
0.243866 0.162136 0.796278
0.0167393 0.171938 0.735332
0.0668449 0.193143 0.783037
0.124115 0.193043 0.792917
0.173706 0.169729 0.736366
0.224055 0.192527 0.796005
0.023791 0.215788 0.734916
0.0167457 0.242832 0.788152
0.0669513 0.224061 0.733184
0.0939721 0.2155 0.783761
0.123816 0.2209 0.734675
0.166877 0.213028 0.735573
0.193828 0.212465 0.795223
0.173924 0.242862 0.794764
0.223585 0.219478 0.736397
0.0239465 0.165843 0.864624
0.0744871 0.143229 0.806256
0.116151 0.142954 0.813388
0.166585 0.163077 0.864942
0.216522 0.142488 0.813919
0.0242935 0.192723 0.803924
0.066797 0.173946 0.862829
0.093944 0.173913 0.804855
0.123521 0.170833 0.864125
0.166388 0.192786 0.812472
0.193784 0.169956 0.813182
0.223437 0.169698 0.865634
0.016914 0.222255 0.86392
0.0739732 0.215302 0.861522
0.0442835 0.223031 0.803302
0.074427 0.243499 0.804816
0.116153 0.213439 0.863356
0.115939 0.243256 0.812046
0.143765 0.220577 0.811646
0.173344 0.220049 0.86421
0.216544 0.213008 0.865226
0.243781 0.219828 0.813567
0.216378 0.242629 0.812723
0.0248053 0.142847 0.933679
0.0733775 0.165869 0.991997
0.0666483 0.143191 0.913832
0.116016 0.164087 0.992845
0.123714 0.143117 0.922484
0.0938033 0.165403 0.91372
0.166167 0.142973 0.941736
0.193644 0.162569 0.924328
0.216762 0.163739 0.994482
0.223909 0.142684 0.925396
0.0177954 0.171573 0.993855
0.0168015 0.192943 0.918119
0.0443516 0.173561 0.933199
0.0746978 0.193495 0.933812
0.115701 0.193342 0.940784
0.143621 0.170584 0.941263
0.17284 0.169934 0.993732
0.173872 0.192966 0.923579
0.243645 0.170036 0.942186
0.216187 0.192871 0.941559
0.0234021 0.216833 0.993154
0.0247546 0.243167 0.932091
0.0670507 0.223173 0.991714
0.0443122 0.21595 0.915647
0.066631 0.243496 0.912361
0.122759 0.220895 0.992128
0.0937695 0.224312 0.932916
0.123845 0.243362 0.921216
0.166496 0.213883 0.99304
0.143536 0.212756 0.92255
0.165933 0.243066 0.940466
0.193525 0.220445 0.941057
0.223741 0.242805 0.92396
0.222764 0.219643 0.993923
0.243663 0.212451 0.924561
0.044581 0.267426 0.044173
0.0939238 0.272029 0.0574307
0.143681 0.265402 0.0473799
0.19365 0.26908 0.0617405
0.243821 0.264802 0.0498789
0.0224014 0.293502 0.0567106
0.0677349 0.293837 0.0419851
0.0443929 0.32162 0.0562688
0.121399 0.293363 0.0455495
0.0939368 0.317143 0.0414101
0.143644 0.319497 0.0605246
0.167323 0.292962 0.0612266
0.193664 0.315214 0.0480467
0.221383 0.292518 0.0493561
0.243713 0.318783 0.0620101
0.0180235 0.343644 0.044706
0.0443999 0.367438 0.0428675
0.0722442 0.343965 0.0570653
0.0937605 0.372028 0.0560629
0.117205 0.343369 0.0595449
0.143581 0.3655 0.0461937
0.1713 0.34301 0.0471133
0.193632 0.369165 0.0603667
0.217455 0.342664 0.0613038
0.243768 0.364814 0.0484997
0.0227562 0.267099 0.114017
0.0675742 0.272632 0.112876
0.0444417 0.27147 0.178112
0.0941025 0.267384 0.164133
0.12234 0.270307 0.112444
0.14409 0.269208 0.181495
0.167126 0.26452 0.113448
0.193974 0.264859 0.170543
0.222024 0.269072 0.114371
0.244084 0.268504 0.182848
0.0181068 0.293427 0.166853
0.0179099 0.321524 0.113276
0.072175 0.293949 0.178768
0.0443947 0.317568 0.165658
0.0725773 0.316623 0.111847
0.11792 0.293305 0.180313
0.0940281 0.322035 0.177067
0.117046 0.315003 0.112118
0.144007 0.315292 0.168088
0.171846 0.292813 0.169396
0.17207 0.319557 0.112875
0.194067 0.318892 0.181637
0.217832 0.292476 0.182214
0.217283 0.314465 0.113591
0.243942 0.314565 0.170529
0.022006 0.34356 0.177126
0.0225409 0.36723 0.112631
0.0673741 0.372807 0.111437
0.0680037 0.343992 0.163667
0.0443157 0.371582 0.176831
0.0939573 0.367477 0.162696
0.122125 0.370455 0.111196
0.121652 0.343466 0.16639
0.14393 0.369355 0.180153
0.167036 0.364525 0.112126
0.167823 0.342828 0.180941
0.19394 0.364792 0.168977
0.222091 0.369039 0.112937
0.221798 0.342494 0.169976
0.244063 0.368577 0.1816
0.0179061 0.271303 0.235208
0.0726652 0.266752 0.234192
0.0444037 0.267442 0.287279
0.117672 0.265119 0.233791
0.0942784 0.271922 0.298829
0.144386 0.26543 0.290436
0.172309 0.269178 0.234672
0.217711 0.264342 0.235479
0.244324 0.264531 0.292579
0.0223705 0.317109 0.234495
0.0219111 0.293366 0.298962
0.0681781 0.293926 0.285374
0.0676995 0.322616 0.233319
0.0442634 0.321416 0.298558
0.0941913 0.317526 0.284617
0.12245 0.320286 0.232761
0.121918 0.293348 0.288553
0.167582 0.314579 0.233985
0.194201 0.314822 0.290933
0.222295 0.318807 0.23475
0.221894 0.292347 0.291989
0.0178532 0.371377 0.233805
0.0179113 0.343382 0.287622
0.0724661 0.366788 0.232749
0.0442238 0.36745 0.286317
0.0720887 0.343851 0.299289
0.117457 0.365115 0.23245
0.0941407 0.372012 0.297384
0.144284 0.365484 0.28901
0.172288 0.369235 0.233237
0.171936 0.342693 0.290265
0.217702 0.364417 0.233979
0.244152 0.364495 0.291554
0.022261 0.266809 0.356241
0.0678331 0.272568 0.355031
0.122779 0.270123 0.354922
0.168114 0.264522 0.355809
0.194421 0.268574 0.303403
0.222623 0.268505 0.35669
0.017663 0.321169 0.355459
0.0727357 0.316706 0.354409
0.117876 0.315153 0.354255
0.144294 0.319155 0.301794
0.168295 0.292752 0.30262
0.172602 0.319186 0.355243
0.217914 0.314225 0.356071
0.244248 0.318283 0.303275
0.022084 0.366928 0.354856
0.0676859 0.372574 0.353836
0.118243 0.343374 0.300294
0.122623 0.37027 0.353468
0.167932 0.364414 0.354472
0.194319 0.368625 0.301678
0.21813 0.342306 0.302476
0.222416 0.368667 0.355528
0.0169564 0.271486 0.477146
0.0442891 0.270961 0.420222
0.0733888 0.265796 0.475766
0.0943496 0.267297 0.405889
0.11789 0.264218 0.476059
0.14473 0.269071 0.424088
0.173314 0.269138 0.477326
0.19452 0.264522 0.412995
0.217801 0.263385 0.47789
0.244532 0.268204 0.425977
0.0178752 0.293141 0.408767
0.0228775 0.316186 0.476391
0.0721884 0.293844 0.421495
0.0443051 0.317244 0.407105
0.0673383 0.32347 0.474945
0.118415 0.293188 0.422891
0.0943535 0.322002 0.41962
0.123441 0.320355 0.475352
0.144596 0.315001 0.410723
0.172463 0.29259 0.412143
0.167879 0.313798 0.476644
0.194567 0.318699 0.424662
0.218249 0.292145 0.425092
0.223195 0.318821 0.477499
0.244391 0.314184 0.41314
0.0214817 0.343183 0.419279
0.0166894 0.371733 0.475445
0.0681284 0.343819 0.404766
0.0441837 0.370994 0.418873
0.0730456 0.365957 0.474615
0.0942589 0.367349 0.404776
0.122261 0.343275 0.408689
0.117781 0.364283 0.474848
0.144566 0.369205 0.422586
0.168404 0.342533 0.423774
0.173194 0.369431 0.476032
0.194382 0.364516 0.411544
0.222275 0.342214 0.412551
0.217679 0.363449 0.476695
0.244482 0.368222 0.424901
0.0439093 0.265695 0.529286
0.0940193 0.274262 0.545536
0.14419 0.262619 0.536006
0.194265 0.269876 0.553889
0.244149 0.261718 0.538107
0.0238926 0.292824 0.545457
0.0667899 0.293446 0.525186
0.0438488 0.32313 0.544856
0.124626 0.293296 0.534486
0.0939021 0.316072 0.526143
0.144105 0.320615 0.552258
0.166874 0.292732 0.553167
0.194161 0.312157 0.536651
0.224652 0.292321 0.537139
0.244144 0.319583 0.55407
0.0163313 0.342813 0.529272
0.0436884 0.365803 0.527846
0.074235 0.343628 0.546127
0.0938433 0.374432 0.54392
0.116445 0.343399 0.552421
0.144047 0.362785 0.534888
0.174537 0.342677 0.536118
0.194084 0.369975 0.552648
0.216723 0.342364 0.553439
0.244079 0.361758 0.536601
0.0234398 0.265801 0.605643
0.0670133 0.274034 0.60388
0.0441226 0.273027 0.674126
0.0940025 0.265628 0.654407
0.123796 0.270927 0.604942
0.14392 0.270507 0.681928
0.167141 0.262966 0.605942
0.193974 0.262421 0.665958
0.223867 0.269465 0.607043
0.243844 0.269607 0.684321
0.0165557 0.292801 0.65843
0.0166599 0.322124 0.604802
0.074364 0.29346 0.675428
0.043965 0.315871 0.655945
0.0738862 0.31526 0.603093
0.116346 0.29323 0.682374
0.0938194 0.324144 0.673909
0.116739 0.313445 0.60452
0.143917 0.312874 0.664351
0.174058 0.292706 0.665302
0.173838 0.31982 0.605587
0.193896 0.319965 0.682713
0.216571 0.292533 0.683277
0.216931 0.312716 0.60609
0.243883 0.312316 0.666049
0.0231538 0.365964 0.604189
0.0241477 0.343024 0.673532
0.0668376 0.37425 0.60231
0.066657 0.343493 0.651861
0.0439317 0.37333 0.672572
0.0937628 0.365747 0.653131
0.123638 0.371087 0.60387
0.124026 0.343277 0.662585
0.143736 0.37054 0.680985
0.16661 0.342842 0.681566
0.166981 0.363178 0.604832
0.193864 0.362596 0.664647
0.223819 0.369521 0.605646
0.224052 0.342468 0.665301
0.243832 0.369779 0.683141
0.0167233 0.272033 0.734256
0.0442164 0.265898 0.785588
0.074075 0.265221 0.732102
0.116427 0.263384 0.733804
0.143723 0.262742 0.793481
0.173586 0.269912 0.734928
0.216648 0.262812 0.735923
0.243712 0.26226 0.795076
0.0235778 0.316063 0.733553
0.0667631 0.293413 0.78164
0.0667554 0.324152 0.731582
0.0937953 0.315816 0.782399
0.123635 0.320943 0.733347
0.123948 0.293289 0.791793
0.166616 0.313208 0.734291
0.193658 0.312646 0.79372
0.223495 0.319655 0.735233
0.223872 0.292665 0.7949
0.0165735 0.372289 0.732907
0.0165896 0.342949 0.786882
0.0439732 0.366011 0.784522
0.0737312 0.365364 0.730783
0.116281 0.363355 0.732887
0.143633 0.362839 0.792137
0.173413 0.369957 0.733862
0.173922 0.342964 0.793357
0.216547 0.362866 0.734646
0.243678 0.362202 0.793784
0.0238803 0.266284 0.863259
0.0667163 0.274067 0.861575
0.0937851 0.27424 0.803471
0.123304 0.271005 0.862748
0.16634 0.263271 0.863815
0.193619 0.270175 0.812155
0.22331 0.269843 0.864447
0.02429 0.292994 0.802459
0.0167977 0.322415 0.862715
0.0442044 0.323235 0.801975
0.0738913 0.315438 0.860489
0.115997 0.313643 0.862206
0.166249 0.293014 0.811199
0.143615 0.320714 0.810612
0.173201 0.320191 0.86295
0.216373 0.313188 0.863893
0.243653 0.319996 0.812054
0.0236797 0.366354 0.86205
0.0665284 0.374225 0.860342
0.074257 0.343672 0.803544
0.0936552 0.374353 0.802299
0.115808 0.3434 0.811042
0.123313 0.371108 0.86164
0.166292 0.363295 0.862533
0.193602 0.370342 0.810953
0.216128 0.342779 0.81144
0.223265 0.369886 0.863268
0.0176447 0.272015 0.992646
0.0733203 0.266061 0.99065
0.0442486 0.273722 0.931727
0.115867 0.264325 0.991532
0.0936974 0.265596 0.912459
0.14341 0.270917 0.940013
0.172654 0.269928 0.992303
0.193481 0.262773 0.923104
0.216561 0.263702 0.993178
0.24343 0.270176 0.941058
0.0231685 0.316835 0.992026
0.0166866 0.293222 0.916681
0.0670097 0.323288 0.990457
0.0745852 0.29367 0.932717
0.044203 0.316113 0.914728
0.122674 0.320893 0.990806
0.115417 0.293502 0.939302
0.093679 0.324523 0.93176
0.166276 0.314089 0.991727
0.143433 0.312964 0.9214
0.173654 0.29313 0.922602
0.193405 0.320487 0.939678
0.222556 0.319758 0.992602
0.215892 0.292954 0.940291
0.24346 0.312516 0.92353
0.0174277 0.372063 0.991275
0.0245477 0.343244 0.93102
0.0731246 0.3661 0.989461
0.066422 0.343637 0.910828
0.0440803 0.373963 0.930554
0.115914 0.364308 0.990498
0.0935956 0.365658 0.911185
0.123746 0.343404 0.919965
0.143357 0.370912 0.938778
0.165877 0.343251 0.939074
0.172544 0.370091 0.99118
0.193418 0.362865 0.921927
0.21647 0.36373 0.991931
0.223655 0.342894 0.922802
0.24332 0.370217 0.939837
0.0223031 0.393656 0.0550639
0.0676117 0.393888 0.0406204
0.121229 0.39338 0.0443732
0.167306 0.392879 0.0600607
0.19369 0.415103 0.0470966
0.221384 0.392534 0.0479697
0.0178968 0.443619 0.0433531
0.0443268 0.421725 0.0549568
0.0721632 0.44388 0.0557068
0.0938254 0.416982 0.040196
0.117077 0.443217 0.0581565
0.143521 0.419364 0.0590166
0.171193 0.442836 0.0460427
0.217406 0.442655 0.0598522
0.243716 0.418749 0.0606801
0.0220879 0.49359 0.0535301
0.0442775 0.467434 0.0413906
0.067501 0.493778 0.0393832
0.0936655 0.47194 0.0546606
0.121121 0.493129 0.042529
0.143488 0.465298 0.0448563
0.19359 0.469079 0.0591961
0.167293 0.492692 0.0587144
0.243723 0.464622 0.0470349
0.2213 0.492431 0.0465847
0.0181481 0.393537 0.165854
0.0720528 0.393939 0.177409
0.0725222 0.416642 0.110517
0.116955 0.414831 0.110634
0.117796 0.393363 0.179149
0.143938 0.415282 0.166827
0.171705 0.392749 0.168179
0.217218 0.414304 0.112343
0.217754 0.392425 0.180853
0.24393 0.414423 0.169402
0.017716 0.421462 0.111988
0.0219575 0.443502 0.175628
0.0443099 0.417585 0.164529
0.0679047 0.443931 0.162205
0.0939821 0.422039 0.17573
0.121668 0.443267 0.165266
0.171942 0.419459 0.111573
0.167757 0.442695 0.179614
0.193992 0.418799 0.180155
0.221728 0.442341 0.168648
0.0223695 0.467185 0.111104
0.0179278 0.493409 0.164233
0.0672795 0.472632 0.110071
0.0441825 0.471578 0.175292
0.0720346 0.493817 0.176227
0.0938856 0.467256 0.161091
0.122088 0.470298 0.109922
0.117761 0.493201 0.177671
0.143906 0.46919 0.178838
0.167031 0.464296 0.110874
0.171685 0.492555 0.166903
0.19381 0.464688 0.167772
0.221964 0.468983 0.111637
0.244 0.468374 0.180274
0.217777 0.492227 0.179552
0.0218098 0.393393 0.297647
0.0680625 0.393895 0.284184
0.12181 0.393341 0.287391
0.167533 0.414551 0.232619
0.19414 0.414855 0.289672
0.22181 0.392354 0.291018
0.0222418 0.417118 0.233152
0.017875 0.443351 0.285917
0.0676393 0.422578 0.231934
0.0442128 0.421397 0.297113
0.072145 0.443852 0.297898
0.0941142 0.417432 0.283491
0.122404 0.420187 0.23168
0.118138 0.443278 0.299206
0.171837 0.442647 0.288925
0.222202 0.41876 0.233586
0.0177049 0.471299 0.232473
0.0216763 0.493296 0.296369
0.0441866 0.467472 0.284903
0.0723868 0.466535 0.231262
0.0680367 0.493709 0.282653
0.11738 0.46498 0.231094
0.121822 0.493138 0.286009
0.0940617 0.471926 0.29609
0.14415 0.465215 0.287771
0.172189 0.469105 0.232069
0.217603 0.464117 0.232657
0.221862 0.492032 0.289341
0.244204 0.464345 0.290187
0.072573 0.416594 0.353058
0.117777 0.415077 0.353073
0.168168 0.392731 0.30128
0.217849 0.414192 0.354837
0.0175072 0.4212 0.354073
0.144191 0.419138 0.300393
0.172459 0.419115 0.353811
0.21805 0.442196 0.301195
0.244202 0.418287 0.302319
0.0219317 0.466782 0.353444
0.0675579 0.472649 0.352425
0.122455 0.470059 0.352212
0.168096 0.49252 0.300164
0.167805 0.464354 0.353235
0.19417 0.468603 0.300703
0.222401 0.46855 0.354037
0.0177263 0.393161 0.407095
0.0225808 0.416092 0.474981
0.0719492 0.393852 0.420167
0.118329 0.393238 0.421516
0.144477 0.415081 0.409735
0.172266 0.392575 0.410631
0.167772 0.413754 0.475239
0.218265 0.392121 0.423864
0.244281 0.414208 0.412117
0.0213865 0.443116 0.418283
0.0441247 0.417201 0.40578
0.0678111 0.443792 0.403201
0.0671618 0.423444 0.4735
0.0941896 0.422161 0.418339
0.122259 0.443188 0.407669
0.123225 0.420371 0.474193
0.168219 0.442443 0.422489
0.194487 0.418548 0.423104
0.222184 0.442118 0.411119
0.223094 0.418804 0.476354
0.0165961 0.471733 0.474282
0.0175441 0.493098 0.40578
0.0439105 0.470999 0.417452
0.0729426 0.46585 0.473031
0.0718144 0.493754 0.418845
0.0940868 0.467169 0.403311
0.117648 0.464173 0.473682
0.118172 0.493037 0.420722
0.144452 0.469139 0.421409
0.173138 0.46918 0.474776
0.194326 0.464426 0.410413
0.17228 0.492361 0.409387
0.217598 0.463276 0.475541
0.218225 0.491895 0.422587
0.244415 0.467966 0.423531
0.0236983 0.392863 0.544003
0.0665267 0.393589 0.523638
0.124387 0.393353 0.533105
0.093762 0.415928 0.52478
0.16666 0.392796 0.552108
0.19409 0.412155 0.535508
0.22456 0.392333 0.536026
0.0161897 0.442861 0.527534
0.0437518 0.423205 0.543617
0.0741838 0.443613 0.544697
0.11634 0.443311 0.551575
0.143991 0.420718 0.550677
0.174577 0.442612 0.534693
0.216636 0.442336 0.552471
0.244016 0.41967 0.553019
0.0235772 0.492895 0.542837
0.0435963 0.465758 0.526298
0.0664198 0.493426 0.522756
0.0937827 0.474293 0.542889
0.124418 0.493133 0.53229
0.143924 0.462676 0.533892
0.166621 0.492643 0.550864
0.194069 0.469916 0.551267
0.243972 0.461764 0.535664
0.224491 0.492129 0.534792
0.0163576 0.392934 0.657105
0.074276 0.393623 0.674235
0.043867 0.41579 0.655022
0.0737377 0.415375 0.60184
0.116626 0.41359 0.603403
0.116071 0.393269 0.681568
0.143806 0.412809 0.662982
0.173952 0.392777 0.664167
0.216877 0.412666 0.60509
0.216473 0.392553 0.681974
0.243874 0.41224 0.664956
0.0165376 0.4223 0.603454
0.0239662 0.443023 0.672155
0.0665692 0.443469 0.650781
0.0937094 0.424186 0.672886
0.123898 0.443204 0.661611
0.166367 0.442819 0.681105
0.173734 0.419795 0.604317
0.193801 0.419988 0.681677
0.223973 0.442407 0.664112
0.0232047 0.465936 0.602767
0.0163802 0.492861 0.655553
0.0668061 0.474061 0.601133
0.0438204 0.473219 0.671305
0.0741956 0.493509 0.673048
0.0937265 0.465678 0.652456
0.12344 0.470909 0.602864
0.115927 0.493153 0.680582
0.143755 0.470587 0.679875
0.166885 0.462996 0.603643
0.19376 0.462345 0.663941
0.173922 0.492659 0.66282
0.223626 0.46957 0.604557
0.216513 0.492434 0.681106
0.243729 0.469652 0.681738
0.0233938 0.416169 0.732223
0.0665013 0.393465 0.780426
0.123914 0.393282 0.790415
0.0936737 0.41583 0.781399
0.166617 0.413141 0.733247
0.193669 0.412557 0.792873
0.223914 0.392686 0.7937
0.0165251 0.443026 0.785081
0.0666983 0.424202 0.730594
0.123336 0.420905 0.732299
0.173779 0.442832 0.792151
0.223357 0.419722 0.734061
0.0164573 0.472196 0.731639
0.0438458 0.465941 0.783176
0.073555 0.465183 0.729774
0.0663555 0.493358 0.779391
0.116173 0.463403 0.731864
0.123748 0.49316 0.78935
0.143456 0.462785 0.791317
0.173501 0.469884 0.732964
0.21647 0.462696 0.733629
0.223791 0.492535 0.792241
0.243602 0.462189 0.792882
0.0239407 0.393099 0.801343
0.0736262 0.415329 0.859274
0.115844 0.41355 0.860982
0.1662 0.393018 0.810215
0.216225 0.413075 0.862818
0.0166116 0.42256 0.861202
0.0438744 0.423317 0.800804
0.0740302 0.443568 0.802687
0.115726 0.443287 0.809707
0.143573 0.420712 0.809299
0.17317 0.420176 0.862045
0.216173 0.442645 0.81054
0.243591 0.419953 0.811237
0.0235686 0.466221 0.860716
0.0238437 0.493029 0.800037
0.0663407 0.474103 0.859298
0.09347 0.474107 0.801169
0.123121 0.470955 0.860561
0.166229 0.463201 0.861409
0.166065 0.492852 0.809365
0.193483 0.470152 0.809989
0.223179 0.469853 0.862107
0.01648 0.39325 0.915335
0.074535 0.393678 0.931807
0.043968 0.416065 0.913358
0.115427 0.393434 0.938565
0.143384 0.412837 0.920509
0.166298 0.413853 0.990761
0.173714 0.3931 0.921412
0.215961 0.392999 0.939203
0.243412 0.412553 0.922304
0.0230481 0.416951 0.990527
0.024495 0.443249 0.929758
0.0668044 0.423228 0.989217
0.0664083 0.44356 0.909941
0.122428 0.420935 0.989585
0.0935268 0.424349 0.930531
0.123548 0.443262 0.918811
0.165769 0.443099 0.938027
0.193262 0.420465 0.938811
0.222563 0.419736 0.991463
0.223613 0.442832 0.921502
0.0173551 0.471962 0.989703
0.0163708 0.493271 0.913752
0.0729533 0.465929 0.988229
0.0439695 0.473882 0.929026
0.0744193 0.493592 0.930442
0.115768 0.464158 0.989083
0.0935048 0.465434 0.910302
0.115367 0.493343 0.937291
0.143233 0.470661 0.937538
0.172505 0.470006 0.989938
0.193339 0.462583 0.920914
0.173517 0.492975 0.920164
0.216471 0.463673 0.990693
0.243369 0.470159 0.938761
0.215909 0.492863 0.938019
0.04419 0.521607 0.0534876
0.0937394 0.516927 0.038795
0.143536 0.519197 0.0577535
0.193633 0.514887 0.0457215
0.243663 0.518624 0.0592059
0.0178013 0.543577 0.0419235
0.044236 0.567199 0.0403403
0.0720538 0.543781 0.0546649
0.117069 0.54316 0.0570978
0.0936132 0.571894 0.0530816
0.143492 0.565172 0.0435182
0.171333 0.542621 0.0445088
0.193592 0.568852 0.0581912
0.217275 0.542374 0.0586003
0.24367 0.564467 0.0459167
0.0222283 0.593465 0.0526821
0.06741 0.593635 0.0377122
0.044231 0.621509 0.0523146
0.120976 0.592914 0.0412263
0.0937343 0.616525 0.0376963
0.143477 0.618862 0.0562588
0.167283 0.592629 0.0573807
0.19369 0.614764 0.0441675
0.221302 0.592231 0.0452972
0.243445 0.618474 0.0581264
0.0175785 0.521429 0.110651
0.0441806 0.5174 0.162992
0.0723488 0.516396 0.109321
0.093861 0.521914 0.174447
0.11693 0.514557 0.10937
0.143955 0.515071 0.165766
0.171899 0.519235 0.110224
0.193935 0.518642 0.178709
0.217219 0.514135 0.110993
0.243871 0.514264 0.16817
0.0224147 0.567048 0.109919
0.0218529 0.543381 0.174602
0.0677846 0.543681 0.160827
0.0672379 0.572545 0.108715
0.0441865 0.571288 0.174023
0.0937976 0.566879 0.160231
0.121531 0.543034 0.163443
0.122036 0.570054 0.108621
0.143859 0.568908 0.177317
0.166983 0.564212 0.109494
0.167733 0.542541 0.178209
0.193915 0.564474 0.166133
0.22172 0.54214 0.167244
0.22207 0.568709 0.11035
0.243902 0.568148 0.179104
0.0179605 0.593295 0.162873
0.0176952 0.621351 0.10958
0.0719682 0.593587 0.174975
0.0442841 0.617028 0.161826
0.0723592 0.616039 0.107973
0.117695 0.592893 0.176588
0.0939345 0.621647 0.172846
0.116984 0.614161 0.108115
0.143969 0.614777 0.163871
0.171702 0.592362 0.165394
0.171914 0.619064 0.108805
0.193822 0.618364 0.177493
0.21764 0.59206 0.17801
0.217031 0.613942 0.109712
0.243751 0.614161 0.166403
0.0221652 0.516973 0.231721
0.0675809 0.522419 0.230813
0.0440977 0.521274 0.295861
0.0940664 0.517189 0.282287
0.122228 0.520022 0.230431
0.144149 0.518963 0.29915
0.167503 0.514322 0.231285
0.194174 0.514511 0.288521
0.222086 0.51855 0.232244
0.0178265 0.543251 0.28464
0.0177528 0.571248 0.231114
0.0441811 0.567177 0.283735
0.072288 0.566376 0.230123
0.0721066 0.543708 0.296703
0.11739 0.564566 0.229814
0.118106 0.543091 0.298203
0.0941039 0.571657 0.294703
0.144231 0.564956 0.286215
0.171831 0.542313 0.287693
0.17217 0.568851 0.230573
0.19419 0.568221 0.299002
0.217587 0.56392 0.231395
0.218029 0.541953 0.299888
0.244013 0.564016 0.288693
0.0224313 0.61666 0.230708
0.0218211 0.593109 0.295052
0.0679577 0.59357 0.281341
0.0675863 0.622264 0.229483
0.0443069 0.621177 0.295026
0.121829 0.592831 0.284325
0.0941096 0.616719 0.280879
0.122374 0.619734 0.228934
0.144171 0.618474 0.297878
0.16747 0.614053 0.229838
0.194127 0.614396 0.287008
0.168138 0.592205 0.298388
0.221992 0.618265 0.230632
0.221744 0.591884 0.287867
0.244 0.617693 0.298931
0.0174436 0.521166 0.352829
0.072351 0.516245 0.35177
0.1177 0.51474 0.351772
0.172496 0.518922 0.352609
0.217813 0.513863 0.353494
0.244164 0.518029 0.300803
0.0219736 0.566692 0.352232
0.0677439 0.572286 0.351091
0.12253 0.569844 0.350975
0.167939 0.564129 0.351892
0.222273 0.568346 0.352746
0.0176377 0.620937 0.351873
0.07247 0.615856 0.350647
0.117675 0.614253 0.350423
0.17239 0.618502 0.351018
0.217707 0.613662 0.352113
0.0224814 0.516057 0.473648
0.0439367 0.517109 0.404621
0.0671964 0.523143 0.472354
0.0941396 0.521782 0.416771
0.123198 0.520265 0.473057
0.144372 0.514775 0.408505
0.167749 0.513456 0.474011
0.194481 0.518345 0.42192
0.223127 0.518664 0.474733
0.244313 0.513832 0.410723
0.0212807 0.543054 0.416939
0.016682 0.571504 0.472986
0.0678875 0.5435 0.402167
0.0730694 0.565464 0.471894
0.0440936 0.570739 0.416217
0.0941602 0.56675 0.402016
0.122245 0.542923 0.406124
0.117671 0.563815 0.472441
0.144469 0.5689 0.420087
0.16818 0.542195 0.420923
0.19433 0.564036 0.409373
0.173069 0.568851 0.473444
0.217665 0.563051 0.473957
0.222217 0.541873 0.409855
0.244394 0.567897 0.421859
0.0176726 0.592886 0.404649
0.0227141 0.615765 0.472666
0.0720598 0.593415 0.417703
0.0441491 0.616692 0.403471
0.0672027 0.622849 0.471223
0.118112 0.592674 0.41939
0.0942021 0.621476 0.415487
0.123104 0.619571 0.471874
0.14441 0.614271 0.407074
0.172369 0.592048 0.408082
0.167666 0.613232 0.472699
0.194422 0.618065 0.420441
0.218049 0.591641 0.421459
0.222933 0.618355 0.473535
0.24411 0.61362 0.409186
0.0436432 0.523101 0.542209
0.0936703 0.515742 0.523934
0.143939 0.520452 0.549562
0.194124 0.511803 0.533896
0.244023 0.519416 0.551476
0.0160756 0.542656 0.526467
0.0435666 0.565401 0.52535
0.0741006 0.543379 0.543469
0.0667243 0.573884 0.599997
0.116338 0.543091 0.550409
0.0936971 0.574004 0.541808
0.143945 0.562245 0.532498
0.174458 0.542412 0.533421
0.194007 0.569586 0.549589
0.21661 0.542146 0.55075
0.243923 0.561432 0.534346
0.0236862 0.592598 0.541555
0.0664321 0.593115 0.521291
0.0438104 0.622853 0.541468
0.0736235 0.614723 0.599459
0.12437 0.592763 0.530982
0.0937499 0.615174 0.52275
0.166626 0.59234 0.54951
0.143897 0.619972 0.548295
0.193925 0.611736 0.532735
0.224389 0.591995 0.533659
0.243744 0.619177 0.550469
0.0163577 0.522136 0.602519
0.043748 0.515747 0.653977
0.0736668 0.515095 0.600642
0.0936473 0.524133 0.671608
0.116634 0.513351 0.602251
0.14373 0.512685 0.662353
0.173699 0.519752 0.60291
0.193671 0.519873 0.680133
0.21677 0.512609 0.603854
0.243774 0.512084 0.663698
0.0230228 0.565736 0.601787
0.0238054 0.542929 0.671055
0.0664058 0.543259 0.649533
0.0437785 0.573041 0.669889
0.0937009 0.565398 0.651091
0.12395 0.542967 0.660208
0.123552 0.570619 0.601659
0.166296 0.542666 0.679507
0.143674 0.57032 0.678552
0.166887 0.562757 0.60229
0.193738 0.562303 0.662182
0.223922 0.542292 0.66324
0.223451 0.569262 0.603166
0.243604 0.569532 0.680228
0.0162547 0.592803 0.654292
0.016314 0.621965 0.601243
0.0740572 0.593243 0.671878
0.0437569 0.615528 0.652515
0.115898 0.592848 0.679528
0.0935948 0.623759 0.6704
0.116604 0.612929 0.601162
0.143767 0.612309 0.660678
0.173962 0.592464 0.661451
0.173537 0.619445 0.601805
0.193637 0.619605 0.678873
0.216417 0.592331 0.679552
0.216559 0.612466 0.602524
0.243626 0.611959 0.662274
0.02324 0.515963 0.731137
0.0666689 0.524055 0.729272
0.0439057 0.523219 0.799391
0.09363 0.515678 0.780238
0.123372 0.520842 0.731156
0.16657 0.512991 0.732365
0.193623 0.512297 0.791612
0.223389 0.519546 0.732808
0.0163447 0.542941 0.783791
0.0164056 0.572228 0.730378
0.0438585 0.565751 0.78198
0.0735825 0.565013 0.728409
0.116152 0.563133 0.730663
0.093449 0.57405 0.799934
0.143566 0.562564 0.789799
0.173319 0.569804 0.731296
0.173805 0.542685 0.790773
0.216399 0.562703 0.732187
0.243493 0.562122 0.791634
0.0234592 0.615843 0.729697
0.0239411 0.592991 0.798662
0.0663157 0.593222 0.777916
0.0666565 0.623808 0.728196
0.0439854 0.62326 0.7982
0.123699 0.592898 0.788323
0.0936576 0.615337 0.778698
0.123321 0.620501 0.729993
0.16643 0.612696 0.730821
0.193465 0.612285 0.790225
0.22321 0.619542 0.731644
0.223774 0.592421 0.790978
0.0166256 0.522521 0.859969
0.0736331 0.515287 0.85789
0.1158 0.513263 0.859796
0.143533 0.520502 0.808331
0.173127 0.520025 0.86076
0.216306 0.512962 0.861529
0.243546 0.519798 0.809885
0.0235032 0.566037 0.859275
0.07405 0.543465 0.801183
0.0664408 0.573985 0.857839
0.115742 0.543138 0.808948
0.123219 0.57078 0.859253
0.166243 0.563131 0.860093
0.193481 0.569965 0.808537
0.216109 0.542553 0.80896
0.22307 0.569742 0.860845
0.0166342 0.622304 0.858599
0.0736396 0.614914 0.85634
0.115839 0.613043 0.858508
0.166034 0.592707 0.807831
0.143452 0.620245 0.806782
0.172898 0.619849 0.859505
0.216194 0.612722 0.860248
0.243352 0.619688 0.808682
0.0229961 0.516969 0.989339
0.0667872 0.523222 0.987944
0.0439726 0.515937 0.912113
0.0935591 0.524366 0.929379
0.122506 0.520697 0.988436
0.14335 0.512761 0.919067
0.166257 0.513758 0.989361
0.193318 0.52033 0.937223
0.222531 0.519606 0.990249
0.243426 0.512408 0.921047
0.0244161 0.543225 0.928386
0.0173349 0.57206 0.988435
0.0662746 0.543399 0.908728
0.0727482 0.5658 0.98697
0.0439801 0.57376 0.927626
0.0934998 0.56524 0.909245
0.115784 0.563871 0.987855
0.123697 0.543086 0.917449
0.165751 0.542944 0.936774
0.143275 0.570611 0.936236
0.172453 0.569819 0.988668
0.193328 0.562519 0.919354
0.216352 0.563502 0.989444
0.223577 0.542689 0.920238
0.243306 0.569956 0.937307
0.0162941 0.593083 0.912468
0.0229138 0.616582 0.987906
0.074426 0.593411 0.929014
0.0667353 0.622901 0.986399
0.043987 0.615631 0.910851
0.115395 0.593077 0.935962
0.0935342 0.624063 0.927874
0.122392 0.620505 0.987017
0.143343 0.612446 0.91793
0.166307 0.613602 0.987926
0.173695 0.592788 0.919029
0.193247 0.620103 0.936067
0.222519 0.619553 0.98877
0.215913 0.592658 0.936823
0.243239 0.612275 0.91958
0.0177934 0.643283 0.0407305
0.0722428 0.643348 0.0534029
0.11707 0.64272 0.0558623
0.143481 0.664959 0.0417284
0.171105 0.642437 0.0432371
0.217202 0.642321 0.0576399
0.243378 0.664571 0.044414
0.0224741 0.693132 0.0515134
0.0442968 0.666729 0.0393799
0.0674546 0.693095 0.0367729
0.0936952 0.671302 0.0514769
0.121024 0.692653 0.0386487
0.19348 0.668569 0.0569507
0.167283 0.692427 0.0558156
0.220898 0.69239 0.0432611
0.0172126 0.742657 0.038696
0.0443008 0.721113 0.0530826
0.0724025 0.742819 0.0500072
0.0936417 0.715752 0.0340341
0.114737 0.742332 0.049601
0.143344 0.718958 0.0544597
0.193209 0.714919 0.040691
0.169947 0.742285 0.037784
0.243075 0.718869 0.0570212
0.2144 0.742347 0.0531897
0.0220254 0.643133 0.173746
0.0676489 0.643327 0.159513
0.121592 0.642672 0.161924
0.0938507 0.666179 0.159421
0.167815 0.642262 0.176755
0.166854 0.664061 0.108123
0.193731 0.664353 0.16432
0.221414 0.642002 0.165773
0.022325 0.666706 0.108984
0.0179655 0.692993 0.162115
0.0673438 0.671991 0.107585
0.0442634 0.671134 0.172989
0.072355 0.693115 0.173506
0.122051 0.669645 0.107207
0.117663 0.6925 0.174953
0.143828 0.66841 0.175884
0.17135 0.692165 0.16355
0.221936 0.668884 0.109071
0.243543 0.668115 0.178055
0.217284 0.692097 0.176975
0.0168133 0.720798 0.108219
0.0224565 0.742547 0.172681
0.0442289 0.716536 0.159702
0.0723814 0.715244 0.106487
0.0669276 0.742673 0.158168
0.093957 0.721159 0.171554
0.116392 0.713768 0.106226
0.120352 0.742345 0.158072
0.143553 0.714636 0.160858
0.16449 0.742157 0.172433
0.171973 0.719071 0.107612
0.193257 0.718392 0.176383
0.216142 0.713837 0.108432
0.243159 0.714371 0.163697
0.219347 0.742117 0.160467
0.0179275 0.642955 0.283759
0.0721244 0.665685 0.229044
0.0723481 0.643278 0.295727
0.117396 0.664128 0.228753
0.118058 0.642601 0.296858
0.144119 0.664621 0.284848
0.171798 0.642084 0.285563
0.217181 0.663888 0.230097
0.243807 0.663994 0.287007
0.21797 0.641785 0.298272
0.0179136 0.671009 0.23053
0.0222111 0.692994 0.294494
0.0442862 0.666702 0.283042
0.0679363 0.692939 0.28074
0.121522 0.692267 0.282641
0.0940457 0.67116 0.293469
0.172072 0.66864 0.22933
0.193909 0.667853 0.29824
0.167895 0.692028 0.297181
0.221244 0.691803 0.285783
0.0231163 0.716409 0.229858
0.0173472 0.742692 0.282364
0.0664364 0.720917 0.228457
0.0442955 0.721019 0.295531
0.0722182 0.742711 0.293015
0.093897 0.715762 0.279348
0.122536 0.719167 0.228014
0.115143 0.742033 0.292344
0.166545 0.713698 0.228682
0.143699 0.718053 0.296802
0.193454 0.714427 0.283582
0.169864 0.742043 0.281216
0.221723 0.718616 0.229745
0.243109 0.717878 0.298254
0.214462 0.741935 0.29504
0.0221368 0.666423 0.351468
0.167621 0.663547 0.350511
0.0677294 0.671875 0.350539
0.12248 0.669102 0.349959
0.222103 0.668143 0.351302
0.0167896 0.720852 0.351227
0.072144 0.71512 0.349948
0.117062 0.713343 0.349467
0.172263 0.718505 0.350243
0.216416 0.713364 0.350867
0.0216862 0.642726 0.416269
0.0679211 0.643115 0.400951
0.0729086 0.66488 0.471163
0.122084 0.642284 0.405032
0.0941288 0.66596 0.401837
0.117538 0.663108 0.471403
0.16815 0.641737 0.419574
0.194166 0.663627 0.407168
0.222078 0.641607 0.408387
0.21722 0.66289 0.472856
0.017037 0.671178 0.472389
0.0178616 0.692763 0.404156
0.0442922 0.670552 0.415437
0.0721029 0.693067 0.417028
0.118017 0.69213 0.418216
0.144312 0.667914 0.41866
0.173075 0.668504 0.471973
0.172012 0.69156 0.40608
0.243867 0.667627 0.420688
0.217364 0.691545 0.419638
0.0237709 0.716134 0.471933
0.0223505 0.742793 0.415639
0.0439952 0.716504 0.401025
0.0654442 0.721578 0.47077
0.0668308 0.742746 0.400395
0.0939977 0.720737 0.414068
0.123659 0.719015 0.470738
0.120546 0.742036 0.400432
0.14411 0.714198 0.403717
0.164785 0.741992 0.415104
0.166734 0.712767 0.471487
0.193604 0.717937 0.419404
0.22236 0.718223 0.472402
0.243208 0.713694 0.4063
0.219452 0.741779 0.4023
0.0163168 0.642466 0.525508
0.0743699 0.642947 0.542499
0.0438387 0.665248 0.524756
0.116177 0.642646 0.549382
0.143893 0.661828 0.531045
0.174458 0.642183 0.532113
0.216369 0.641922 0.549533
0.243588 0.661345 0.533028
0.023894 0.692694 0.540504
0.0665172 0.69269 0.520955
0.0667653 0.673362 0.59934
0.0938589 0.673862 0.540796
0.124341 0.692281 0.528776
0.166375 0.692124 0.547724
0.19382 0.669337 0.548933
0.223815 0.692002 0.532385
0.0157108 0.742491 0.524655
0.043858 0.722901 0.542667
0.0735265 0.742793 0.539727
0.0730617 0.713787 0.598347
0.0937267 0.714825 0.520666
0.113293 0.742262 0.539253
0.11614 0.711819 0.598921
0.143689 0.71998 0.549109
0.193446 0.711636 0.530661
0.171493 0.742317 0.52395
0.243024 0.719669 0.550394
0.212148 0.74224 0.54195
0.0239614 0.642726 0.669807
0.0230118 0.665589 0.600618
0.0663715 0.642882 0.64834
0.12403 0.642531 0.658795
0.0937586 0.664521 0.650912
0.166422 0.642375 0.678272
0.166781 0.662458 0.601124
0.193635 0.661956 0.661295
0.223821 0.642202 0.66204
0.0162876 0.69278 0.653461
0.0439374 0.672948 0.66879
0.0740406 0.692915 0.670726
0.123746 0.669818 0.600284
0.115795 0.692496 0.677608
0.143649 0.669729 0.677207
0.173955 0.69231 0.660326
0.223352 0.669012 0.602122
0.243463 0.669516 0.679147
0.215928 0.692321 0.678451
0.0153364 0.72211 0.600371
0.0248943 0.742701 0.670328
0.0436819 0.715479 0.649054
0.0656493 0.742805 0.647561
0.0936669 0.722898 0.667493
0.121216 0.742288 0.647043
0.143685 0.712022 0.657119
0.162193 0.742392 0.670201
0.173659 0.719455 0.601005
0.19328 0.720036 0.679865
0.215541 0.712317 0.60173
0.24317 0.71194 0.660263
0.220799 0.742251 0.651009
0.0164034 0.642917 0.782496
0.0439439 0.665421 0.78141
0.0732773 0.66445 0.727298
0.0743699 0.64322 0.799779
0.11623 0.662548 0.729324
0.143529 0.662231 0.788522
0.173802 0.64252 0.78962
0.216215 0.662579 0.730914
0.243357 0.661966 0.790354
0.0166573 0.67202 0.729187
0.0240216 0.692837 0.797023
0.066352 0.692761 0.777112
0.123984 0.692628 0.785766
0.0936531 0.674132 0.798364
0.173398 0.669476 0.730111
0.223607 0.69241 0.789659
0.0242284 0.715793 0.72863
0.0155533 0.742546 0.78092
0.0645737 0.722002 0.726231
0.0440137 0.722889 0.799879
0.0739264 0.742724 0.795902
0.09364 0.714998 0.775016
0.124058 0.720288 0.727362
0.113057 0.742587 0.796298
0.165781 0.712507 0.729492
0.171318 0.742496 0.779687
0.19328 0.712182 0.787639
0.223211 0.71976 0.730605
0.0232265 0.665717 0.858169
0.115641 0.642897 0.807547
0.166186 0.662821 0.85892
0.216026 0.642441 0.808118
0.0665517 0.673331 0.856668
0.123189 0.670351 0.857914
0.165993 0.692554 0.806275
0.193432 0.669801 0.807341
0.223048 0.669672 0.859716
0.0154583 0.721954 0.856841
0.073346 0.71378 0.854622
0.115467 0.712289 0.855879
0.143356 0.720402 0.806519
0.173385 0.72002 0.858096
0.212174 0.742481 0.800038
0.215383 0.712674 0.859038
0.242974 0.720277 0.809307
0.0246285 0.643037 0.927494
0.0662543 0.643131 0.907017
0.0725136 0.665116 0.985645
0.123642 0.642836 0.915883
0.0935225 0.664589 0.908897
0.115882 0.663414 0.986374
0.165876 0.642765 0.935462
0.193246 0.662352 0.918358
0.216189 0.663437 0.98822
0.223535 0.642636 0.91907
0.0174489 0.671609 0.987383
0.0163619 0.692931 0.911281
0.0440422 0.673494 0.926117
0.0742428 0.693025 0.927544
0.115552 0.692812 0.934381
0.14317 0.670125 0.934764
0.172413 0.669612 0.987372
0.173489 0.69269 0.91734
0.243017 0.670102 0.936817
0.215515 0.692688 0.935807
0.023649 0.715973 0.986566
0.0251198 0.742501 0.927324
0.0439634 0.715284 0.907099
0.0655341 0.721756 0.98435
0.0657642 0.742656 0.904625
0.122858 0.720465 0.984586
0.0935558 0.723231 0.924984
0.121112 0.742612 0.9048
0.143276 0.712484 0.914356
0.165758 0.713545 0.98642
0.161877 0.742614 0.92733
0.193027 0.720541 0.935906
0.222297 0.720143 0.987804
0.242945 0.712351 0.91751
0.220762 0.742434 0.908921
0.0437233 0.766416 0.0557294
0.0933519 0.769421 0.0342392
0.142752 0.763887 0.053341
0.192683 0.768689 0.0379608
0.242354 0.76381 0.0551884
0.0195817 0.792374 0.0573806
0.0663783 0.792619 0.0398154
0.0435084 0.820076 0.0443597
0.119112 0.792371 0.0386675
0.0930596 0.81549 0.0540922
0.164382 0.791807 0.0529949
0.142696 0.818452 0.0412369
0.192572 0.813691 0.0533198
0.218947 0.791718 0.0407836
0.242699 0.81795 0.0428399
0.0161215 0.842739 0.0469718
0.0435765 0.867222 0.060262
0.0696015 0.842733 0.0586119
0.093051 0.86893 0.0403561
0.115016 0.841999 0.0545786
0.142681 0.863806 0.054894
0.168983 0.841727 0.0422859
0.19293 0.867969 0.0430335
0.214836 0.841606 0.055171
0.243007 0.863647 0.0559733
0.0152176 0.765882 0.108896
0.0434064 0.770118 0.162104
0.0706348 0.771424 0.106993
0.0932215 0.764684 0.170221
0.11491 0.769972 0.106673
0.142919 0.768458 0.15874
0.170528 0.763918 0.108052
0.192565 0.763936 0.175358
0.213621 0.768697 0.109228
0.242496 0.768046 0.161207
0.0156455 0.792732 0.165685
0.0201886 0.820652 0.110575
0.0689214 0.792325 0.176156
0.0648725 0.815612 0.109307
0.0431433 0.817011 0.177393
0.115073 0.791857 0.173544
0.0928312 0.818213 0.162946
0.118613 0.814677 0.109355
0.142739 0.814103 0.173339
0.164885 0.818499 0.110014
0.168681 0.791791 0.161676
0.192738 0.817941 0.163539
0.214802 0.79174 0.174863
0.219074 0.81352 0.110664
0.242692 0.813998 0.175495
0.0191077 0.84282 0.179212
0.0151894 0.866351 0.112653
0.0657655 0.842646 0.164708
0.0430428 0.870439 0.166761
0.070083 0.871685 0.111128
0.0926139 0.867897 0.175015
0.114312 0.869031 0.110314
0.117927 0.842004 0.163767
0.142814 0.8677 0.163232
0.165175 0.841713 0.175871
0.169307 0.863187 0.111401
0.19296 0.864081 0.176101
0.21496 0.868065 0.112451
0.218964 0.84169 0.164859
0.243215 0.867651 0.165899
0.0205282 0.77079 0.229792
0.0647126 0.765745 0.228841
0.0434545 0.767031 0.297097
0.093336 0.76909 0.280251
0.121022 0.76434 0.228531
0.163905 0.768619 0.229438
0.142887 0.763696 0.295544
0.192647 0.76814 0.281274
0.220009 0.763697 0.230507
0.242497 0.763782 0.297196
0.0151535 0.816443 0.231495
0.0190337 0.792753 0.298448
0.0659768 0.792593 0.283404
0.0692805 0.820958 0.230279
0.0429314 0.820129 0.286917
0.119009 0.791925 0.281986
0.115455 0.819103 0.23028
0.0930202 0.814664 0.291537
0.142931 0.818071 0.283997
0.164806 0.791743 0.294783
0.168973 0.813812 0.230931
0.192769 0.814138 0.295674
0.218811 0.791755 0.284255
0.21486 0.818299 0.231961
0.242859 0.818 0.285641
0.0197392 0.870913 0.233396
0.0154465 0.842883 0.289148
0.0645493 0.86602 0.231841
0.0686142 0.842369 0.298358
0.117928 0.864746 0.231587
0.0926094 0.86778 0.284883
0.114971 0.841549 0.295452
0.16488 0.868385 0.2326
0.1427 0.863873 0.29573
0.168981 0.841785 0.284429
0.193092 0.867941 0.286007
0.219524 0.863735 0.233243
0.215358 0.841913 0.297103
0.243301 0.864153 0.298364
0.0151339 0.766441 0.351619
0.0699976 0.771464 0.350175
0.115186 0.769816 0.350224
0.170525 0.763942 0.350645
0.213822 0.768366 0.351395
0.0194598 0.820931 0.352829
0.0647144 0.815879 0.351221
0.119152 0.813247 0.351455
0.165052 0.818457 0.352071
0.219357 0.813884 0.352971
0.0146469 0.866731 0.354384
0.042957 0.867186 0.300532
0.0693907 0.870981 0.353291
0.11486 0.868811 0.352874
0.169548 0.863763 0.353206
0.215119 0.868659 0.354401
0.0204781 0.771835 0.472934
0.0636672 0.766041 0.471375
0.043104 0.770679 0.404861
0.0931964 0.764391 0.413369
0.121657 0.763463 0.470931
0.143159 0.76823 0.401021
0.163304 0.768695 0.471646
0.192717 0.764032 0.417761
0.220682 0.762962 0.472149
0.242592 0.768038 0.402493
0.0151747 0.793137 0.408297
0.0142496 0.816459 0.474478
0.069078 0.792889 0.41872
0.0428008 0.817231 0.420018
0.0693777 0.821854 0.473325
0.114945 0.791879 0.417281
0.0929662 0.819128 0.403766
0.114279 0.820132 0.472513
0.142886 0.814247 0.416077
0.169235 0.791928 0.404201
0.169955 0.813676 0.472947
0.193032 0.818338 0.405064
0.215275 0.791935 0.417135
0.214396 0.819472 0.473827
0.242997 0.814743 0.41788
0.0186545 0.84308 0.421968
0.0194817 0.871626 0.475949
0.0653373 0.842641 0.406383
0.0425477 0.870419 0.409785
0.0639738 0.865358 0.4744
0.0929092 0.863654 0.416776
0.119248 0.841842 0.402931
0.11973 0.86244 0.473177
0.143152 0.868257 0.404858
0.165377 0.84201 0.417362
0.164434 0.869304 0.474236
0.193197 0.864564 0.418315
0.219471 0.84225 0.405736
0.220544 0.86332 0.475279
0.243452 0.868395 0.406835
0.0433337 0.765218 0.549779
0.0932674 0.770209 0.521816
0.113975 0.771387 0.598809
0.143116 0.761959 0.54258
0.193062 0.76966 0.521219
0.171702 0.762911 0.599713
0.242672 0.761885 0.544094
0.0204814 0.792784 0.549412
0.0626536 0.792788 0.530003
0.0431315 0.823402 0.533174
0.120557 0.792271 0.521791
0.0932556 0.811279 0.541466
0.163273 0.792177 0.540947
0.143272 0.819694 0.525839
0.193296 0.812402 0.542178
0.220482 0.792489 0.525811
0.243339 0.819771 0.527342
0.01258 0.842912 0.535102
0.0708261 0.842442 0.551278
0.0431671 0.865266 0.551076
0.0934156 0.869928 0.525812
0.112749 0.842055 0.544221
0.143362 0.862021 0.5429
0.170714 0.842465 0.526482
0.193716 0.869847 0.527057
0.213224 0.842566 0.544086
0.243661 0.8623 0.545181
0.0133414 0.765534 0.602288
0.0433666 0.773246 0.658374
0.070808 0.773337 0.600081
0.0932779 0.762346 0.667556
0.143288 0.769591 0.648839
0.192948 0.761645 0.672034
0.212256 0.769338 0.600359
0.242829 0.769415 0.650081
0.0131479 0.792732 0.662123
0.0203881 0.822516 0.603558
0.0711714 0.792733 0.679181
0.0633842 0.815271 0.602224
0.043436 0.815572 0.679136
0.112969 0.792355 0.671635
0.0933491 0.820716 0.652314
0.120172 0.811996 0.600703
0.14317 0.812322 0.669294
0.164098 0.819578 0.601782
0.170671 0.792203 0.653865
0.193323 0.819878 0.654856
0.212931 0.792096 0.670817
0.220257 0.812845 0.602544
0.24318 0.812034 0.67198
0.0135253 0.865794 0.605119
0.020614 0.842844 0.680922
0.0632229 0.842751 0.661341
0.0434928 0.873039 0.664021
0.0706136 0.87251 0.603886
0.0935649 0.861547 0.672665
0.113653 0.870679 0.602223
0.120787 0.842422 0.650593
0.143446 0.86968 0.65481
0.163199 0.842488 0.671597
0.170817 0.86317 0.602972
0.193533 0.862125 0.673466
0.213951 0.869788 0.604177
0.220845 0.842489 0.654996
0.243702 0.869686 0.656868
0.0211274 0.772467 0.730884
0.0628902 0.764983 0.728129
0.0933023 0.770409 0.775664
0.122252 0.763143 0.726463
0.162681 0.769494 0.728576
0.142955 0.762237 0.799689
0.193073 0.769758 0.778104
0.221299 0.762378 0.728844
0.0138023 0.815714 0.73243
0.0631145 0.792703 0.786818
0.0708562 0.822772 0.731255
0.043552 0.823061 0.790808
0.12065 0.792496 0.778283
0.113903 0.821026 0.72897
0.093422 0.811353 0.799736
0.143063 0.819761 0.783085
0.163043 0.792245 0.797843
0.170341 0.813375 0.730166
0.193059 0.812144 0.799529
0.220277 0.79229 0.782171
0.213719 0.81976 0.730956
0.243121 0.81951 0.78483
0.0207586 0.87249 0.734441
0.0132662 0.842749 0.792998
0.063751 0.86499 0.732991
0.0935235 0.870198 0.782004
0.120458 0.861775 0.730836
0.163764 0.869562 0.732199
0.170594 0.842442 0.784601
0.193482 0.869695 0.785
0.22065 0.862482 0.733023
0.013775 0.76512 0.859491
0.0436693 0.764794 0.807923
0.0715477 0.773018 0.856767
0.113724 0.771735 0.855506
0.171533 0.762888 0.856627
0.242648 0.761969 0.801824
0.212211 0.769566 0.857942
0.0209547 0.792538 0.807633
0.0207763 0.822117 0.861215
0.0637505 0.81493 0.85994
0.120403 0.812016 0.858542
0.163712 0.819603 0.8595
0.220031 0.812486 0.860147
0.0137496 0.865504 0.863462
0.0436137 0.865258 0.810582
0.0712261 0.842547 0.810239
0.0711925 0.872504 0.861949
0.112811 0.842186 0.80243
0.113322 0.870726 0.859933
0.143182 0.862303 0.800827
0.170517 0.862817 0.861116
0.213149 0.842209 0.801887
0.213496 0.869381 0.862213
0.243457 0.862044 0.802779
0.0213508 0.771401 0.987556
0.0641111 0.764711 0.98548
0.0438524 0.772935 0.915583
0.0933884 0.761913 0.92543
0.122027 0.764111 0.984864
0.143097 0.76977 0.907208
0.163397 0.769553 0.986793
0.192741 0.761597 0.929251
0.220596 0.763079 0.987011
0.242661 0.769663 0.909064
0.014677 0.815521 0.990051
0.0134296 0.792318 0.919062
0.0709819 0.822049 0.98844
0.0716997 0.792408 0.935964
0.0437526 0.815025 0.93696
0.112421 0.792269 0.929426
0.0933921 0.821044 0.911804
0.114549 0.820397 0.987225
0.14297 0.811496 0.927504
0.169436 0.813163 0.988645
0.17058 0.792163 0.911586
0.192938 0.819759 0.913461
0.212276 0.791944 0.928564
0.21408 0.818744 0.989364
0.242876 0.811444 0.929319
0.02079 0.871483 0.991913
0.0210415 0.842358 0.93809
0.0642802 0.865124 0.990347
0.0631963 0.842558 0.918776
0.043595 0.873167 0.921685
0.120103 0.862788 0.989444
0.093456 0.861327 0.930731
0.120781 0.842288 0.909886
0.164113 0.868749 0.990567
0.143159 0.869733 0.913601
0.162558 0.84212 0.929428
0.193166 0.86155 0.930942
0.21965 0.862689 0.990837
0.22048 0.841973 0.913541
0.243286 0.869191 0.915331
0.0193223 0.892713 0.0617713
0.0669127 0.893149 0.0444734
0.118785 0.89219 0.0432758
0.165065 0.891558 0.057056
0.193102 0.913621 0.0571138
0.219285 0.891436 0.0445522
0.0159897 0.943407 0.0509522
0.0432133 0.920029 0.0485671
0.0685736 0.943477 0.0611126
0.0930756 0.917216 0.0562077
0.115813 0.942472 0.0569767
0.14316 0.917692 0.044679
0.169207 0.941542 0.0462887
0.216231 0.941239 0.059143
0.243616 0.917321 0.0458134
0.0190475 0.99368 0.0654445
0.0676657 0.993718 0.0460377
0.0431209 0.969302 0.061295
0.092995 0.969192 0.0462786
0.119582 0.991793 0.0457239
0.143555 0.964397 0.0600454
0.16858 0.991403 0.0649542
0.194167 0.967277 0.0473272
0.223067 0.991501 0.0512886
0.244394 0.9636 0.0613576
0.0155179 0.892955 0.1698
0.0686057 0.892871 0.179478
0.0650997 0.916649 0.113087
0.11586 0.89183 0.175608
0.118537 0.916448 0.112811
0.143038 0.91419 0.177226
0.168752 0.891506 0.16488
0.215821 0.891657 0.177869
0.219784 0.913347 0.113908
0.243702 0.913814 0.178728
0.0198864 0.921015 0.114311
0.0188037 0.943526 0.182704
0.0429716 0.917415 0.180936
0.06548 0.943285 0.169391
0.0927733 0.918547 0.168208
0.116894 0.942355 0.17034
0.165151 0.918355 0.113534
0.166161 0.941493 0.180136
0.193386 0.917324 0.167222
0.219887 0.941417 0.168354
0.0150981 0.993498 0.172325
0.0147168 0.967381 0.116138
0.069713 0.993913 0.184849
0.0428159 0.971792 0.170295
0.0696272 0.972366 0.115098
0.117224 0.99215 0.182557
0.0924861 0.968972 0.180041
0.115539 0.969832 0.114732
0.143782 0.967144 0.16839
0.172346 0.991482 0.170421
0.170583 0.962753 0.115207
0.194178 0.964158 0.18153
0.218626 0.991595 0.185873
0.216026 0.967965 0.115873
0.244406 0.967373 0.169636
0.0657148 0.892672 0.28817
0.117796 0.891813 0.287355
0.165279 0.891745 0.298536
0.169418 0.913191 0.234212
0.193382 0.914066 0.298996
0.219444 0.891834 0.287254
0.01503 0.916935 0.235149
0.0151721 0.943449 0.292536
0.0693492 0.92156 0.234459
0.0428535 0.920622 0.290811
0.115213 0.918701 0.233656
0.114944 0.94213 0.298129
0.142904 0.917433 0.286994
0.169082 0.941621 0.287975
0.215633 0.918233 0.235337
0.243798 0.917833 0.288583
0.0201068 0.971771 0.237043
0.0644242 0.96689 0.235822
0.0657629 0.993625 0.292673
0.119104 0.964163 0.235041
0.0926113 0.97108 0.291095
0.120853 0.992018 0.291163
0.165644 0.968395 0.236032
0.194099 0.967519 0.289635
0.221076 0.963282 0.237018
0.22293 0.991803 0.29299
0.0188194 0.893102 0.302018
0.0642927 0.916233 0.355125
0.118655 0.914712 0.354219
0.220041 0.913835 0.355928
0.0193709 0.921345 0.356448
0.0686734 0.943295 0.303918
0.0926633 0.916694 0.302538
0.165312 0.918826 0.35529
0.216333 0.941666 0.301391
0.0195921 0.993338 0.307094
0.0142894 0.966694 0.358041
0.04291 0.968044 0.304469
0.0700391 0.972056 0.357179
0.115297 0.969884 0.355471
0.143514 0.964326 0.301158
0.168436 0.991601 0.305886
0.170528 0.963238 0.356824
0.215836 0.96862 0.357761
0.244494 0.964152 0.303376
0.0149206 0.8932 0.411882
0.0143314 0.916434 0.477878
0.0686238 0.892254 0.422596
0.11536 0.891619 0.418631
0.142896 0.914938 0.418943
0.169139 0.892165 0.406303
0.170398 0.913333 0.47541
0.215958 0.892129 0.419913
0.243827 0.914492 0.421311
0.0191717 0.943415 0.426336
0.0654287 0.943193 0.411018
0.0428713 0.916949 0.423843
0.0698512 0.921622 0.476077
0.0925361 0.917685 0.406087
0.116445 0.942237 0.410582
0.114257 0.919458 0.474841
0.166396 0.942094 0.421679
0.193776 0.918139 0.407779
0.214942 0.919409 0.477191
0.220122 0.942003 0.409191
0.0153288 0.992904 0.414175
0.020638 0.971988 0.479997
0.0694244 0.993604 0.427781
0.042987 0.971603 0.412472
0.0637649 0.965941 0.478246
0.118064 0.992035 0.426642
0.0927866 0.968182 0.424911
0.11995 0.963143 0.47712
0.143333 0.967661 0.409267
0.164982 0.969952 0.477794
0.172496 0.991856 0.412902
0.194158 0.96469 0.424184
0.244349 0.968513 0.410408
0.218163 0.991829 0.428745
0.221887 0.963109 0.478967
0.020495 0.892852 0.552773
0.0628643 0.892491 0.533517
0.0934696 0.910891 0.544187
0.120692 0.892084 0.524098
0.163197 0.892374 0.543979
0.193798 0.912171 0.545533
0.221141 0.892514 0.528402
0.0128213 0.942979 0.538777
0.0432973 0.923136 0.536835
0.0709326 0.942406 0.555265
0.112386 0.942011 0.545812
0.143498 0.919908 0.527505
0.171182 0.94237 0.528416
0.213896 0.942441 0.547912
0.244154 0.919912 0.530154
0.021356 0.992517 0.557735
0.063522 0.992975 0.538303
0.0433297 0.965656 0.557139
0.124173 0.992178 0.538007
0.0933991 0.972718 0.534541
0.1438 0.961997 0.54704
0.166427 0.992246 0.556959
0.194319 0.970144 0.529962
0.225485 0.992207 0.538919
0.244497 0.962064 0.549949
0.0132314 0.892785 0.66546
0.0638757 0.914838 0.605412
0.0435505 0.915365 0.68246
0.0712598 0.892526 0.682267
0.120343 0.91185 0.603224
0.113118 0.892259 0.675054
0.143474 0.912348 0.673
0.170825 0.892424 0.657076
0.220932 0.912624 0.605603
0.213385 0.892307 0.674945
0.243894 0.912117 0.675527
0.020278 0.922518 0.606923
0.0205929 0.942848 0.684836
0.0633957 0.942706 0.664965
0.0935239 0.920455 0.65463
0.120667 0.942289 0.654794
0.164181 0.919554 0.604338
0.163565 0.942421 0.675461
0.193793 0.919754 0.657797
0.221513 0.942324 0.658703
0.0125924 0.965532 0.608812
0.0124631 0.992558 0.667701
0.0713755 0.992779 0.686583
0.0431042 0.973229 0.665638
0.0711629 0.972262 0.608007
0.116272 0.992229 0.686436
0.0935597 0.962517 0.678213
0.114338 0.970119 0.606213
0.143995 0.970056 0.65732
0.17509 0.992345 0.666828
0.171587 0.962712 0.606307
0.194042 0.96206 0.678005
0.216818 0.992226 0.687671
0.214501 0.969952 0.607707
0.244332 0.969931 0.659554
0.0141927 0.915524 0.736419
0.0634065 0.892573 0.791913
0.120784 0.892298 0.78155
0.17075 0.91311 0.733661
0.220948 0.892245 0.786013
0.0134643 0.942879 0.797259
0.0710578 0.922502 0.73466
0.0435173 0.922725 0.794688
0.113661 0.920616 0.732347
0.143506 0.919747 0.785953
0.171185 0.942378 0.788046
0.214216 0.919595 0.734896
0.243896 0.919497 0.787542
0.0214171 0.972701 0.738834
0.0630448 0.965379 0.73675
0.0640375 0.992907 0.792618
0.0935318 0.970385 0.785196
0.121031 0.961997 0.734633
0.123643 0.99234 0.79263
0.164244 0.969934 0.735931
0.194193 0.970026 0.78789
0.22178 0.962396 0.736582
0.225217 0.992227 0.796943
0.0207895 0.892535 0.811783
0.0640003 0.914903 0.863914
0.0936153 0.91158 0.803505
0.120634 0.911679 0.862086
0.163447 0.892393 0.801656
0.19369 0.912226 0.803643
0.220732 0.912225 0.863859
0.0206305 0.922041 0.865477
0.0711875 0.94258 0.813334
0.113187 0.942123 0.805699
0.163953 0.919271 0.863113
0.213904 0.942174 0.805682
0.0211894 0.992759 0.817242
0.012602 0.965806 0.867321
0.0434363 0.965935 0.816409
0.0711568 0.972322 0.864934
0.114134 0.969944 0.863503
0.166382 0.992174 0.816683
0.143792 0.962285 0.805825
0.171734 0.962466 0.865107
0.214485 0.969335 0.865769
0.24438 0.962028 0.807482
0.0146063 0.915947 0.994121
0.0133302 0.892547 0.923848
0.0435402 0.91529 0.941244
0.0715777 0.892428 0.940035
0.112269 0.892115 0.93337
0.143319 0.911334 0.931674
0.169812 0.912762 0.991944
0.170873 0.892008 0.915401
0.213079 0.891898 0.932505
0.243742 0.911367 0.933409
0.0207523 0.942832 0.942099
0.071012 0.92235 0.991869
0.0629382 0.942708 0.922701
0.114711 0.91998 0.991072
0.0935752 0.920621 0.914848
0.120916 0.942105 0.914431
0.163219 0.942022 0.933879
0.193596 0.919415 0.916318
0.214755 0.918222 0.992886
0.221546 0.941926 0.917705
0.0208397 0.972341 0.995325
0.012208 0.992792 0.926527
0.063804 0.966449 0.993435
0.0734269 0.99305 0.937319
0.0431165 0.973774 0.923804
0.120622 0.963117 0.992728
0.114205 0.992297 0.937077
0.0933714 0.962378 0.932815
0.164827 0.968673 0.994072
0.144107 0.969937 0.915539
0.175449 0.992204 0.925817
0.19423 0.961621 0.9359
0.244575 0.969449 0.918043
0.221237 0.96245 0.994731
0.217213 0.992119 0.944219
0.295227 0.0139873 0.0514787
0.345267 0.0176704 0.0682515
0.37258 0.041473 0.0545312
0.395425 0.0135954 0.0532143
0.445264 0.0173153 0.0699473
0.418878 0.041278 0.067775
0.467302 0.012163 4.29229e-04
0.495294 0.0133381 0.0548516
0.472509 0.0411806 0.056792
0.272392 0.0418046 0.0530024
0.318813 0.0416773 0.0661033
0.294694 0.0680688 0.0651309
0.34474 0.0642783 0.0541333
0.394819 0.0678021 0.0668122
0.444757 0.063964 0.0558787
0.49465 0.0674428 0.0686518
0.473212 0.0684668 1.25214e-04
0.268132 0.092126 0.0649
0.322119 0.0919499 0.0533188
0.294319 0.114427 0.0523508
0.368302 0.0918651 0.066804
0.344411 0.118148 0.0660708
0.394571 0.114084 0.0540284
0.422266 0.0916236 0.0551065
0.444419 0.117769 0.0679905
0.468217 0.0915038 0.0685544
0.494394 0.113705 0.0559584
0.273819 0.0179937 0.11759
0.268921 0.0415446 0.185392
0.295224 0.0176586 0.187275
0.318008 0.013161 0.118467
0.322862 0.0415215 0.17463
0.345385 0.0135883 0.173864
0.374111 0.0178849 0.119323
0.369136 0.0413617 0.186954
0.395505 0.0174774 0.189028
0.418122 0.0128748 0.120148
0.445398 0.013222 0.175439
0.422954 0.0412396 0.176692
0.474038 0.0174869 0.121215
0.469045 0.040976 0.18895
0.495373 0.0170729 0.19086
0.268264 0.0638425 0.117244
0.294775 0.0640547 0.174322
0.322742 0.06811 0.118176
0.344952 0.0676939 0.186276
0.368478 0.0635936 0.118998
0.394949 0.0637495 0.176186
0.422824 0.0677953 0.120062
0.444999 0.067394 0.188209
0.468451 0.0631804 0.120957
0.494842 0.0633845 0.178239
0.27246 0.0918498 0.173813
0.272629 0.118503 0.116954
0.318533 0.0916242 0.186296
0.294579 0.118038 0.185828
0.317832 0.113739 0.117863
0.372505 0.0916388 0.175638
0.344554 0.113938 0.174665
0.372749 0.118208 0.118711
0.394676 0.117656 0.187833
0.417924 0.113381 0.119634
0.444587 0.113521 0.176741
0.41858 0.091333 0.188053
0.472545 0.0912415 0.177688
0.472648 0.117837 0.120619
0.494563 0.117331 0.189609
0.268091 0.0132658 0.238337
0.272829 0.0414516 0.294756
0.32396 0.0180502 0.23955
0.295284 0.0136373 0.293715
0.368387 0.0132261 0.24024
0.373096 0.0412428 0.296954
0.395398 0.0134293 0.295722
0.42412 0.0176917 0.241361
0.46832 0.0126228 0.242074
0.49537 0.0130313 0.297521
0.473032 0.0409542 0.298643
0.272756 0.067913 0.238324
0.318634 0.0633215 0.238952
0.372905 0.0676315 0.240246
0.344992 0.0637148 0.296626
0.418724 0.063172 0.241047
0.44507 0.06343 0.298425
0.472879 0.0673661 0.242198
0.26796 0.113481 0.237961
0.322768 0.117977 0.238836
0.322493 0.0914163 0.295741
0.294675 0.113812 0.294977
0.368202 0.113321 0.239884
0.394735 0.113561 0.296905
0.422915 0.11763 0.240689
0.422598 0.091139 0.297796
0.468173 0.112969 0.241944
0.49473 0.113122 0.299112
0.273995 0.0182415 0.359449
0.318117 0.0131562 0.360778
0.319033 0.0412512 0.307604
0.345418 0.0176914 0.309181
0.374214 0.0180426 0.361698
0.445487 0.0172942 0.310953
0.418284 0.0127854 0.362594
0.419115 0.0410751 0.309428
0.474226 0.017696 0.363583
0.268571 0.0631608 0.359274
0.294995 0.0675878 0.306328
0.322923 0.0677562 0.36043
0.368658 0.0629984 0.36125
0.395122 0.0674176 0.308498
0.423165 0.0674191 0.362384
0.468742 0.0626706 0.363275
0.49505 0.0671116 0.310511
0.268674 0.0914552 0.306301
0.272897 0.117921 0.358996
0.318177 0.113078 0.360027
0.368681 0.0912205 0.308418
0.344725 0.117416 0.307638
0.373079 0.117712 0.361061
0.444791 0.117162 0.309686
0.418273 0.11275 0.361954
0.468685 0.09093 0.310254
0.473022 0.117354 0.363286
0.267293 0.0125586 0.481419
0.26864 0.0412055 0.428501
0.295186 0.018058 0.430207
0.324557 0.0185281 0.482244
0.323171 0.041262 0.416977
0.345411 0.0133215 0.415859
0.367542 0.0124377 0.483446
0.369008 0.0411079 0.430444
0.395389 0.0178521 0.432271
0.42485 0.0182414 0.484422
0.445437 0.0128341 0.4176
0.423364 0.040902 0.41919
0.467417 0.012056 0.485317
0.495334 0.0174669 0.434637
0.468948 0.040709 0.43243
0.273344 0.0681727 0.480634
0.294946 0.0632781 0.416962
0.318372 0.0623519 0.481638
0.345056 0.0675211 0.429155
0.373608 0.067916 0.482655
0.395172 0.0632039 0.418592
0.44513 0.0672722 0.431042
0.418509 0.0622156 0.483664
0.473624 0.0675534 0.484759
0.495069 0.0628129 0.420777
0.272741 0.0912789 0.415615
0.267844 0.112497 0.480275
0.318569 0.0911252 0.429234
0.294754 0.117496 0.428475
0.323515 0.117973 0.481315
0.372852 0.0910951 0.417628
0.344794 0.113174 0.416864
0.367909 0.112221 0.482287
0.39487 0.117379 0.430985
0.418621 0.0908743 0.43102
0.444863 0.112995 0.418863
0.423608 0.117696 0.483355
0.494957 0.116947 0.432702
0.472928 0.0907074 0.419813
0.467948 0.111945 0.484214
0.275066 0.0416411 0.541106
0.294927 0.0111769 0.539494
0.317362 0.0415289 0.558223
0.34499 0.0192003 0.56132
0.395102 0.0109062 0.541387
0.375354 0.0414597 0.54303
0.445061 0.0188152 0.563824
0.417404 0.0412102 0.56047
0.495095 0.0105391 0.543232
0.475448 0.0410061 0.54495
0.294564 0.0691215 0.556711
0.344711 0.0610164 0.542391
0.394712 0.0689743 0.558855
0.444736 0.0607181 0.54466
0.494795 0.0685269 0.56086
0.266884 0.0915546 0.557246
0.324996 0.0914591 0.541251
0.29441 0.111021 0.540314
0.367114 0.0913929 0.55911
0.344337 0.118841 0.558219
0.394487 0.110951 0.542271
0.42513 0.0911757 0.543111
0.444486 0.118532 0.560255
0.467132 0.0909777 0.560873
0.494487 0.110608 0.544141
0.275471 0.0191933 0.611094
0.316761 0.011939 0.61194
0.2947 0.0192959 0.69069
0.344923 0.0115379 0.668923
0.3674 0.0415919 0.689069
0.375589 0.0189415 0.612765
0.394861 0.0189391 0.692749
0.416762 0.0115355 0.613955
0.444968 0.0110669 0.671179
0.424692 0.0412986 0.673266
0.475683 0.0184064 0.614889
0.494844 0.0185768 0.69461
0.467432 0.0411337 0.6911
0.267487 0.0619545 0.609981
0.267145 0.0418807 0.687729
0.294384 0.0616321 0.67067
0.3239 0.0688611 0.610909
0.324579 0.0416945 0.671293
0.367549 0.0618515 0.611832
0.344366 0.0691538 0.687069
0.394477 0.0614156 0.672359
0.424002 0.0685122 0.612999
0.444587 0.0686804 0.688972
0.46783 0.0613468 0.61359
0.494619 0.0610771 0.674085
0.274462 0.0918826 0.669058
0.274097 0.118809 0.609209
0.294113 0.119254 0.686678
0.317114 0.111796 0.610179
0.316814 0.0918254 0.687409
0.374592 0.0916034 0.670912
0.374146 0.118532 0.611185
0.344257 0.111501 0.67013
0.394199 0.11883 0.688417
0.417268 0.111528 0.612261
0.444326 0.111261 0.671903
0.417007 0.0914804 0.689388
0.47459 0.0911556 0.672813
0.474184 0.118196 0.61309
0.494171 0.118478 0.690571
0.266456 0.0120869 0.740401
0.325505 0.0188905 0.740919
0.294913 0.0115078 0.797036
0.366639 0.0117677 0.742112
0.394943 0.011269 0.798808
0.425513 0.0184317 0.742925
0.466674 0.0113255 0.743736
0.273577 0.0692606 0.739484
0.274485 0.0419121 0.799682
0.317396 0.0622398 0.740059
0.373823 0.0688866 0.741183
0.417521 0.0619094 0.741764
0.473926 0.0685429 0.742891
0.266861 0.112313 0.738473
0.323861 0.118919 0.73932
0.32447 0.0919256 0.799032
0.294136 0.111786 0.797852
0.366847 0.111974 0.740221
0.394152 0.111539 0.799538
0.424054 0.118571 0.741032
0.467027 0.111586 0.741887
0.275307 0.0189191 0.869045
0.316623 0.0119745 0.869641
0.344816 0.0190588 0.820689
0.374728 0.0415967 0.80131
0.375443 0.0187056 0.870862
0.416735 0.0116544 0.871265
0.444878 0.0186601 0.82253
0.417316 0.0414867 0.818654
0.475562 0.0182534 0.872564
0.49489 0.0108424 0.800562
0.47469 0.0411813 0.802742
0.267191 0.0626727 0.868027
0.2943 0.069399 0.815582
0.317165 0.0418561 0.816999
0.323761 0.0692214 0.868891
0.344447 0.0616279 0.800228
0.367386 0.0622794 0.869745
0.394424 0.0691643 0.817294
0.444476 0.0612682 0.801769
0.423792 0.0687708 0.870417
0.46739 0.0619111 0.871309
0.494374 0.0687519 0.819157
0.266767 0.0922566 0.815591
0.273743 0.11945 0.867208
0.316773 0.112456 0.868098
0.366866 0.0919491 0.817494
0.344008 0.119335 0.81673
0.373827 0.119148 0.868683
0.424684 0.0916313 0.800544
0.444142 0.118973 0.818326
0.416929 0.112103 0.869638
0.466879 0.0915996 0.819032
0.47392 0.118779 0.870591
0.494173 0.111197 0.801138
0.267135 0.0127365 0.996891
0.324821 0.0183932 0.99808
0.294914 0.0192491 0.947395
0.367255 0.0124722 0.998677
0.344941 0.011589 0.926589
0.394925 0.0189843 0.948989
0.445033 0.0111172 0.928152
0.424926 0.0180789 0.999623
0.494929 0.0185879 0.951301
0.467322 0.0415269 0.947531
0.273089 0.0691003 0.996593
0.267173 0.0422014 0.944064
0.317686 0.0631136 0.997409
0.294299 0.0622091 0.927939
0.324555 0.0419999 0.928572
0.37329 0.0688316 0.998361
0.367308 0.0419218 0.946052
0.344324 0.0694682 0.944858
0.394408 0.0618359 0.929479
0.424688 0.0416679 0.930364
0.417756 0.0629563 0.99909
0.44434 0.0691181 0.94608
0.494361 0.0613825 0.931356
0.266923 0.113362 0.995862
0.274122 0.0924415 0.92678
0.323268 0.119088 0.996784
0.316706 0.0923107 0.944546
0.293821 0.119694 0.943814
0.367236 0.113015 0.997561
0.374394 0.0921637 0.928509
0.344033 0.11212 0.927543
0.393975 0.119442 0.945429
0.42327 0.118749 0.998407
0.416855 0.092052 0.946061
0.44415 0.111733 0.928803
0.493952 0.119116 0.947616
0.467092 0.112598 0.999303
0.474494 0.0916589 0.929916
0.271779 0.142145 0.05185
0.317944 0.142025 0.0653009
0.371945 0.141818 0.0535666
0.344168 0.164367 0.0526615
0.418013 0.141648 0.0669849
0.444122 0.163978 0.0546877
0.471881 0.141464 0.0555811
0.267713 0.192213 0.0640239
0.294086 0.168306 0.0643149
0.321719 0.192058 0.0521619
0.367773 0.191966 0.0654968
0.394129 0.168124 0.0665036
0.42174 0.191711 0.053827
0.494049 0.167754 0.0682632
0.467657 0.191517 0.0674678
0.271561 0.242226 0.0506568
0.294044 0.214511 0.0513396
0.317597 0.242169 0.0639748
0.343976 0.218377 0.0650383
0.371683 0.241932 0.0524406
0.393943 0.214072 0.0531061
0.443962 0.217961 0.0669895
0.417424 0.241743 0.0658508
0.493897 0.213631 0.0550456
0.471565 0.241437 0.0545051
0.268216 0.14184 0.185063
0.267632 0.163941 0.116203
0.322212 0.141871 0.174251
0.294312 0.164074 0.173331
0.36775 0.163629 0.118102
0.368322 0.141563 0.186608
0.394325 0.163782 0.175361
0.422216 0.141427 0.176222
0.468243 0.141165 0.188702
0.467679 0.163194 0.120085
0.494321 0.16339 0.177428
0.272041 0.192056 0.17269
0.322417 0.168471 0.11732
0.317988 0.191766 0.185347
0.372042 0.191632 0.174721
0.344448 0.167906 0.185719
0.422351 0.167997 0.119105
0.444344 0.167522 0.187786
0.418039 0.191362 0.187161
0.472027 0.191146 0.176926
0.272322 0.218654 0.115778
0.26792 0.242119 0.183717
0.294209 0.218216 0.184537
0.317532 0.21384 0.116636
0.32198 0.241934 0.173117
0.344124 0.213947 0.173789
0.372326 0.218424 0.117672
0.367827 0.241696 0.185785
0.394184 0.217803 0.186633
0.417369 0.213432 0.118636
0.444092 0.213518 0.175824
0.421766 0.241395 0.175428
0.472251 0.217837 0.119689
0.494104 0.217404 0.188507
0.46779 0.241189 0.187809
0.272265 0.141609 0.294523
0.318 0.163624 0.23837
0.372333 0.141317 0.296541
0.344448 0.163765 0.295778
0.417963 0.163213 0.240298
0.444409 0.163429 0.297572
0.472237 0.140973 0.29859
0.272467 0.168154 0.237333
0.321974 0.191606 0.295003
0.372458 0.167874 0.239515
0.421945 0.191159 0.297128
0.472429 0.167512 0.241488
0.267746 0.213788 0.236761
0.271987 0.241942 0.293499
0.322434 0.218182 0.237748
0.294391 0.214139 0.293982
0.367764 0.213417 0.238759
0.371816 0.241478 0.295417
0.394253 0.213653 0.29613
0.422315 0.217637 0.239873
0.46773 0.212966 0.24083
0.494226 0.213255 0.298306
0.471891 0.241007 0.297444
0.268077 0.163513 0.358548
0.318375 0.1414 0.306892
0.368035 0.163059 0.360583
0.418425 0.141053 0.308603
0.468118 0.162741 0.362575
0.268267 0.191785 0.305236
0.294535 0.167733 0.305824
0.322572 0.167891 0.35957
0.368181 0.191342 0.307261
0.394503 0.167386 0.308294
0.422682 0.167501 0.361487
0.494532 0.167006 0.31003
0.468241 0.190914 0.309401
0.272625 0.218192 0.357991
0.317805 0.213416 0.358884
0.318261 0.241623 0.305604
0.344295 0.217629 0.306703
0.372517 0.217735 0.360013
0.444349 0.217218 0.30845
0.417903 0.212935 0.360952
0.418114 0.241208 0.307725
0.472521 0.217354 0.362096
0.268376 0.141353 0.427852
0.322505 0.14125 0.416338
0.294554 0.163488 0.415603
0.317755 0.162532 0.480755
0.368381 0.141068 0.429767
0.394607 0.163165 0.41781
0.422532 0.14089 0.418173
0.41786 0.162093 0.482547
0.468544 0.140676 0.431425
0.494658 0.162845 0.41938
0.273371 0.168189 0.479874
0.272308 0.191651 0.414971
0.318228 0.191199 0.428141
0.344567 0.16741 0.428768
0.373235 0.16786 0.48166
0.372219 0.191156 0.416822
0.44469 0.167091 0.430637
0.418268 0.190873 0.430064
0.473333 0.167552 0.483621
0.472406 0.190794 0.418655
0.267728 0.212837 0.479574
0.268257 0.241654 0.426544
0.294521 0.217735 0.427545
0.323126 0.218067 0.480113
0.322197 0.241536 0.415393
0.344312 0.213418 0.415824
0.367602 0.212416 0.481021
0.368077 0.241149 0.42865
0.394503 0.217339 0.429331
0.444422 0.212975 0.417907
0.423174 0.217636 0.482155
0.422231 0.240997 0.41748
0.467737 0.212144 0.482949
0.494535 0.217085 0.431439
0.468029 0.240804 0.43056
0.274735 0.141605 0.539581
0.316914 0.141475 0.557381
0.374666 0.141318 0.541489
0.344242 0.160941 0.540731
0.416944 0.14121 0.559334
0.444297 0.160742 0.542547
0.474797 0.141027 0.543268
0.266782 0.191824 0.55607
0.294279 0.168963 0.556637
0.324616 0.191557 0.539982
0.366772 0.191386 0.557618
0.394283 0.168652 0.558192
0.424561 0.191179 0.542101
0.494323 0.168414 0.560329
0.466832 0.191073 0.559488
0.274654 0.241872 0.538741
0.294143 0.211305 0.53923
0.316789 0.241706 0.556197
0.344165 0.218956 0.556789
0.374497 0.241473 0.540663
0.394154 0.210907 0.540867
0.416708 0.241247 0.557953
0.444186 0.218517 0.558919
0.494235 0.210527 0.543123
0.474544 0.241076 0.54232
0.266724 0.141999 0.685709
0.267058 0.161989 0.608437
0.324242 0.141691 0.669334
0.294055 0.16175 0.66842
0.366768 0.141631 0.687441
0.367024 0.161739 0.610307
0.394029 0.161462 0.670189
0.424267 0.1414 0.67114
0.467085 0.161348 0.612117
0.494073 0.161032 0.672011
0.466762 0.141288 0.68926
0.274118 0.192005 0.667632
0.32392 0.168748 0.609499
0.316582 0.191768 0.686022
0.344018 0.169003 0.686558
0.374087 0.191643 0.669737
0.416616 0.191488 0.68769
0.42394 0.168384 0.611359
0.44407 0.168757 0.688379
0.474186 0.191278 0.671638
0.273979 0.219054 0.608316
0.266592 0.24217 0.684585
0.293966 0.219357 0.685474
0.316889 0.211988 0.60898
0.324081 0.241889 0.668219
0.373778 0.218581 0.609812
0.3439 0.211651 0.668753
0.366461 0.241791 0.68639
0.393907 0.219053 0.687017
0.416834 0.211598 0.610699
0.44391 0.211321 0.670387
0.423996 0.241484 0.669904
0.473736 0.218316 0.611831
0.46654 0.241386 0.688413
0.493912 0.218662 0.689033
0.274133 0.142181 0.79732
0.31682 0.162212 0.738558
0.374255 0.141789 0.798866
0.343934 0.161713 0.797909
0.416821 0.161847 0.74015
0.443986 0.161336 0.799688
0.273715 0.169239 0.737696
0.324106 0.192091 0.797454
0.373728 0.168817 0.739471
0.424033 0.191724 0.799201
0.473652 0.168453 0.741176
0.266785 0.212407 0.737109
0.273965 0.242276 0.796149
0.32366 0.219065 0.737841
0.293795 0.211831 0.796501
0.366669 0.212089 0.73877
0.373999 0.241948 0.79737
0.393786 0.21164 0.79795
0.423501 0.218727 0.739526
0.466534 0.211663 0.740563
0.474025 0.241551 0.799177
0.266605 0.162703 0.866413
0.316516 0.142082 0.815535
0.366742 0.162338 0.867984
0.416658 0.141761 0.817292
0.474308 0.141444 0.800747
0.466602 0.161928 0.869869
0.266428 0.192364 0.814155
0.29382 0.169601 0.814811
0.323609 0.169398 0.867473
0.366456 0.191951 0.815664
0.393892 0.16918 0.816385
0.423534 0.16904 0.868752
0.493806 0.168947 0.818229
0.466311 0.191593 0.817818
0.273515 0.219561 0.86583
0.31646 0.21258 0.86682
0.316258 0.242154 0.814527
0.343689 0.219457 0.815137
0.373403 0.219208 0.867351
0.416433 0.212275 0.868225
0.416312 0.241806 0.815872
0.443712 0.219117 0.816841
0.473288 0.218964 0.869236
0.493703 0.211331 0.800152
0.266274 0.142629 0.942851
0.316957 0.163174 0.995992
0.32404 0.14224 0.926825
0.293767 0.162262 0.926184
0.366452 0.142211 0.944666
0.393817 0.161885 0.927669
0.41694 0.162961 0.997787
0.424096 0.141944 0.928636
0.466504 0.141858 0.946633
0.493671 0.161642 0.929554
0.272873 0.16935 0.995316
0.273857 0.192547 0.925405
0.316295 0.192431 0.943293
0.373043 0.169091 0.996955
0.343771 0.169663 0.943779
0.373863 0.192216 0.927008
0.416247 0.192077 0.944546
0.44372 0.16934 0.945682
0.472901 0.168673 0.998854
0.47372 0.191803 0.928669
0.266688 0.213413 0.994793
0.26615 0.242639 0.941865
0.322829 0.219256 0.995594
0.293556 0.219904 0.942703
0.323757 0.242357 0.925618
0.366773 0.213099 0.996408
0.343659 0.212131 0.926404
0.366075 0.242302 0.94337
0.393493 0.219606 0.944095
0.42275 0.218875 0.997291
0.44351 0.211747 0.928017
0.423691 0.24203 0.927328
0.466587 0.212653 0.99819
0.493421 0.219148 0.94583
0.465987 0.241867 0.945272
0.29378 0.268625 0.0631946
0.343944 0.264424 0.0515498
0.393724 0.268226 0.0650707
0.443765 0.263862 0.0536745
0.46744 0.291452 0.0663948
0.493731 0.267563 0.067244
0.267458 0.29236 0.0627782
0.321472 0.292138 0.0507962
0.293797 0.314631 0.0502274
0.367458 0.292054 0.0645488
0.343819 0.318449 0.0637493
0.393786 0.314148 0.0519148
0.421481 0.291689 0.0526367
0.443739 0.317944 0.0653511
0.493676 0.313556 0.0539189
0.271424 0.342305 0.0494142
0.293719 0.368453 0.0619726
0.317489 0.342157 0.0625014
0.371404 0.341945 0.0511552
0.3438 0.364332 0.0501711
0.393801 0.368224 0.0638692
0.417468 0.341701 0.0648168
0.443757 0.363865 0.0521865
0.471406 0.341451 0.0532433
0.493688 0.367595 0.0659812
0.267424 0.26405 0.115099
0.294088 0.264282 0.172139
0.322115 0.268593 0.116056
0.367376 0.263699 0.116983
0.344067 0.268144 0.184885
0.393977 0.263772 0.174279
0.422056 0.268101 0.117909
0.444049 0.267487 0.18674
0.417806 0.291409 0.185982
0.467388 0.26315 0.119108
0.471692 0.29119 0.175597
0.494 0.263294 0.1764
0.271872 0.292246 0.171411
0.272068 0.318878 0.114364
0.317802 0.292047 0.183877
0.294044 0.318318 0.183271
0.317303 0.313936 0.115171
0.371847 0.291712 0.173302
0.372052 0.318455 0.116432
0.344009 0.31408 0.172457
0.394011 0.317746 0.185183
0.417359 0.313492 0.117341
0.443941 0.313555 0.17439
0.471922 0.317787 0.118284
0.493978 0.317192 0.18687
0.267751 0.342099 0.182307
0.267337 0.364059 0.113697
0.29392 0.364104 0.170954
0.322057 0.368531 0.114739
0.321827 0.341906 0.171574
0.367698 0.341745 0.184429
0.344007 0.367994 0.183468
0.367359 0.363738 0.115548
0.39396 0.363706 0.173009
0.421842 0.341502 0.173712
0.422093 0.368048 0.116709
0.444046 0.367633 0.185674
0.467812 0.341204 0.18634
0.467217 0.363189 0.117743
0.493914 0.363221 0.174812
0.272249 0.268526 0.236213
0.317711 0.263785 0.237289
0.372233 0.26805 0.238314
0.344222 0.264015 0.294543
0.417558 0.263266 0.239206
0.44416 0.263453 0.29647
0.421751 0.291278 0.295716
0.472096 0.267578 0.240248
0.267555 0.313939 0.235695
0.322222 0.318275 0.236511
0.321871 0.291817 0.293929
0.294151 0.314139 0.293014
0.367572 0.31359 0.23744
0.394059 0.313682 0.294607
0.422171 0.317883 0.238506
0.467615 0.313099 0.239509
0.494073 0.313132 0.296804
0.272117 0.368532 0.234945
0.271863 0.342026 0.292363
0.317624 0.363733 0.235845
0.372139 0.368107 0.236988
0.371778 0.341539 0.2942
0.344097 0.363977 0.293288
0.41769 0.363212 0.237895
0.444095 0.363441 0.295437
0.472191 0.367557 0.238848
0.471834 0.341028 0.296263
0.267928 0.263756 0.357478
0.294329 0.267952 0.304868
0.322431 0.268022 0.358472
0.36777 0.263226 0.359433
0.367935 0.291503 0.306283
0.394234 0.267538 0.306968
0.422391 0.267623 0.360533
0.46767 0.262809 0.361431
0.467995 0.290972 0.308093
0.494226 0.267061 0.308996
0.268146 0.291994 0.304477
0.272469 0.318396 0.356981
0.317761 0.313576 0.35786
0.34418 0.317824 0.305231
0.372374 0.317917 0.358733
0.417691 0.312983 0.359768
0.444186 0.317244 0.307245
0.47235 0.317417 0.360778
0.267787 0.363863 0.356354
0.294184 0.368007 0.303587
0.317997 0.341724 0.304674
0.322335 0.368135 0.357372
0.367739 0.363245 0.358043
0.394215 0.367507 0.305492
0.418088 0.341151 0.306559
0.422343 0.367522 0.359274
0.467758 0.362802 0.360165
0.494177 0.366988 0.307477
0.273111 0.26838 0.4788
0.294358 0.263907 0.414618
0.317626 0.262786 0.479781
0.3182 0.291428 0.426979
0.344434 0.267513 0.427645
0.37307 0.26796 0.480504
0.372193 0.291318 0.415722
0.394336 0.263233 0.416469
0.41755 0.262227 0.481614
0.444408 0.267172 0.429943
0.418004 0.290981 0.42904
0.473073 0.267579 0.482584
0.472129 0.290906 0.417683
0.494271 0.262858 0.418305
0.272246 0.291833 0.41406
0.267631 0.313082 0.47844
0.294408 0.317786 0.426329
0.323098 0.318279 0.479015
0.34432 0.313647 0.414846
0.367548 0.312679 0.479895
0.394398 0.317439 0.428259
0.44427 0.313057 0.416675
0.423104 0.317799 0.480981
0.467569 0.312051 0.482128
0.494412 0.316977 0.430055
0.268213 0.341736 0.425375
0.27318 0.368501 0.477675
0.294311 0.363849 0.413403
0.32215 0.34152 0.414021
0.317623 0.362749 0.478539
0.368135 0.341237 0.427512
0.344439 0.367514 0.426415
0.373057 0.367974 0.479332
0.394326 0.363362 0.415126
0.422221 0.341058 0.415989
0.417637 0.362266 0.480333
0.444368 0.367118 0.428293
0.46809 0.340665 0.42945
0.473096 0.367595 0.481362
0.494289 0.362961 0.417118
0.294162 0.269257 0.555553
0.344122 0.26123 0.539739
0.366766 0.291534 0.556083
0.394086 0.268751 0.557341
0.444084 0.260852 0.541549
0.424575 0.291246 0.540975
0.46675 0.291049 0.558792
0.494085 0.268355 0.559438
0.266695 0.29198 0.554876
0.324566 0.291743 0.538972
0.294106 0.311469 0.538342
0.344081 0.319053 0.555638
0.394127 0.310969 0.540044
0.44401 0.318555 0.557944
0.494088 0.310568 0.541895
0.274551 0.342057 0.537565
0.294044 0.369243 0.554469
0.316738 0.341762 0.555315
0.374527 0.341515 0.539476
0.344061 0.361249 0.538614
0.394097 0.368742 0.5562
0.416695 0.341315 0.557022
0.444077 0.360679 0.540121
0.474523 0.341074 0.541191
0.494075 0.368396 0.557824
0.266998 0.262284 0.607827
0.293963 0.261888 0.66745
0.323789 0.268988 0.608465
0.366804 0.261924 0.609299
0.343784 0.269262 0.68578
0.393839 0.261568 0.668903
0.416552 0.291535 0.686836
0.423716 0.268443 0.610486
0.443788 0.268719 0.687361
0.466864 0.261368 0.611458
0.47411 0.291224 0.670264
0.493939 0.261046 0.671015
0.273911 0.292119 0.667056
0.273756 0.319221 0.607125
0.316434 0.291966 0.685225
0.293779 0.319448 0.684116
0.316899 0.31203 0.607863
0.373871 0.291717 0.668301
0.373578 0.318647 0.608674
0.34387 0.311639 0.667431
0.393785 0.318905 0.685829
0.416804 0.311629 0.609791
0.443899 0.311281 0.669568
0.473788 0.31829 0.610729
0.493839 0.318557 0.687987
0.266791 0.362403 0.606494
0.266477 0.342326 0.683596
0.293875 0.361962 0.666016
0.323807 0.368989 0.607451
0.323962 0.341844 0.666886
0.366832 0.361903 0.608255
0.366508 0.341786 0.685207
0.343775 0.3692 0.684453
0.3939 0.361514 0.66802
0.423794 0.36852 0.609013
0.423992 0.341426 0.668701
0.443831 0.368727 0.686247
0.466848 0.36142 0.610118
0.466492 0.34129 0.686956
0.493861 0.36099 0.669862
0.273499 0.269374 0.7368
0.316679 0.262318 0.737447
0.373412 0.269013 0.738245
0.343657 0.261755 0.796905
0.416543 0.261914 0.739076
0.443729 0.261399 0.798371
0.473471 0.268664 0.740116
0.266597 0.312695 0.735982
0.323505 0.319249 0.736778
0.324007 0.29218 0.796319
0.293667 0.311991 0.795376
0.366598 0.312106 0.737662
0.393666 0.311578 0.797053
0.423408 0.318731 0.738431
0.423938 0.291801 0.79792
0.466668 0.311701 0.739381
0.493681 0.311179 0.798963
0.273588 0.369438 0.735487
0.27399 0.342385 0.794932
0.316552 0.362281 0.736275
0.373439 0.368975 0.737113
0.373924 0.341989 0.796464
0.343609 0.361814 0.795622
0.416644 0.361939 0.737907
0.443681 0.361329 0.797324
0.473507 0.368555 0.738875
0.473968 0.341477 0.798463
0.266408 0.262809 0.865207
0.293663 0.269728 0.813739
0.323409 0.269483 0.866169
0.366349 0.262432 0.86675
0.393673 0.269326 0.815093
0.42326 0.26905 0.867713
0.466269 0.291638 0.8165
0.466332 0.261946 0.868549
0.493597 0.268811 0.817141
0.266193 0.292478 0.812769
0.273279 0.319638 0.86446
0.316381 0.312586 0.865311
0.366274 0.292001 0.81448
0.343665 0.319553 0.813575
0.373312 0.319334 0.866257
0.416359 0.312282 0.867214
0.443674 0.319117 0.815733
0.473251 0.318756 0.868203
0.266324 0.36277 0.864081
0.293586 0.369738 0.812375
0.316203 0.342215 0.813132
0.323259 0.369476 0.864778
0.366322 0.362356 0.865733
0.393683 0.369315 0.814104
0.416221 0.3418 0.81479
0.423356 0.369053 0.866689
0.466309 0.361945 0.867498
0.493564 0.368773 0.815898
0.272656 0.269505 0.99391
0.316594 0.263351 0.99483
0.293525 0.262254 0.924936
0.372708 0.26921 0.995726
0.34346 0.269681 0.942583
0.4165 0.263066 0.996617
0.393552 0.261949 0.926254
0.443428 0.26943 0.944255
0.472598 0.268644 0.997698
0.493453 0.261412 0.928503
0.266514 0.31346 0.99338
0.273645 0.292599 0.924167
0.3226 0.319233 0.994159
0.316021 0.292542 0.941483
0.293355 0.319934 0.941013
0.366552 0.313069 0.995019
0.373671 0.292183 0.925768
0.343521 0.312197 0.925098
0.415989 0.292153 0.943314
0.393365 0.31959 0.94299
0.422512 0.31885 0.996009
0.443481 0.311709 0.926743
0.466522 0.312637 0.997049
0.473703 0.291718 0.927728
0.493387 0.319028 0.944846
0.27256 0.369427 0.992797
0.265916 0.342696 0.940635
0.316496 0.363217 0.993609
0.293411 0.362262 0.92357
0.323667 0.34233 0.924329
0.372621 0.369153 0.994474
0.366023 0.342338 0.942315
0.343405 0.369719 0.941617
0.416541 0.362818 0.995409
0.393477 0.361913 0.925377
0.423613 0.341977 0.926087
0.443421 0.369293 0.943442
0.472717 0.368676 0.996459
0.46603 0.341893 0.944134
0.493494 0.361371 0.927116
0.267474 0.392354 0.061493
0.293804 0.414383 0.0489027
0.321458 0.392024 0.0497135
0.36744 0.392029 0.0631338
0.393791 0.414107 0.0507643
0.421488 0.391692 0.0516572
0.467446 0.391525 0.0649148
0.493734 0.413658 0.0526601
0.271491 0.442226 0.0480586
0.317372 0.442102 0.0616336
0.343728 0.4183 0.0623138
0.371559 0.441869 0.0498024
0.417419 0.44169 0.063445
0.443759 0.417908 0.0642691
0.47138 0.44143 0.0515752
0.267326 0.49228 0.060037
0.293763 0.468563 0.0609459
0.321594 0.492019 0.0482641
0.343738 0.464203 0.0491773
0.367396 0.491821 0.0617166
0.393707 0.468045 0.0626116
0.443711 0.463863 0.0508486
0.421337 0.491625 0.049985
0.467308 0.491428 0.0635574
0.493661 0.467601 0.0642801
0.271896 0.392166 0.170131
0.317795 0.391889 0.182701
0.317326 0.413846 0.114193
0.371682 0.39167 0.172345
0.343971 0.414072 0.171165
0.417795 0.391399 0.184808
0.417283 0.413373 0.11615
0.443905 0.413618 0.173468
0.471764 0.391247 0.174141
0.272078 0.418878 0.113167
0.267742 0.442025 0.181161
0.293983 0.418222 0.181969
0.321688 0.441888 0.170606
0.37197 0.418399 0.115149
0.367707 0.441653 0.183237
0.393908 0.417737 0.183976
0.421531 0.441491 0.172536
0.472018 0.417944 0.117006
0.467705 0.441247 0.185059
0.493926 0.417271 0.185781
0.267228 0.464045 0.112587
0.271687 0.492045 0.168932
0.293916 0.464248 0.169792
0.322085 0.468556 0.113451
0.317766 0.491803 0.181346
0.343952 0.467993 0.182386
0.367198 0.463563 0.114379
0.371601 0.491661 0.170829
0.393856 0.463805 0.171672
0.422046 0.468165 0.115351
0.443951 0.467434 0.184025
0.417696 0.491428 0.183302
0.467154 0.463108 0.116132
0.471676 0.49124 0.172683
0.493796 0.463337 0.173399
0.267584 0.413869 0.234359
0.294152 0.414084 0.292079
0.321893 0.391765 0.29263
0.367574 0.413473 0.236416
0.394011 0.41368 0.29369
0.421792 0.391216 0.294569
0.467597 0.412967 0.23823
0.494126 0.41329 0.295516
0.271938 0.441812 0.291053
0.322193 0.418248 0.235369
0.371701 0.441593 0.293143
0.42198 0.417819 0.23725
0.471763 0.441071 0.294507
0.272097 0.468371 0.23366
0.317534 0.463779 0.234638
0.321677 0.491674 0.291569
0.37208 0.468089 0.23578
0.344036 0.463925 0.292092
0.417477 0.463204 0.236496
0.444041 0.46333 0.293692
0.421791 0.491197 0.293284
0.4721 0.467603 0.237551
0.267993 0.392012 0.303046
0.317753 0.413514 0.356752
0.367902 0.391504 0.304917
0.417733 0.413005 0.358472
0.467964 0.391032 0.306884
0.272363 0.418366 0.35576
0.317968 0.441655 0.303294
0.344139 0.417805 0.304032
0.372372 0.417908 0.357728
0.417911 0.4412 0.305249
0.444136 0.417243 0.305993
0.472409 0.417491 0.359436
0.26778 0.463608 0.355119
0.26801 0.491787 0.301515
0.294061 0.4678 0.302508
0.322253 0.468073 0.356084
0.367577 0.463285 0.357061
0.367938 0.491396 0.303861
0.394138 0.467577 0.304605
0.422324 0.46761 0.357996
0.467618 0.462727 0.35882
0.467903 0.491004 0.305713
0.494138 0.467148 0.306371
0.272077 0.391875 0.412817
0.267603 0.413069 0.477225
0.318196 0.391458 0.425769
0.372149 0.391274 0.414522
0.344239 0.41357 0.413774
0.367476 0.412475 0.478782
0.418053 0.390984 0.427777
0.444182 0.413058 0.41544
0.4721 0.390891 0.416291
0.467562 0.412064 0.480779
0.268089 0.44168 0.42439
0.294332 0.417858 0.425089
0.322104 0.441505 0.413367
0.322982 0.418163 0.478093
0.368043 0.441184 0.426499
0.394387 0.417355 0.426856
0.422129 0.441081 0.414963
0.42311 0.417853 0.479644
0.467982 0.440694 0.428174
0.494429 0.416878 0.428803
0.273083 0.468531 0.476681
0.272165 0.491617 0.411485
0.294266 0.463664 0.412363
0.317458 0.462759 0.477625
0.3181 0.491367 0.424474
0.34432 0.467559 0.425674
0.373036 0.468075 0.478486
0.371947 0.491222 0.413372
0.394177 0.463287 0.413998
0.417476 0.462345 0.479178
0.444337 0.467182 0.427363
0.417956 0.490977 0.426472
0.473079 0.467579 0.479991
0.472067 0.490847 0.414951
0.494172 0.462827 0.415715
0.266579 0.39199 0.553685
0.293991 0.411483 0.537167
0.324511 0.391766 0.537944
0.366721 0.391515 0.555295
0.394034 0.410965 0.538774
0.424489 0.39132 0.53964
0.466715 0.391066 0.55751
0.49405 0.410587 0.54053
0.274552 0.441965 0.536572
0.316644 0.441784 0.554023
0.343987 0.419075 0.554642
0.374492 0.441507 0.53796
0.416627 0.441319 0.555738
0.444086 0.418608 0.556923
0.474504 0.441077 0.539867
0.26659 0.491934 0.552631
0.294017 0.469178 0.553576
0.324533 0.491711 0.536611
0.344001 0.461161 0.53749
0.366556 0.491476 0.554107
0.39405 0.468833 0.555281
0.444034 0.460859 0.539101
0.424374 0.491322 0.538458
0.466692 0.491115 0.555683
0.494099 0.468426 0.556712
0.27395 0.392193 0.665567
0.316683 0.41207 0.606878
0.316497 0.391976 0.684075
0.374004 0.391701 0.667227
0.343842 0.41172 0.666553
0.416556 0.39156 0.685349
0.416815 0.411695 0.608461
0.443916 0.411271 0.668098
0.474069 0.391201 0.669184
0.273684 0.419155 0.605813
0.26649 0.442222 0.682428
0.293733 0.419405 0.683001
0.323846 0.441934 0.665926
0.373695 0.41864 0.607573
0.366449 0.44172 0.684055
0.393836 0.418859 0.684832
0.4239 0.4415 0.667593
0.473767 0.418344 0.609542
0.466512 0.441381 0.685731
0.493828 0.418533 0.686568
0.266763 0.462293 0.605353
0.273925 0.492122 0.664474
0.293829 0.461983 0.665019
0.323734 0.469015 0.606256
0.316407 0.492003 0.682762
0.36671 0.461791 0.607149
0.343728 0.469188 0.683387
0.3739 0.491677 0.666014
0.393813 0.461508 0.666683
0.41645 0.491533 0.684182
0.423784 0.468535 0.608011
0.443773 0.468722 0.685201
0.466798 0.461473 0.608775
0.474006 0.49126 0.667682
0.493879 0.4611 0.66814
0.266527 0.41259 0.734869
0.293674 0.411857 0.794246
0.323996 0.392166 0.795261
0.366595 0.412073 0.736588
0.393662 0.411574 0.795781
0.423961 0.391719 0.796976
0.466596 0.411552 0.738265
0.493681 0.411121 0.797914
0.27396 0.442316 0.79361
0.323418 0.41922 0.73554
0.373873 0.441946 0.795172
0.42353 0.418708 0.737411
0.473939 0.44146 0.796953
0.273479 0.469327 0.734328
0.31651 0.462366 0.735105
0.323882 0.49212 0.793757
0.373513 0.46903 0.735939
0.343586 0.461788 0.794589
0.416522 0.461887 0.737024
0.443665 0.461269 0.79601
0.423948 0.491708 0.795515
0.473521 0.468577 0.737639
0.266145 0.392432 0.811936
0.316305 0.412476 0.86422
0.366198 0.392004 0.81339
0.416324 0.412098 0.86604
0.46621 0.391555 0.815371
0.273203 0.419588 0.863534
0.316118 0.442156 0.811805
0.343621 0.419614 0.812624
0.373226 0.419158 0.864969
0.416178 0.441793 0.813868
0.443632 0.419063 0.814686
0.473297 0.418803 0.867005
0.266352 0.462696 0.862998
0.266153 0.492337 0.810367
0.293575 0.469699 0.811416
0.323142 0.469429 0.863603
0.366247 0.462322 0.864556
0.366159 0.49202 0.812341
0.393491 0.469252 0.813204
0.423329 0.469084 0.865076
0.466178 0.491537 0.813657
0.466317 0.461973 0.86616
0.493611 0.468811 0.814713
0.26654 0.413474 0.992296
0.273663 0.392579 0.923037
0.315958 0.392383 0.940585
0.366584 0.413076 0.993907
0.373673 0.392201 0.924512
0.34348 0.412088 0.923794
0.415983 0.392051 0.942375
0.443469 0.411678 0.925775
0.466517 0.412657 0.995822
0.473672 0.391701 0.926624
0.266024 0.442712 0.939471
0.322585 0.419289 0.993131
0.293338 0.419957 0.940135
0.323678 0.44227 0.923307
0.366014 0.442238 0.940964
0.393441 0.419606 0.941843
0.422631 0.418851 0.994975
0.423667 0.441961 0.924723
0.466015 0.441881 0.942713
0.493321 0.419118 0.943654
0.272595 0.46947 0.991597
0.273586 0.492508 0.921684
0.316572 0.463274 0.992324
0.293483 0.4623 0.922397
0.315986 0.492405 0.939267
0.372561 0.469057 0.993218
0.343363 0.469633 0.940042
0.373505 0.492168 0.923246
0.416554 0.462894 0.994037
0.393447 0.461938 0.924001
0.415947 0.492037 0.940738
0.443435 0.469379 0.941805
0.472641 0.468759 0.994943
0.473639 0.491803 0.924855
0.493406 0.461418 0.925925
0.293735 0.514355 0.0475439
0.343597 0.518326 0.0612084
0.393709 0.513936 0.0490931
0.443591 0.517961 0.0628074
0.49364 0.51362 0.0510476
0.471306 0.541379 0.0502305
0.271362 0.542102 0.0469318
0.293595 0.568369 0.0596053
0.317418 0.542085 0.0601361
0.343623 0.564388 0.0476437
0.371268 0.541854 0.048489
0.393517 0.568092 0.061227
0.417175 0.541694 0.0619437
0.443533 0.563801 0.0493505
0.493521 0.567564 0.0630443
0.267251 0.59214 0.0586996
0.321178 0.592011 0.046617
0.293531 0.614361 0.0460338
0.367097 0.591845 0.0605552
0.34334 0.618225 0.0599324
0.39332 0.613985 0.0480501
0.421088 0.59162 0.048727
0.44322 0.617886 0.0614429
0.467073 0.591386 0.062239
0.493375 0.613656 0.0499705
0.271949 0.518688 0.11191
0.293984 0.518014 0.180404
0.317203 0.513728 0.112739
0.371851 0.518242 0.113723
0.343896 0.513883 0.169985
0.367573 0.541519 0.181831
0.393822 0.517654 0.18251
0.417128 0.513426 0.114566
0.443853 0.513445 0.172092
0.421535 0.541386 0.171026
0.471876 0.517858 0.115358
0.493814 0.517277 0.184326
0.467641 0.541172 0.183441
0.267132 0.563821 0.11116
0.267725 0.541904 0.179877
0.293796 0.564004 0.168524
0.321893 0.568467 0.112174
0.321725 0.541744 0.169059
0.343823 0.567831 0.180982
0.367115 0.563624 0.113207
0.393715 0.563604 0.170249
0.421844 0.568076 0.113938
0.443654 0.56745 0.18279
0.467035 0.563056 0.114863
0.493653 0.563288 0.172073
0.271556 0.591842 0.167269
0.271759 0.618524 0.11053
0.317567 0.591647 0.180227
0.293748 0.617969 0.17928
0.31692 0.61355 0.111421
0.371468 0.591627 0.169478
0.343574 0.613849 0.168685
0.371659 0.618244 0.112522
0.39352 0.617616 0.18102
0.417297 0.591297 0.181987
0.416937 0.613303 0.113315
0.443475 0.613464 0.170337
0.471324 0.591096 0.171183
0.471502 0.617707 0.114212
0.493476 0.617168 0.182682
0.26757 0.513729 0.232939
0.271729 0.541663 0.289454
0.322042 0.518109 0.234072
0.293992 0.513963 0.290426
0.36753 0.513325 0.235061
0.371719 0.54135 0.291781
0.393965 0.513518 0.292337
0.422057 0.51776 0.235928
0.467538 0.513021 0.236923
0.493992 0.513112 0.294288
0.471637 0.540966 0.293268
0.272073 0.568221 0.232344
0.317471 0.56349 0.233325
0.371904 0.567909 0.234256
0.343945 0.563741 0.29085
0.41733 0.563115 0.235258
0.443762 0.563371 0.292643
0.47182 0.567476 0.236056
0.267381 0.613588 0.231432
0.267884 0.591605 0.299998
0.321442 0.591466 0.289931
0.321808 0.618048 0.232649
0.293767 0.613873 0.289065
0.367113 0.613388 0.233519
0.393584 0.613526 0.290879
0.421581 0.617639 0.234606
0.42139 0.591039 0.291481
0.467201 0.612803 0.235363
0.493666 0.613022 0.292915
0.27233 0.518098 0.354422
0.317699 0.513509 0.35538
0.317892 0.541471 0.301806
0.344039 0.517575 0.3026
0.372227 0.517814 0.35635
0.443993 0.517266 0.304466
0.417645 0.513041 0.357333
0.417703 0.541174 0.303932
0.472129 0.517407 0.358125
0.267679 0.563432 0.353526
0.294 0.567617 0.300751
0.322117 0.567853 0.354596
0.367523 0.563185 0.355762
0.393859 0.567494 0.303109
0.422051 0.56745 0.356637
0.467519 0.562669 0.357232
0.49401 0.566964 0.304719
0.272034 0.617922 0.35283
0.317274 0.613186 0.353939
0.367612 0.591326 0.302011
0.343654 0.617392 0.300979
0.371756 0.617615 0.354923
0.417277 0.612857 0.355634
0.443585 0.616998 0.302954
0.467633 0.590839 0.303814
0.471776 0.61721 0.356517
0.267543 0.512919 0.475816
0.268055 0.541488 0.422764
0.294301 0.517681 0.42356
0.322906 0.518235 0.47678
0.322085 0.541344 0.411769
0.34423 0.513537 0.412735
0.367461 0.512469 0.477629
0.367978 0.541204 0.424827
0.394231 0.517371 0.425692
0.444134 0.513081 0.414346
0.422913 0.517758 0.47857
0.421916 0.541009 0.413639
0.467373 0.512041 0.479276
0.494253 0.516964 0.427385
0.467865 0.540777 0.426674
0.273015 0.568175 0.475324
0.294135 0.563493 0.410986
0.317298 0.562541 0.47619
0.344103 0.567464 0.423981
0.372785 0.567855 0.476977
0.394077 0.563334 0.413027
0.444172 0.567141 0.425782
0.417369 0.562339 0.47798
0.47293 0.567578 0.478556
0.494114 0.562755 0.414174
0.272005 0.591436 0.410064
0.267176 0.612651 0.474394
0.317687 0.591139 0.422992
0.293882 0.617498 0.422172
0.322479 0.617843 0.475133
0.37171 0.591163 0.411967
0.343757 0.613319 0.410953
0.367073 0.612369 0.47612
0.393826 0.61715 0.424058
0.417631 0.590903 0.425098
0.44382 0.612881 0.412728
0.422505 0.617654 0.476979
0.471803 0.59074 0.413408
0.46717 0.61186 0.477896
0.493958 0.616802 0.425535
0.293943 0.51132 0.535896
0.343937 0.51903 0.553415
0.374305 0.541426 0.536911
0.393959 0.510968 0.537579
0.416473 0.541329 0.554202
0.443989 0.518611 0.555032
0.494074 0.510637 0.539226
0.474338 0.54109 0.538545
0.274449 0.541811 0.53529
0.293875 0.569189 0.552215
0.316505 0.541694 0.55279
0.34381 0.561145 0.536155
0.393787 0.568756 0.553583
0.443878 0.560815 0.537753
0.493935 0.568425 0.55509
0.266371 0.591675 0.551093
0.324153 0.591619 0.535483
0.293612 0.611173 0.534594
0.366229 0.591477 0.552645
0.343521 0.618906 0.551908
0.393585 0.610988 0.536118
0.424019 0.591318 0.537141
0.443616 0.618506 0.553291
0.466337 0.591005 0.554681
0.493668 0.610516 0.538032
0.273648 0.51914 0.604872
0.293718 0.519402 0.681934
0.316657 0.512091 0.605449
0.373581 0.51863 0.606365
0.343692 0.511727 0.665154
0.39367 0.519025 0.683137
0.41665 0.511675 0.607087
0.443792 0.511367 0.667018
0.423751 0.541511 0.666107
0.473617 0.518244 0.608099
0.493776 0.518534 0.685254
0.466347 0.541358 0.684368
0.266603 0.562141 0.604172
0.266398 0.542205 0.681361
0.293655 0.561744 0.663727
0.323521 0.56897 0.60494
0.323814 0.54186 0.664648
0.366572 0.561903 0.605614
0.366304 0.541741 0.682463
0.343541 0.569222 0.681848
0.393677 0.561611 0.6655
0.423484 0.568503 0.606341
0.443589 0.568754 0.683439
0.466732 0.561396 0.607211
0.49366 0.56105 0.666936
0.273814 0.592008 0.663217
0.27327 0.6189 0.603254
0.316108 0.591909 0.681314
0.293434 0.619341 0.680515
0.316305 0.612015 0.604115
0.373626 0.591728 0.664488
0.373082 0.618675 0.60485
0.343389 0.611653 0.663979
0.416154 0.591477 0.682678
0.39327 0.618988 0.681905
0.416453 0.611648 0.606022
0.443413 0.611277 0.665501
0.473655 0.591266 0.666262
0.473164 0.618224 0.606707
0.49338 0.61855 0.683757
0.266544 0.512518 0.733678
0.323354 0.519156 0.734311
0.293565 0.511905 0.793201
0.366514 0.512105 0.735098
0.393572 0.511518 0.794567
0.423355 0.518755 0.735917
0.466503 0.511746 0.736788
0.493633 0.511239 0.796113
0.473722 0.541524 0.795548
0.273261 0.569352 0.733162
0.273787 0.542278 0.792492
0.31641 0.562286 0.73379
0.37315 0.568996 0.734453
0.343473 0.561725 0.793329
0.373729 0.541931 0.793784
0.41641 0.561947 0.735351
0.443428 0.561367 0.794637
0.473264 0.568595 0.736041
0.26625 0.61251 0.732397
0.323101 0.619232 0.733196
0.323633 0.592093 0.792572
0.293328 0.611902 0.791741
0.366141 0.612217 0.733842
0.393221 0.611521 0.793338
0.422989 0.618675 0.734559
0.423486 0.591692 0.794186
0.466218 0.611664 0.735492
0.49325 0.611192 0.795173
0.273136 0.519505 0.8622
0.316225 0.512622 0.862991
0.343539 0.519502 0.811231
0.373185 0.519317 0.863739
0.416275 0.512217 0.864452
0.44355 0.519107 0.812909
0.473227 0.51882 0.865186
0.266323 0.56276 0.861544
0.316106 0.542144 0.810738
0.293423 0.569607 0.80991
0.323034 0.569357 0.862459
0.366153 0.562362 0.863084
0.416062 0.541735 0.812165
0.393329 0.569286 0.811123
0.422991 0.568951 0.863674
0.466187 0.561934 0.864627
0.493373 0.56888 0.813239
0.266006 0.592314 0.809172
0.273051 0.619471 0.861174
0.315994 0.612605 0.861788
0.365963 0.592 0.810558
0.343203 0.619399 0.81017
0.372858 0.619214 0.862535
0.416046 0.61216 0.863277
0.44316 0.619007 0.8113
0.465916 0.591576 0.812312
0.472734 0.618834 0.86437
0.266459 0.513375 0.990863
0.322629 0.519239 0.991651
0.29332 0.51984 0.93879
0.366482 0.513049 0.992571
0.343419 0.512111 0.922244
0.393327 0.519532 0.940205
0.422484 0.51882 0.993582
0.443322 0.511591 0.924165
0.466413 0.512619 0.994199
0.493252 0.519134 0.941834
0.272457 0.569399 0.990292
0.265947 0.542564 0.937952
0.31636 0.56325 0.990932
0.293293 0.562217 0.921059
0.323598 0.542312 0.922014
0.372412 0.569135 0.991884
0.365814 0.542238 0.939772
0.343167 0.569726 0.938727
0.416333 0.562779 0.992775
0.393267 0.561838 0.922494
0.423547 0.541928 0.923638
0.443166 0.569299 0.940587
0.472334 0.568659 0.993636
0.46589 0.541784 0.941218
0.49324 0.561568 0.924513
0.266279 0.61336 0.989687
0.273466 0.592483 0.920524
0.322318 0.619237 0.990628
0.315758 0.592473 0.938049
0.293119 0.619925 0.937618
0.366137 0.613096 0.991195
0.373437 0.592102 0.921942
0.343118 0.612034 0.921066
0.415615 0.591955 0.939674
0.392936 0.619506 0.939073
0.422041 0.6188 0.992172
0.442991 0.611674 0.923006
0.46617 0.612543 0.993122
0.473247 0.591731 0.923698
0.492914 0.619139 0.940816
0.271051 0.642147 0.0455965
0.316946 0.64207 0.0593454
0.371012 0.641854 0.0472286
0.343197 0.664308 0.0463267
0.41683 0.641737 0.0607573
0.443128 0.663937 0.0481028
0.470781 0.641321 0.0491272
0.266909 0.692274 0.057783
0.293358 0.668473 0.0587581
0.320845 0.692165 0.0452834
0.366659 0.69192 0.0593622
0.393038 0.668203 0.0604497
0.420637 0.691689 0.0469323
0.49303 0.667533 0.0620036
0.466603 0.691411 0.0611443
0.269334 0.742193 0.0392789
0.292915 0.714727 0.0428753
0.314239 0.742064 0.0551017
0.342857 0.718602 0.0589256
0.369185 0.741773 0.0410944
0.392771 0.71419 0.0450375
0.414161 0.741536 0.0567693
0.442779 0.717932 0.0605337
0.492778 0.713652 0.0465647
0.468966 0.741175 0.0427749
0.267384 0.641864 0.178519
0.266846 0.663876 0.109987
0.321291 0.641724 0.167551
0.293477 0.66405 0.166841
0.367187 0.641526 0.180265
0.366663 0.663582 0.11191
0.393235 0.663683 0.16858
0.421105 0.641399 0.169763
0.467159 0.641037 0.1822
0.466616 0.663063 0.113769
0.493247 0.663125 0.170648
0.271116 0.691878 0.165583
0.321675 0.668666 0.110969
0.316874 0.691772 0.179154
0.343261 0.667791 0.179905
0.370901 0.691523 0.167582
0.421459 0.668224 0.112759
0.443247 0.667428 0.181785
0.416767 0.69131 0.180756
0.470852 0.691058 0.169384
0.271578 0.718882 0.109808
0.264315 0.742011 0.174885
0.292942 0.718061 0.178463
0.315825 0.713527 0.110319
0.318898 0.741745 0.162154
0.371241 0.718488 0.111502
0.342809 0.714048 0.165808
0.364172 0.741597 0.176648
0.392758 0.717615 0.17991
0.415752 0.713068 0.112184
0.442819 0.713469 0.167656
0.418729 0.741357 0.163917
0.471266 0.717964 0.113097
0.492738 0.717039 0.181553
0.464043 0.741083 0.178359
0.271485 0.641557 0.287944
0.316941 0.663396 0.232237
0.371165 0.641255 0.289949
0.343377 0.663636 0.289235
0.416776 0.663091 0.233932
0.443347 0.663291 0.29064
0.471174 0.640744 0.291692
0.271724 0.668287 0.23111
0.267151 0.691709 0.299091
0.320795 0.691479 0.287955
0.293472 0.667613 0.299803
0.371503 0.667862 0.233103
0.420651 0.691082 0.289749
0.471411 0.667363 0.234744
0.266108 0.713556 0.230488
0.26895 0.741774 0.282785
0.29299 0.714074 0.286172
0.321218 0.718254 0.231765
0.314159 0.741683 0.296791
0.365961 0.713115 0.232307
0.36867 0.741375 0.284197
0.342827 0.717395 0.299818
0.39285 0.713572 0.288085
0.414232 0.741124 0.298667
0.421042 0.717834 0.233333
0.465924 0.712617 0.234187
0.468658 0.740884 0.285937
0.492836 0.713119 0.289987
0.267079 0.663408 0.352262
0.317382 0.641369 0.300487
0.366788 0.662916 0.354195
0.417357 0.641035 0.302258
0.466862 0.662454 0.355981
0.321635 0.667708 0.353291
0.36692 0.691269 0.300957
0.393334 0.667249 0.301768
0.421571 0.667337 0.354945
0.493355 0.666707 0.303492
0.467075 0.6908 0.302653
0.271399 0.718115 0.352066
0.31603 0.713129 0.352617
0.371104 0.717648 0.353672
0.416036 0.712674 0.354319
0.442815 0.716956 0.301628
0.47111 0.717251 0.355516
0.267555 0.641297 0.421426
0.321441 0.64121 0.410291
0.293618 0.663435 0.409285
0.316724 0.662499 0.474679
0.367265 0.640944 0.423413
0.393472 0.662912 0.411001
0.421552 0.640846 0.411853
0.416696 0.661961 0.476412
0.467437 0.64059 0.425044
0.493558 0.662468 0.412542
0.272448 0.667936 0.473828
0.271314 0.691349 0.408442
0.316904 0.691199 0.421591
0.34349 0.667248 0.422446
0.372258 0.667661 0.475536
0.371031 0.690924 0.410206
0.443469 0.666955 0.424253
0.416776 0.690721 0.423402
0.47232 0.667206 0.477052
0.471049 0.690497 0.411823
0.265884 0.712543 0.473136
0.264221 0.741692 0.417485
0.293051 0.717619 0.42088
0.321896 0.717938 0.474088
0.318866 0.741447 0.404022
0.342844 0.713362 0.408183
0.365757 0.712244 0.47465
0.364105 0.741314 0.418667
0.392892 0.717099 0.422367
0.442877 0.71279 0.409988
0.421727 0.717531 0.475632
0.418805 0.74098 0.40578
0.465777 0.711839 0.476557
0.492926 0.716705 0.42401
0.464041 0.740768 0.420743
0.273993 0.641728 0.533883
0.315994 0.641525 0.55097
0.373707 0.641447 0.535451
0.343273 0.661008 0.534481
0.415974 0.641267 0.553168
0.443273 0.660618 0.536161
0.473806 0.641024 0.537341
0.265685 0.691893 0.549451
0.293397 0.669064 0.550882
0.323418 0.691739 0.534182
0.365277 0.691557 0.551372
0.393226 0.668688 0.552522
0.423221 0.691318 0.535763
0.493257 0.66825 0.554078
0.465353 0.691043 0.553135
0.270291 0.742121 0.524379
0.292977 0.71136 0.532025
0.311731 0.741898 0.543381
0.342729 0.719258 0.552253
0.370092 0.741804 0.525905
0.392745 0.711058 0.533929
0.411703 0.74155 0.545212
0.442742 0.718766 0.553442
0.492841 0.710564 0.535756
0.470019 0.741287 0.527558
0.266194 0.6421 0.679607
0.266253 0.662181 0.602685
0.323486 0.641875 0.6635
0.293336 0.661843 0.662513
0.365853 0.641846 0.680997
0.36605 0.661825 0.604328
0.393186 0.661571 0.664029
0.423377 0.64147 0.665177
0.46598 0.641416 0.683276
0.466163 0.661277 0.606287
0.493308 0.660983 0.665786
0.273437 0.692103 0.662339
0.323069 0.668736 0.603443
0.315512 0.69203 0.679832
0.343118 0.669216 0.680633
0.373192 0.69182 0.663736
0.415379 0.691573 0.681396
0.422968 0.668306 0.605292
0.44315 0.668792 0.682771
0.473267 0.691266 0.665624
0.272882 0.719118 0.602456
0.261969 0.742263 0.672023
0.292956 0.719874 0.680874
0.315106 0.712242 0.60324
0.320343 0.74203 0.653092
0.372614 0.71884 0.604163
0.342893 0.71181 0.661897
0.361779 0.741886 0.673642
0.415086 0.711668 0.604562
0.392783 0.719448 0.682486
0.442831 0.711129 0.663643
0.420409 0.741566 0.654358
0.472602 0.71831 0.605691
0.492855 0.718961 0.683824
0.461823 0.741333 0.675194
0.273596 0.64225 0.791425
0.316063 0.662324 0.732676
0.373341 0.641974 0.792984
0.343094 0.66179 0.791943
0.415941 0.661909 0.734252
0.443041 0.661429 0.793805
0.473392 0.641498 0.794446
0.273043 0.669304 0.731824
0.323308 0.692184 0.791583
0.372812 0.668985 0.733337
0.423042 0.691763 0.79309
0.472892 0.668537 0.735028
0.265275 0.712617 0.731473
0.270437 0.742231 0.780999
0.322812 0.719366 0.732259
0.292888 0.712 0.789805
0.364999 0.71212 0.732783
0.370298 0.741864 0.782385
0.392762 0.711607 0.791319
0.42258 0.71897 0.73373
0.465151 0.711609 0.734702
0.470253 0.741455 0.783894
0.492797 0.711209 0.793106
0.265882 0.662749 0.860628
0.315766 0.642256 0.80968
0.365738 0.662268 0.862209
0.41572 0.641806 0.81087
0.465807 0.661814 0.863788
0.265446 0.69234 0.808392
0.293121 0.669741 0.809022
0.322761 0.669424 0.861687
0.365327 0.69193 0.809771
0.392925 0.669276 0.81063
0.422645 0.669029 0.862994
0.493025 0.668805 0.812208
0.465293 0.691518 0.81167
0.272815 0.719793 0.86013
0.315062 0.712492 0.860955
0.311805 0.742179 0.801827
0.372689 0.719544 0.861618
0.342852 0.719888 0.810485
0.41499 0.712149 0.862409
0.411861 0.741801 0.803487
0.442728 0.719425 0.811831
0.472598 0.719079 0.863322
0.265647 0.642578 0.936948
0.315963 0.663162 0.990082
0.323325 0.642364 0.920885
0.293011 0.662298 0.920159
0.365466 0.64225 0.938731
0.415853 0.662799 0.991778
0.39282 0.661892 0.921645
0.4231 0.641978 0.92235
0.465406 0.641771 0.940684
0.492868 0.661297 0.923609
0.272261 0.669515 0.989321
0.273234 0.692466 0.919532
0.315312 0.69244 0.938151
0.372161 0.669151 0.99093
0.342897 0.66994 0.938361
0.373109 0.692158 0.920968
0.415232 0.692013 0.939469
0.442821 0.669379 0.939683
0.47209 0.668608 0.992719
0.473155 0.691636 0.922549
0.265371 0.713489 0.988685
0.261705 0.742408 0.929254
0.29275 0.720359 0.937493
0.322019 0.719936 0.989563
0.320478 0.742158 0.910775
0.365169 0.713106 0.990227
0.342727 0.712089 0.919206
0.361776 0.742046 0.931321
0.392662 0.720057 0.939
0.421908 0.719418 0.991239
0.442728 0.711653 0.920719
0.420486 0.741745 0.912547
0.46516 0.712537 0.991898
0.492697 0.719431 0.940875
0.461755 0.741527 0.932908
0.264552 0.791597 0.0542134
0.292426 0.76835 0.0400515
0.318953 0.79139 0.0425599
0.342314 0.763483 0.056771
0.364614 0.791205 0.0561632
0.392358 0.767847 0.0419021
0.442245 0.763012 0.0583125
0.418883 0.790986 0.0443688
0.464506 0.790816 0.0577539
0.492354 0.76719 0.0437166
0.292602 0.813502 0.0550795
0.342676 0.81764 0.0446836
0.392715 0.813131 0.0567349
0.442666 0.81725 0.0461371
0.492711 0.81272 0.058435
0.269196 0.841435 0.0435065
0.293172 0.867456 0.0450854
0.315034 0.84128 0.0569612
0.369228 0.841008 0.0456376
0.343173 0.863269 0.0581298
0.39321 0.867217 0.0467682
0.414958 0.840891 0.0585322
0.443217 0.862784 0.0596994
0.46932 0.84047 0.0468654
0.493219 0.866575 0.0484199
0.269791 0.763493 0.109754
0.268648 0.791599 0.164189
0.292341 0.76377 0.17646
0.313555 0.768408 0.111071
0.314707 0.791524 0.176592
0.369649 0.763077 0.11168
0.342383 0.76766 0.163306
0.368669 0.791186 0.165684
0.392298 0.763381 0.178503
0.413561 0.767955 0.112633
0.414629 0.791068 0.178155
0.442213 0.767163 0.165079
0.46945 0.762621 0.11338
0.4686 0.790731 0.167243
0.492208 0.762926 0.18034
0.264705 0.818141 0.11167
0.292742 0.817765 0.165472
0.319067 0.813194 0.112603
0.342788 0.813614 0.177196
0.364763 0.817699 0.113574
0.392744 0.81725 0.167509
0.419132 0.81287 0.114356
0.442768 0.813256 0.178981
0.464756 0.817296 0.115137
0.492786 0.816737 0.169035
0.26952 0.863279 0.113168
0.265236 0.841547 0.177059
0.293219 0.863687 0.177863
0.315174 0.867743 0.114283
0.319157 0.841312 0.16665
0.365493 0.841249 0.178919
0.3433 0.867324 0.167906
0.369702 0.862981 0.115036
0.39332 0.863501 0.180034
0.415173 0.867421 0.116102
0.419149 0.841024 0.168315
0.443412 0.86688 0.169205
0.465414 0.84079 0.180565
0.46984 0.862441 0.116505
0.49336 0.862931 0.181594
0.26378 0.768306 0.231443
0.29231 0.767781 0.283501
0.319506 0.763314 0.232269
0.318718 0.791483 0.286301
0.363684 0.767928 0.233106
0.342289 0.763548 0.298761
0.364787 0.791329 0.298551
0.392291 0.76724 0.285242
0.419458 0.762784 0.234041
0.418615 0.791035 0.287732
0.463541 0.767473 0.234822
0.492276 0.766766 0.287187
0.269191 0.813604 0.232908
0.264889 0.791718 0.29672
0.314803 0.817921 0.234138
0.292802 0.814071 0.297604
0.369084 0.813228 0.234781
0.34289 0.817616 0.287794
0.414869 0.817564 0.235673
0.392805 0.813607 0.299346
0.442835 0.8172 0.289184
0.469175 0.812823 0.236313
0.269121 0.841761 0.286586
0.265303 0.868137 0.234418
0.319753 0.863386 0.235305
0.29337 0.867793 0.287929
0.315428 0.841728 0.299271
0.365297 0.86793 0.236372
0.36929 0.841508 0.288487
0.393475 0.867561 0.28944
0.419896 0.863074 0.237092
0.465363 0.867426 0.237958
0.469229 0.840964 0.289897
0.493524 0.866961 0.291241
0.269842 0.763472 0.352421
0.313637 0.768041 0.353324
0.36964 0.763014 0.354168
0.41356 0.767589 0.355023
0.442343 0.763156 0.300769
0.469658 0.762518 0.355848
0.464857 0.790932 0.300129
0.264994 0.818406 0.354061
0.319318 0.813654 0.354878
0.36505 0.818076 0.3558
0.41931 0.813188 0.356478
0.465072 0.817559 0.357367
0.4929 0.81321 0.301157
0.269958 0.863771 0.355385
0.315353 0.86847 0.356566
0.343432 0.863975 0.300257
0.370122 0.863543 0.357145
0.415403 0.868095 0.358191
0.415417 0.841321 0.300909
0.443455 0.863385 0.301999
0.470258 0.862975 0.358785
0.2628 0.768692 0.473043
0.292359 0.763946 0.419516
0.320302 0.762667 0.473957
0.315211 0.791631 0.418715
0.342333 0.767605 0.404335
0.368845 0.791394 0.407128
0.362667 0.768314 0.474666
0.392257 0.763446 0.421213
0.41508 0.791179 0.420099
0.420254 0.76226 0.4757
0.442384 0.767187 0.405868
0.462774 0.767757 0.476193
0.469009 0.790926 0.408808
0.492294 0.762814 0.422673
0.268948 0.791786 0.405533
0.270019 0.813392 0.47472
0.293065 0.818088 0.407114
0.314551 0.81908 0.475608
0.34303 0.814317 0.419547
0.36999 0.8129 0.476451
0.393048 0.817811 0.40863
0.414558 0.818663 0.477103
0.443031 0.813774 0.421173
0.470121 0.8125 0.478013
0.493099 0.81711 0.410375
0.265719 0.84211 0.419452
0.26466 0.869365 0.476267
0.293483 0.864401 0.42072
0.319672 0.84201 0.407612
0.320748 0.863106 0.477295
0.365722 0.841787 0.421358
0.343633 0.868147 0.408893
0.364741 0.869006 0.478173
0.393627 0.864053 0.422654
0.419732 0.841585 0.409209
0.443722 0.867681 0.410435
0.420955 0.862634 0.479148
0.465813 0.841272 0.423066
0.464852 0.868501 0.479848
0.493667 0.863505 0.424407
0.292626 0.769252 0.523123
0.342481 0.761419 0.545492
0.392568 0.768865 0.525204
0.442537 0.761108 0.547482
0.463008 0.791306 0.546618
0.492671 0.768248 0.52679
0.26296 0.79217 0.543105
0.320233 0.792117 0.527716
0.293223 0.812266 0.544001
0.362868 0.791798 0.544836
0.343425 0.819322 0.52926
0.393335 0.811754 0.545541
0.42034 0.791673 0.529313
0.443442 0.818811 0.530671
0.493419 0.811094 0.54745
0.270923 0.842527 0.528119
0.293976 0.869655 0.52928
0.313486 0.842247 0.546113
0.371063 0.842099 0.529868
0.343866 0.862028 0.547219
0.413446 0.84184 0.547872
0.394041 0.869348 0.530821
0.444044 0.861444 0.548984
0.471198 0.841596 0.531648
0.494038 0.868808 0.532554
0.270926 0.76232 0.601182
0.292574 0.761549 0.673596
0.312035 0.768942 0.602036
0.370764 0.761854 0.602952
0.34265 0.769112 0.651808
0.412007 0.76857 0.603551
0.39253 0.761245 0.675433
0.412976 0.791448 0.673837
0.442734 0.76861 0.653335
0.470825 0.761185 0.604577
0.492575 0.760592 0.677038
0.470311 0.791151 0.65782
0.270266 0.792133 0.654716
0.263862 0.819606 0.603343
0.312897 0.791888 0.672089
0.29323 0.819461 0.656372
0.320279 0.812596 0.604185
0.370314 0.791721 0.65635
0.364017 0.819188 0.604999
0.343173 0.811828 0.673472
0.393319 0.819051 0.658386
0.420198 0.812248 0.605852
0.443298 0.811239 0.675302
0.464005 0.818649 0.606742
0.493407 0.818468 0.660183
0.270886 0.862709 0.605022
0.263138 0.842267 0.673868
0.293649 0.86204 0.674781
0.3141 0.86942 0.605782
0.320864 0.84216 0.657281
0.371041 0.862351 0.606768
0.363318 0.84191 0.675362
0.343824 0.869394 0.658282
0.414166 0.868933 0.60753
0.393781 0.861577 0.67662
0.420998 0.841759 0.65868
0.443921 0.868832 0.660176
0.471229 0.861858 0.608571
0.463315 0.841325 0.677321
0.493793 0.860922 0.678667
0.262112 0.769322 0.729941
0.292683 0.769461 0.779804
0.320826 0.76201 0.730724
0.3619 0.768902 0.731711
0.392617 0.768959 0.781546
0.42082 0.761641 0.732146
0.420116 0.79148 0.7859
0.461938 0.768413 0.733064
0.492711 0.768408 0.783202
0.270162 0.812722 0.732019
0.320153 0.791936 0.784224
0.31382 0.819345 0.73274
0.37013 0.812254 0.733667
0.343218 0.819215 0.786653
0.414029 0.818845 0.734403
0.443256 0.818629 0.788478
0.470191 0.811521 0.73533
0.263989 0.869268 0.733909
0.270663 0.842158 0.785461
0.293647 0.869351 0.787001
0.320798 0.862373 0.73469
0.364093 0.868939 0.735569
0.370778 0.841762 0.787155
0.393774 0.868849 0.78825
0.420935 0.861916 0.736448
0.464111 0.868508 0.737411
0.4708 0.841159 0.788728
0.493807 0.868227 0.789942
0.271008 0.76235 0.858659
0.311961 0.769337 0.859911
0.342481 0.761544 0.803351
0.370712 0.761834 0.860261
0.362816 0.791585 0.802033
0.411926 0.768855 0.861508
0.4424 0.761095 0.804931
0.47079 0.761401 0.861945
0.462911 0.791066 0.803665
0.262975 0.792015 0.800245
0.263653 0.819313 0.861166
0.293056 0.811913 0.801113
0.319949 0.812237 0.861932
0.363671 0.81893 0.862573
0.39314 0.811478 0.802924
0.419967 0.811716 0.863761
0.463759 0.818491 0.864397
0.493192 0.810839 0.804276
0.270487 0.862273 0.863014
0.313314 0.841914 0.803478
0.31396 0.869023 0.863991
0.343628 0.861686 0.804596
0.370712 0.861786 0.864586
0.413342 0.841534 0.805114
0.413945 0.868584 0.865566
0.443654 0.861219 0.806331
0.470767 0.861313 0.866293
0.262974 0.769077 0.988508
0.29256 0.761436 0.93127
0.320345 0.762855 0.988998
0.362901 0.768699 0.990174
0.342579 0.769251 0.910628
0.370142 0.791559 0.914648
0.392489 0.761005 0.932726
0.412212 0.791294 0.931774
0.420133 0.762351 0.990532
0.442543 0.768756 0.912295
0.462901 0.768159 0.991897
0.470083 0.790975 0.915966
0.492577 0.760477 0.934301
0.269263 0.812978 0.99027
0.270179 0.791951 0.912739
0.314129 0.818446 0.991211
0.312322 0.791841 0.930289
0.292931 0.819529 0.915256
0.369422 0.81254 0.99208
0.342926 0.811286 0.931077
0.414073 0.817932 0.992807
0.393032 0.818999 0.916816
0.442866 0.8106 0.932709
0.469345 0.811975 0.993547
0.493013 0.818306 0.918484
0.264503 0.86824 0.99198
0.262656 0.841792 0.931373
0.320016 0.862507 0.992814
0.293363 0.861306 0.932605
0.320634 0.841764 0.915574
0.364492 0.867919 0.993909
0.362812 0.841465 0.933185
0.343535 0.868912 0.916949
0.393378 0.860887 0.934331
0.419869 0.862122 0.994604
0.42069 0.84129 0.91732
0.443561 0.868454 0.918541
0.493454 0.860309 0.936044
0.464598 0.867448 0.995577
0.462779 0.840958 0.934913
0.265676 0.891291 0.0576197
0.293765 0.913355 0.05867
0.319743 0.89113 0.0462053
0.365677 0.891083 0.0593147
0.393821 0.913105 0.0607537
0.41986 0.890768 0.0479928
0.465715 0.890683 0.0610879
0.493933 0.91261 0.0622927
0.27028 0.941174 0.0472749
0.316446 0.94121 0.0607845
0.343874 0.917314 0.0477113
0.370565 0.941044 0.0492139
0.41643 0.94088 0.0626972
0.443842 0.91682 0.0494496
0.470632 0.940455 0.0505766
0.268719 0.99153 0.0664017
0.294507 0.967374 0.0491354
0.323433 0.991451 0.0530573
0.3447 0.963352 0.063202
0.368807 0.991386 0.0680995
0.394617 0.967197 0.050782
0.423593 0.991119 0.0549393
0.444745 0.962971 0.0651155
0.468891 0.991027 0.0696356
0.494631 0.966738 0.0526311
0.269534 0.891463 0.167423
0.315875 0.891391 0.17967
0.320242 0.913155 0.115694
0.369715 0.891226 0.169084
0.343835 0.913677 0.18089
0.415995 0.891169 0.181468
0.420382 0.912774 0.117624
0.443934 0.91334 0.182469
0.469812 0.890741 0.170592
0.265642 0.917921 0.114987
0.266584 0.94145 0.18095
0.293876 0.917477 0.168669
0.320365 0.941282 0.169872
0.36582 0.917578 0.116834
0.366758 0.941266 0.182789
0.39394 0.917196 0.170346
0.420461 0.941059 0.171426
0.465839 0.917278 0.118287
0.466806 0.940911 0.18445
0.494027 0.916736 0.172016
0.273223 0.991547 0.17322
0.271292 0.962998 0.116798
0.318927 0.991528 0.187878
0.294649 0.963797 0.182853
0.316477 0.967892 0.117684
0.373475 0.991477 0.175363
0.344636 0.967264 0.171673
0.37165 0.963049 0.118882
0.394796 0.96367 0.185105
0.41648 0.967638 0.119434
0.419133 0.99126 0.189353
0.444706 0.966913 0.17336
0.47343 0.991006 0.176757
0.471634 0.962531 0.120388
0.494794 0.963189 0.186501
0.270182 0.913608 0.236044
0.265953 0.891811 0.299644
0.319832 0.891623 0.289078
0.370411 0.913349 0.237966
0.420036 0.891343 0.290645
0.470471 0.912923 0.239424
0.270258 0.941637 0.290005
0.315817 0.91805 0.237362
0.343907 0.917807 0.290498
0.370588 0.941511 0.291613
0.415857 0.917879 0.238804
0.444013 0.91742 0.291761
0.470731 0.941141 0.293238
0.26642 0.968069 0.237731
0.321455 0.963201 0.238929
0.323278 0.991642 0.295018
0.294582 0.967732 0.291495
0.366504 0.968036 0.23962
0.394721 0.967617 0.293384
0.421724 0.962995 0.240783
0.423425 0.991337 0.297043
0.466644 0.967637 0.241265
0.494772 0.967265 0.295007
0.293894 0.914003 0.30126
0.320508 0.91374 0.358156
0.365999 0.891634 0.301856
0.394053 0.913695 0.303146
0.420737 0.913386 0.359906
0.466071 0.891184 0.303456
0.493958 0.913359 0.304742
0.265763 0.918681 0.357231
0.316435 0.941756 0.303375
0.365925 0.918499 0.359074
0.41662 0.941447 0.305074
0.465827 0.918038 0.360726
0.268762 0.99176 0.307639
0.271476 0.963632 0.358915
0.316147 0.968667 0.359755
0.344715 0.96379 0.305181
0.368802 0.991591 0.309648
0.371782 0.963444 0.360871
0.41631 0.968348 0.36156
0.444832 0.963484 0.307121
0.468906 0.991201 0.311637
0.471781 0.962976 0.362676
0.269989 0.892056 0.408338
0.270951 0.913198 0.478122
0.316241 0.891999 0.422347
0.370164 0.891843 0.41034
0.344056 0.91448 0.423471
0.371345 0.912965 0.479888
0.41642 0.891542 0.424002
0.444168 0.913891 0.425455
0.47017 0.891355 0.41187
0.471408 0.912535 0.481602
0.266589 0.942107 0.423714
0.293994 0.918278 0.409829
0.320507 0.942015 0.411396
0.315179 0.919333 0.479012
0.366951 0.941878 0.425405
0.394253 0.917916 0.411483
0.415311 0.918949 0.480774
0.420836 0.941686 0.412879
0.46679 0.941522 0.427271
0.494147 0.917609 0.412866
0.265345 0.969937 0.479856
0.273123 0.99194 0.414623
0.2945 0.964574 0.426316
0.318429 0.991767 0.430758
0.322164 0.963222 0.480988
0.373426 0.991672 0.416669
0.34464 0.968165 0.412403
0.365643 0.96971 0.481696
0.394842 0.964165 0.428062
0.418517 0.991393 0.432616
0.444713 0.967945 0.414394
0.42244 0.962731 0.482906
0.47346 0.991332 0.418507
0.465679 0.969223 0.483623
0.494765 0.963809 0.42979
0.263825 0.892416 0.546654
0.294222 0.912087 0.54805
0.321541 0.892381 0.530256
0.364055 0.892163 0.548492
0.394477 0.911728 0.549711
0.421727 0.891932 0.532296
0.46399 0.891622 0.550276
0.49438 0.911235 0.551332
0.27194 0.942381 0.531144
0.31413 0.942283 0.549887
0.344473 0.919766 0.531982
0.372148 0.942159 0.532949
0.414269 0.94189 0.551883
0.44451 0.919306 0.53367
0.472276 0.941685 0.534815
0.266889 0.99218 0.559547
0.294647 0.970178 0.532232
0.325738 0.992034 0.540878
0.344729 0.961867 0.551518
0.3671 0.991892 0.561518
0.394856 0.969828 0.533884
0.425903 0.991641 0.542799
0.444756 0.96137 0.553574
0.467032 0.991439 0.563093
0.494792 0.96938 0.535802
0.271148 0.892346 0.658145
0.321483 0.912499 0.607571
0.313778 0.892117 0.676457
0.371364 0.891995 0.659926
0.344173 0.911713 0.677605
0.413869 0.891708 0.677953
0.421527 0.91212 0.609337
0.444245 0.911259 0.679548
0.471476 0.891465 0.661764
0.264468 0.919563 0.606773
0.264028 0.942256 0.677728
0.294206 0.919515 0.659707
0.321945 0.942175 0.660661
0.364767 0.919318 0.608552
0.364078 0.941979 0.679217
0.394325 0.919205 0.661581
0.422031 0.941732 0.662508
0.464765 0.918814 0.610432
0.464329 0.941472 0.68129
0.494375 0.918595 0.663165
0.272246 0.962604 0.608791
0.275348 0.992165 0.668667
0.294538 0.961848 0.679897
0.314773 0.969787 0.609464
0.317017 0.992033 0.689654
0.344674 0.969906 0.660684
0.372417 0.962392 0.610564
0.414863 0.969431 0.611461
0.375554 0.991971 0.670547
0.394591 0.961595 0.681662
0.444745 0.969362 0.662917
0.417125 0.991592 0.691555
0.475644 0.991411 0.672446
0.472587 0.961942 0.61233
0.494649 0.960939 0.683399
0.271071 0.912499 0.735508
0.321085 0.89191 0.787828
0.371336 0.912113 0.73742
0.421206 0.891525 0.78974
0.471386 0.911713 0.739231
0.27176 0.94206 0.789263
0.3145 0.919187 0.736607
0.344176 0.919022 0.789545
0.371856 0.941749 0.790895
0.414653 0.918817 0.738319
0.444182 0.918627 0.791277
0.471915 0.941277 0.792825
0.264736 0.969576 0.737655
0.322356 0.962294 0.738482
0.294478 0.969667 0.78916
0.325528 0.991952 0.798407
0.364746 0.969178 0.739148
0.394664 0.969257 0.790738
0.422364 0.961781 0.740036
0.464862 0.968854 0.741379
0.494628 0.96874 0.792386
0.263563 0.891999 0.804381
0.293936 0.911854 0.805236
0.321054 0.912014 0.865452
0.36381 0.891675 0.806069
0.394088 0.911372 0.807198
0.421238 0.911684 0.867316
0.46391 0.891238 0.80791
0.494146 0.910977 0.808832
0.264163 0.918883 0.86473
0.314161 0.941915 0.807207
0.364503 0.918638 0.8665
0.414127 0.941548 0.809277
0.46443 0.918231 0.868427
0.266865 0.992093 0.817872
0.272207 0.962227 0.866603
0.314863 0.969164 0.867264
0.344594 0.96156 0.809284
0.367072 0.991738 0.819245
0.372439 0.962006 0.868308
0.414865 0.968832 0.869221
0.425483 0.991583 0.800407
0.444522 0.96116 0.811058
0.467175 0.991356 0.821299
0.472341 0.961574 0.870198
0.270362 0.912587 0.993473
0.270906 0.891714 0.916464
0.313337 0.891621 0.934077
0.370564 0.912473 0.995391
0.371148 0.891368 0.918531
0.343949 0.9112 0.93514
0.413384 0.891207 0.935852
0.444019 0.910699 0.936997
0.470607 0.911926 0.997134
0.471162 0.890937 0.920088
0.263842 0.941753 0.935277
0.315131 0.917972 0.994694
0.293984 0.919046 0.917851
0.321852 0.941712 0.919269
0.364085 0.941562 0.93705
0.415105 0.917566 0.99649
0.394079 0.918661 0.919593
0.421948 0.941343 0.921543
0.464071 0.941095 0.938769
0.494121 0.918188 0.921437
0.265512 0.968011 0.995687
0.275611 0.992 0.927445
0.321722 0.962422 0.996481
0.29455 0.961373 0.937107
0.317368 0.991932 0.946223
0.365664 0.967853 0.997366
0.344718 0.969154 0.91961
0.375718 0.991738 0.928941
0.394655 0.961094 0.939099
0.421941 0.962177 0.998502
0.417436 0.99164 0.947933
0.444729 0.968823 0.921387
0.4658 0.967446 0.999228
0.475844 0.99133 0.930724
0.494601 0.960467 0.940843
0.524814 0.01777 0.00155409
0.518734 0.0409933 0.0695012
0.567058 0.0119171 0.00225056
0.545119 0.0170667 0.0716965
0.572308 0.0409596 0.0583081
0.594926 0.012969 0.0564818
0.624322 0.0175106 0.00317548
0.618505 0.0408273 0.0708081
0.644845 0.0169533 0.0732896
0.666426 0.011227 0.0035611
0.694409 0.0129484 0.0571526
0.672394 0.040757 0.0577072
0.724142 0.0156912 0.00367737
0.744168 0.0195167 0.0707171
0.517542 0.0625079 0.00100442
0.544596 0.0636905 0.0579118
0.573105 0.0682429 0.00196778
0.594413 0.067373 0.0708617
0.617304 0.062639 0.00287667
0.64442 0.0635697 0.0597077
0.673164 0.0688417 0.00379893
0.694369 0.0676423 0.072975
0.718339 0.0417993 0.0584966
0.717815 0.0703884 0.00312793
0.744479 0.0661244 0.0559701
0.522051 0.0912252 0.0573024
0.523207 0.11841 5.46086e-04
0.568071 0.091168 0.0709443
0.544176 0.117431 0.0700003
0.56701 0.112064 0.00150928
0.621711 0.0910689 0.0590849
0.594116 0.113484 0.0578904
0.622956 0.11784 0.00237321
0.64441 0.117001 0.0715283
0.668142 0.0907252 0.0741345
0.667432 0.110887 0.00324135
0.694305 0.112446 0.0585604
0.722242 0.0916382 0.0688179
0.723359 0.114207 0.00226437
0.744566 0.11963 0.0668285
0.51801 0.0126197 0.121952
0.522823 0.0408546 0.178745
0.54523 0.0129299 0.177067
0.573886 0.017276 0.122993
0.568809 0.0406723 0.191159
0.617601 0.012685 0.1236
0.622547 0.0407025 0.180575
0.595049 0.0169421 0.192644
0.644866 0.0129513 0.178214
0.673735 0.0180138 0.124399
0.694255 0.017607 0.195877
0.668453 0.0406944 0.193924
0.71685 0.0183245 0.124792
0.74384 0.0154907 0.177375
0.721744 0.0414718 0.189611
0.522658 0.0674285 0.122019
0.568178 0.0628866 0.12309
0.544748 0.0671 0.190257
0.594582 0.0630804 0.17984
0.622307 0.0671162 0.123737
0.644635 0.0668557 0.191607
0.668095 0.0618511 0.124232
0.69429 0.0628233 0.180349
0.722597 0.0650763 0.124532
0.744304 0.0694268 0.188944
0.517671 0.113057 0.121563
0.518418 0.0909869 0.189763
0.572409 0.0909554 0.179418
0.544455 0.113196 0.178515
0.572568 0.117622 0.122672
0.618334 0.0908331 0.191099
0.594413 0.117024 0.191498
0.617761 0.112924 0.123333
0.644519 0.112878 0.180012
0.672459 0.0906526 0.178922
0.672851 0.117815 0.124106
0.69436 0.117084 0.1936
0.718428 0.0914058 0.178399
0.717884 0.11951 0.123822
0.7444 0.115507 0.176206
0.524021 0.0174199 0.243193
0.568035 0.0125211 0.244152
0.623635 0.017213 0.244884
0.595127 0.0128366 0.299411
0.667178 0.0120959 0.245628
0.723125 0.0157389 0.246287
0.518522 0.0628365 0.243121
0.57274 0.0671835 0.24388
0.618271 0.0627635 0.244548
0.672595 0.0677806 0.245566
0.717777 0.0691407 0.245653
0.744078 0.0657109 0.298463
0.522732 0.117276 0.242749
0.567967 0.112498 0.243656
0.622707 0.117078 0.24439
0.667759 0.111598 0.245309
0.722595 0.114345 0.245286
0.518063 0.0126449 0.364438
0.518945 0.0407812 0.311112
0.545311 0.0171128 0.313102
0.574064 0.0175651 0.365599
0.572892 0.040657 0.300579
0.617572 0.0126698 0.366175
0.618795 0.0406809 0.312144
0.645066 0.0168975 0.31485
0.673836 0.0179836 0.367468
0.694401 0.0127756 0.300414
0.67278 0.0406276 0.300684
0.716171 0.0179165 0.368074
0.743747 0.0194404 0.313565
0.71782 0.0413782 0.301452
0.52304 0.0670905 0.364453
0.544896 0.063061 0.300394
0.568498 0.0623611 0.36509
0.594842 0.0669347 0.312252
0.622805 0.0669568 0.365953
0.644763 0.0628792 0.301913
0.667966 0.0615231 0.366792
0.694256 0.067446 0.315258
0.722374 0.0646321 0.367161
0.522462 0.0908587 0.300034
0.518228 0.11249 0.364199
0.568626 0.0906544 0.311845
0.54475 0.116839 0.311788
0.573009 0.117031 0.365077
0.622329 0.0906042 0.301631
0.594548 0.112854 0.300562
0.618009 0.112476 0.365652
0.644612 0.116622 0.313243
0.668256 0.0905259 0.315375
0.672751 0.117799 0.366879
0.694141 0.112529 0.301003
0.721738 0.0913241 0.311371
0.71713 0.119538 0.36623
0.744152 0.119304 0.309785
0.524685 0.0178758 0.486113
0.523178 0.0406376 0.421179
0.545315 0.0126838 0.419495
0.567389 0.0117879 0.487283
0.568771 0.0404883 0.434582
0.595103 0.0171905 0.43614
0.624367 0.0175652 0.488024
0.622973 0.0405177 0.423118
0.644965 0.0125026 0.42105
0.666496 0.011075 0.489562
0.694217 0.0177035 0.440198
0.668013 0.040404 0.437871
0.74372 0.014997 0.418994
0.723853 0.0147206 0.488806
0.721523 0.0412421 0.433427
0.518321 0.0619095 0.48554
0.545103 0.0669588 0.43317
0.573584 0.067339 0.486358
0.594919 0.0624754 0.422417
0.617961 0.0619862 0.487346
0.644849 0.0667994 0.43496
0.69412 0.0624396 0.422759
0.673228 0.0683084 0.489119
0.743805 0.0691945 0.432111
0.716324 0.0699319 0.488094
0.518646 0.0905921 0.433105
0.523705 0.117351 0.485251
0.572869 0.0904777 0.421674
0.544871 0.112641 0.421094
0.567917 0.111644 0.486308
0.618261 0.0904042 0.434185
0.594738 0.116791 0.434522
0.623415 0.116951 0.48704
0.64462 0.112312 0.422744
0.672596 0.0903334 0.421363
0.694045 0.117275 0.43745
0.667136 0.110772 0.48819
0.743815 0.115117 0.417761
0.717361 0.0912371 0.419238
0.722782 0.113555 0.487431
0.517505 0.0408383 0.562344
0.545019 0.018511 0.56554
0.575345 0.0407993 0.546672
0.594962 0.0102059 0.545058
0.617096 0.0407122 0.563117
0.644853 0.0183288 0.567575
0.694134 0.00997147 0.547453
0.674933 0.0405275 0.546968
0.743521 0.0217891 0.55971
0.715443 0.0410236 0.542175
0.544765 0.060354 0.546269
0.59454 0.06844 0.56279
0.644521 0.0602416 0.548718
0.693915 0.0689815 0.566864
0.743633 0.0639767 0.540176
0.52503 0.0908784 0.545301
0.567001 0.0908434 0.563187
0.544458 0.118342 0.562245
0.624903 0.0907284 0.547645
0.594444 0.110251 0.546038
0.666656 0.0906978 0.567743
0.64431 0.118006 0.564296
0.693741 0.109929 0.546624
0.7238 0.0911274 0.558203
0.743603 0.121466 0.556518
0.516748 0.0112268 0.615871
0.524744 0.0409696 0.675
0.544884 0.0106919 0.67278
0.575467 0.0183127 0.616725
0.567225 0.0408757 0.693516
0.616282 0.0116262 0.617575
0.624467 0.0408475 0.677817
0.594508 0.0183409 0.696462
0.644533 0.0108098 0.67464
0.675019 0.0190605 0.620873
0.666816 0.0409738 0.698492
0.714822 0.0181471 0.618986
0.743634 0.0135084 0.668361
0.723811 0.0410769 0.687326
0.524105 0.0682144 0.614714
0.567583 0.0610889 0.615715
0.544469 0.0684216 0.690984
0.594353 0.0607492 0.676248
0.623687 0.0678828 0.616795
0.644356 0.0682638 0.693297
0.667177 0.0598941 0.618057
0.693912 0.0601311 0.676156
0.723546 0.0635867 0.616968
0.743739 0.0717213 0.686038
0.517201 0.111208 0.614051
0.517031 0.0911007 0.690821
0.574584 0.0909696 0.674861
0.544346 0.11095 0.673893
0.574151 0.118135 0.615126
0.61691 0.111447 0.616242
0.616668 0.0909666 0.692227
0.594091 0.118344 0.692884
0.644233 0.110725 0.676466
0.674491 0.0906701 0.674552
0.673883 0.118889 0.618007
0.693881 0.118639 0.695731
0.715945 0.0911365 0.667319
0.716139 0.120884 0.615971
0.743755 0.113726 0.667279
0.525539 0.0180686 0.744645
0.566452 0.0110047 0.745808
0.625065 0.0176532 0.746259
0.665719 0.0102136 0.748157
0.693886 0.0188908 0.701138
0.724918 0.0145756 0.746837
0.715743 0.041325 0.798917
0.517433 0.0616933 0.743569
0.5737 0.0682756 0.744846
0.617151 0.0618696 0.745677
0.67371 0.0692715 0.747618
0.716516 0.070896 0.745429
0.743893 0.0644119 0.797973
0.523973 0.118309 0.742853
0.566929 0.111253 0.743917
0.623752 0.117927 0.745035
0.666842 0.110008 0.746325
0.7238 0.113519 0.744369
0.516584 0.0112525 0.873101
0.517199 0.0411357 0.82025
0.544743 0.0183332 0.82437
0.575309 0.0180396 0.874287
0.574454 0.0409245 0.804673
0.594714 0.0104652 0.802321
0.616256 0.0113236 0.874725
0.616997 0.0408872 0.821415
0.644578 0.0180732 0.826348
0.675011 0.01903 0.876733
0.694129 0.0106881 0.803682
0.674261 0.0407823 0.804144
0.715563 0.0195155 0.875593
0.743884 0.0220434 0.817442
0.523705 0.068387 0.87234
0.544329 0.0610611 0.803764
0.567198 0.0615631 0.87328
0.594059 0.0685496 0.82119
0.62325 0.0680303 0.874279
0.644228 0.0610701 0.806515
0.667229 0.060116 0.875521
0.693952 0.069033 0.824258
0.72372 0.0638942 0.874277
0.524363 0.0913339 0.802424
0.516818 0.111917 0.871521
0.566744 0.0913126 0.821013
0.544003 0.118671 0.820105
0.573676 0.118478 0.872831
0.624225 0.0911041 0.804941
0.593986 0.110976 0.80314
0.616587 0.111826 0.873753
0.644079 0.118303 0.822281
0.666731 0.0910476 0.826555
0.674051 0.11911 0.875105
0.693875 0.110234 0.803473
0.724027 0.0914388 0.81527
0.716707 0.12102 0.873113
0.744026 0.121622 0.813628
0.524569 0.041328 0.932433
0.544817 0.0108326 0.929885
0.56704 0.041261 0.949797
0.594538 0.0184289 0.952719
0.624315 0.0410442 0.934745
0.644475 0.0107112 0.931597
0.693897 0.0188849 0.955726
0.66694 0.0410758 0.954319
0.743809 0.0138274 0.926265
0.724316 0.0414693 0.944489
0.544155 0.0687732 0.948398
0.594098 0.0610756 0.93323
0.644118 0.0683521 0.95017
0.694054 0.060296 0.933893
0.744097 0.0720779 0.942996
0.516671 0.0916989 0.948029
0.574327 0.0913885 0.932016
0.543997 0.111272 0.931102
0.616691 0.0913028 0.9493
0.593809 0.118801 0.94957
0.644108 0.111019 0.933269
0.674482 0.0908409 0.931507
0.693987 0.118528 0.952017
0.716404 0.091292 0.925428
0.744143 0.113896 0.925518
0.517932 0.141357 0.068787
0.571706 0.141122 0.0573204
0.544018 0.163681 0.0568875
0.617954 0.140918 0.0703183
0.616979 0.162356 0.00207356
0.644198 0.163074 0.0588313
0.672018 0.140432 0.0569226
0.718306 0.141209 0.0549547
0.744647 0.165076 0.0537745
0.521505 0.191263 0.0561348
0.572755 0.16836 9.55037e-04
0.567736 0.191071 0.0696179
0.593965 0.167248 0.0702358
0.621503 0.190693 0.058185
0.673163 0.16834 0.0027558
0.69431 0.166996 0.0720349
0.668033 0.190303 0.0724426
0.717825 0.169964 0.00186226
0.72229 0.190982 0.0677393
0.517535 0.241211 0.0677226
0.543786 0.217332 0.0688856
0.57139 0.240843 0.0562148
0.566716 0.212056 2.62194e-04
0.593864 0.213217 0.0571323
0.622605 0.217734 0.00135689
0.617632 0.240594 0.0692723
0.644104 0.216737 0.0703653
0.667298 0.210577 0.00240806
0.694244 0.212054 0.0575562
0.671903 0.240062 0.0559569
0.723123 0.213702 0.0011868
0.744568 0.219043 0.0654095
0.71831 0.240802 0.0538756
0.522058 0.14107 0.177989
0.567623 0.162769 0.122231
0.56812 0.140794 0.190768
0.621973 0.140696 0.179977
0.594144 0.162999 0.17931
0.64438 0.166597 0.191113
0.667878 0.161559 0.123523
0.694329 0.162306 0.179304
0.668326 0.140406 0.193249
0.722038 0.141133 0.189411
0.72267 0.164089 0.123099
0.522262 0.16759 0.121123
0.518041 0.191037 0.188972
0.571783 0.190838 0.178553
0.544252 0.167135 0.189877
0.62215 0.167154 0.122891
0.617989 0.190491 0.190441
0.672247 0.190176 0.177732
0.744378 0.169066 0.18738
0.718244 0.190836 0.175974
0.517377 0.21293 0.120546
0.5217 0.240953 0.177128
0.544023 0.213176 0.177963
0.572089 0.217482 0.12172
0.567793 0.24068 0.189789
0.617488 0.212557 0.12225
0.621686 0.240396 0.178834
0.594097 0.216729 0.190204
0.644221 0.212566 0.179007
0.672511 0.217356 0.122947
0.694208 0.216661 0.192231
0.668057 0.240047 0.191853
0.717868 0.219005 0.122376
0.744307 0.21495 0.174974
0.721937 0.240659 0.188048
0.518021 0.162852 0.242336
0.544466 0.162932 0.299575
0.618035 0.162566 0.243905
0.672326 0.140334 0.299639
0.717933 0.141039 0.29779
0.744086 0.164979 0.296545
0.522062 0.190788 0.299114
0.572398 0.16731 0.243322
0.67266 0.167524 0.244547
0.717596 0.169202 0.244192
0.522235 0.217315 0.24202
0.567751 0.212509 0.242757
0.571856 0.24051 0.299179
0.622313 0.216704 0.24344
0.594261 0.212746 0.299842
0.667763 0.211367 0.243901
0.694104 0.212033 0.299811
0.672081 0.239975 0.298598
0.722432 0.213818 0.243741
0.717943 0.240683 0.296415
0.518476 0.140647 0.310531
0.572227 0.140631 0.300213
0.568168 0.162349 0.364507
0.618296 0.140506 0.312093
0.644475 0.162561 0.300872
0.66756 0.161434 0.365896
0.722189 0.163899 0.365485
0.52275 0.167119 0.363678
0.568254 0.190571 0.311165
0.594475 0.166721 0.311712
0.622702 0.166752 0.365296
0.621991 0.190373 0.300857
0.694043 0.166915 0.313871
0.668044 0.190148 0.313869
0.721855 0.190869 0.310056
0.517881 0.212555 0.363148
0.518016 0.24076 0.309902
0.544348 0.216814 0.310533
0.572575 0.216962 0.363868
0.617886 0.21224 0.364587
0.618007 0.240262 0.310791
0.644382 0.216311 0.31177
0.672633 0.21737 0.365452
0.717116 0.219201 0.364621
0.744078 0.21891 0.30826
0.522463 0.140621 0.420385
0.517892 0.161817 0.484545
0.568451 0.140392 0.433478
0.622475 0.140321 0.422648
0.594602 0.162442 0.421438
0.61772 0.161856 0.486466
0.644601 0.166605 0.434606
0.667717 0.140317 0.437026
0.693892 0.162213 0.421113
0.721292 0.141031 0.432682
0.518279 0.190559 0.432136
0.544702 0.166749 0.432612
0.573371 0.167206 0.485619
0.572373 0.190423 0.420621
0.617929 0.190228 0.433361
0.673249 0.16816 0.487851
0.672403 0.190197 0.4201
0.715974 0.170025 0.486508
0.743797 0.168766 0.430154
0.717302 0.190861 0.41721
0.523265 0.217399 0.48415
0.522231 0.240709 0.419308
0.544464 0.212737 0.419849
0.56764 0.211748 0.485014
0.568151 0.240399 0.432445
0.594425 0.21665 0.433151
0.623205 0.216894 0.486048
0.622244 0.240199 0.421199
0.644316 0.212136 0.421397
0.667058 0.210592 0.48687
0.693974 0.216904 0.435272
0.667535 0.239982 0.435528
0.721326 0.240629 0.431336
0.722612 0.21314 0.485767
0.74378 0.2146 0.416212
0.517054 0.140909 0.561208
0.574828 0.140752 0.545582
0.544334 0.160401 0.544784
0.616705 0.140627 0.56232
0.644297 0.160131 0.547142
0.674658 0.140509 0.545437
0.715669 0.140881 0.538323
0.743563 0.163429 0.538027
0.524664 0.190883 0.543875
0.566854 0.190746 0.561593
0.594273 0.168176 0.562325
0.62472 0.190615 0.546466
0.666586 0.190453 0.56654
0.693776 0.168562 0.56578
0.723917 0.190796 0.556722
0.516737 0.240944 0.560108
0.544194 0.218197 0.560772
0.57471 0.240668 0.544222
0.59415 0.210115 0.54498
0.61655 0.240589 0.560993
0.644152 0.217839 0.562982
0.693712 0.209514 0.54544
0.674572 0.240299 0.544357
0.743601 0.221154 0.554762
0.715538 0.240577 0.536846
0.52431 0.141084 0.673311
0.567069 0.1611 0.614303
0.566806 0.141012 0.691943
0.624333 0.140889 0.67633
0.594003 0.160763 0.67445
0.666563 0.140669 0.696688
0.666772 0.159826 0.616911
0.693791 0.159844 0.674843
0.724055 0.141115 0.686293
0.72331 0.163064 0.615166
0.523974 0.168156 0.613539
0.516582 0.191149 0.689759
0.544063 0.168368 0.690251
0.574114 0.190939 0.673494
0.623786 0.167754 0.615512
0.616616 0.190824 0.691323
0.644076 0.168066 0.693068
0.674318 0.190411 0.673386
0.743789 0.171394 0.684309
0.715974 0.190812 0.665757
0.516862 0.211205 0.612825
0.52408 0.241075 0.671902
0.543927 0.210842 0.672456
0.573789 0.217969 0.613979
0.566463 0.24093 0.690444
0.616759 0.211324 0.615071
0.62409 0.240671 0.67467
0.593886 0.218206 0.691418
0.644046 0.210636 0.675386
0.666515 0.240488 0.695446
0.673762 0.218658 0.616779
0.693801 0.218306 0.694141
0.716116 0.220481 0.614489
0.743734 0.213327 0.665964
0.723965 0.24072 0.684543
0.516858 0.161652 0.74207
0.61666 0.161594 0.744676
0.716271 0.141103 0.795142
0.743897 0.163757 0.795932
0.573511 0.168314 0.74347
0.673901 0.168781 0.746092
0.716453 0.170793 0.743949
0.523558 0.218311 0.741457
0.566566 0.211248 0.742681
0.623375 0.217815 0.743944
0.66686 0.209792 0.745222
0.723531 0.213089 0.74304
0.716103 0.240716 0.793734
0.516549 0.141382 0.818884
0.574125 0.141201 0.802746
0.543818 0.161068 0.80182
0.566657 0.161453 0.871986
0.616581 0.141069 0.820518
0.644009 0.160825 0.80477
0.674279 0.140666 0.802451
0.666955 0.159966 0.874473
0.72362 0.163303 0.872755
0.523307 0.168498 0.871025
0.523959 0.191372 0.801298
0.5664 0.191216 0.819816
0.593762 0.168491 0.820636
0.62316 0.168011 0.873299
0.623974 0.19097 0.804116
0.666644 0.190594 0.825024
0.693906 0.168472 0.823513
0.724094 0.190995 0.814112
0.516475 0.211821 0.870324
0.516351 0.241331 0.817841
0.543673 0.21868 0.818864
0.573213 0.218423 0.871424
0.573887 0.24106 0.801581
0.593694 0.210805 0.802284
0.616498 0.211567 0.872731
0.616416 0.240848 0.819895
0.643913 0.218074 0.820925
0.673846 0.218638 0.873885
0.693811 0.209838 0.802805
0.674259 0.240363 0.801406
0.716752 0.220658 0.871926
0.743963 0.221263 0.812157
0.523931 0.141625 0.931022
0.516846 0.162681 0.999856
0.566412 0.141399 0.949184
0.623925 0.141146 0.933578
0.593659 0.161026 0.931962
0.666661 0.140703 0.953253
0.693955 0.159788 0.932819
0.724588 0.14109 0.943242
0.516179 0.191651 0.946813
0.543633 0.168902 0.947477
0.57374 0.191249 0.930839
0.616311 0.191045 0.948511
0.643784 0.168334 0.949469
0.674257 0.190466 0.931076
0.744112 0.171659 0.941779
0.716483 0.190844 0.923889
0.52267 0.218361 0.999332
0.523596 0.241534 0.929406
0.543466 0.211232 0.930147
0.56605 0.241276 0.947663
0.593479 0.218637 0.948027
0.623794 0.240877 0.932181
0.643779 0.210668 0.932664
0.666558 0.240366 0.952078
0.693767 0.218023 0.950534
0.724515 0.240724 0.942027
0.744084 0.213404 0.924639
0.521318 0.291075 0.0547002
0.543695 0.263401 0.0555577
0.567373 0.290825 0.0686045
0.593625 0.26711 0.0692466
0.61661 0.261916 9.09166e-04
0.621204 0.290425 0.0567635
0.643984 0.262745 0.0575849
0.667937 0.290016 0.0709161
0.672943 0.267922 0.00150881
0.694235 0.266563 0.0709785
0.722357 0.290569 0.0665812
0.744696 0.264695 0.0523836
0.717879 0.26966 5.65756e-04
0.543679 0.317212 0.0676588
0.593632 0.31294 0.055742
0.643994 0.31638 0.0688506
0.667226 0.310387 0.00113787
0.694315 0.311724 0.0564932
0.74461 0.318742 0.0641734
0.517324 0.341159 0.066848
0.543697 0.363305 0.0542531
0.571302 0.340736 0.0549497
0.59369 0.36685 0.0675167
0.617569 0.340383 0.0678346
0.643985 0.362501 0.0561307
0.67183 0.339817 0.0545103
0.673009 0.36781 5.00803e-05
0.694222 0.366336 0.0696514
0.718336 0.340487 0.0525267
0.744605 0.364606 0.0513995
0.521984 0.267517 0.120011
0.517778 0.290896 0.187819
0.567279 0.262526 0.121085
0.543951 0.267055 0.189051
0.57167 0.290627 0.17727
0.593881 0.26269 0.177873
0.621893 0.266871 0.121619
0.617817 0.290243 0.189257
0.644137 0.266244 0.189838
0.667708 0.261277 0.122436
0.671997 0.28991 0.176787
0.694158 0.262009 0.178528
0.718327 0.290474 0.175058
0.722595 0.263742 0.12199
0.744354 0.268501 0.18627
0.517261 0.312826 0.11929
0.543889 0.31296 0.17649
0.571961 0.31735 0.120273
0.593995 0.316613 0.18884
0.617445 0.312331 0.120834
0.644116 0.312142 0.177747
0.672438 0.317081 0.121392
0.694071 0.316165 0.19064
0.717923 0.318592 0.121196
0.744273 0.314679 0.173719
0.521685 0.340899 0.175752
0.521918 0.367582 0.118486
0.56733 0.362499 0.119447
0.543952 0.366898 0.187213
0.567752 0.340571 0.18806
0.593882 0.362587 0.176551
0.621723 0.340145 0.177297
0.62191 0.366764 0.120258
0.644139 0.366154 0.188405
0.66768 0.361081 0.120796
0.694042 0.361719 0.176712
0.667943 0.339732 0.19036
0.721726 0.340372 0.186868
0.722541 0.363534 0.120523
0.744191 0.368179 0.18486
0.517649 0.262795 0.241239
0.521766 0.290779 0.297672
0.572251 0.267076 0.242184
0.544164 0.262997 0.298375
0.617714 0.262364 0.242707
0.621778 0.29017 0.299427
0.644174 0.262201 0.299616
0.67233 0.267099 0.243234
0.717597 0.268773 0.24311
0.744078 0.264593 0.295323
0.522117 0.317201 0.240541
0.567604 0.312399 0.241433
0.622201 0.316485 0.241951
0.594176 0.312607 0.298401
0.667655 0.31111 0.242642
0.693936 0.311659 0.298594
0.722327 0.313623 0.24261
0.517502 0.362745 0.239732
0.572215 0.366934 0.240652
0.54415 0.362798 0.296972
0.571904 0.340433 0.297828
0.617641 0.36224 0.241109
0.644149 0.362016 0.298014
0.672397 0.366805 0.241789
0.672004 0.339783 0.296934
0.71752 0.36859 0.241614
0.717835 0.340391 0.294744
0.744024 0.364437 0.293832
0.522454 0.267143 0.362428
0.567858 0.262318 0.363192
0.568165 0.2905 0.310016
0.594258 0.266555 0.310534
0.622456 0.266569 0.36396
0.667384 0.261096 0.364711
0.667897 0.28982 0.312465
0.693973 0.266556 0.312872
0.722184 0.263519 0.364219
0.72177 0.290608 0.308957
0.517768 0.312567 0.3616
0.544242 0.316698 0.309223
0.5725 0.316917 0.362664
0.617763 0.312243 0.363163
0.644234 0.316064 0.310226
0.672404 0.317122 0.364103
0.717062 0.319011 0.363291
0.744049 0.318617 0.306997
0.518043 0.340625 0.308291
0.522409 0.3671 0.361057
0.567801 0.362107 0.361873
0.594185 0.366384 0.309105
0.617986 0.340122 0.30929
0.622509 0.366368 0.362358
0.667427 0.361041 0.363017
0.693965 0.366271 0.311334
0.722065 0.363238 0.362765
0.517598 0.262012 0.483506
0.518185 0.29058 0.430376
0.544493 0.266813 0.431684
0.573208 0.267208 0.484465
0.572286 0.290415 0.419326
0.594283 0.262395 0.420036
0.617402 0.261729 0.485096
0.617937 0.290167 0.43171
0.644316 0.266401 0.433245
0.693824 0.261761 0.419885
0.672304 0.289774 0.418754
0.673197 0.267793 0.486332
0.71737 0.290493 0.415856
0.715959 0.269626 0.484996
0.743762 0.26844 0.428779
0.523086 0.317314 0.482968
0.567489 0.311484 0.48376
0.544379 0.312619 0.41867
0.594421 0.316652 0.431804
0.623062 0.316847 0.484429
0.644299 0.311984 0.420254
0.667072 0.310394 0.485372
0.693903 0.316683 0.434067
0.722548 0.312808 0.484409
0.743714 0.314421 0.414783
0.522079 0.340578 0.418112
0.517522 0.361795 0.482258
0.568016 0.340328 0.431347
0.544388 0.366716 0.430255
0.573161 0.367156 0.483119
0.594338 0.362257 0.41878
0.622302 0.340055 0.419731
0.617477 0.361544 0.483775
0.644438 0.366369 0.431789
0.667617 0.339858 0.433727
0.673125 0.367563 0.484914
0.693804 0.361723 0.418338
0.743609 0.368346 0.427448
0.72126 0.340429 0.430176
0.715839 0.369386 0.483757
0.524575 0.290795 0.542701
0.544138 0.260338 0.543371
0.566744 0.290626 0.560444
0.59409 0.268043 0.561326
0.62452 0.290409 0.544944
0.644144 0.259962 0.545375
0.666466 0.290281 0.564957
0.693629 0.268299 0.564076
0.743461 0.263039 0.536622
0.723898 0.290534 0.555082
0.544077 0.318185 0.559635
0.594083 0.310114 0.54354
0.644082 0.317771 0.561256
0.693651 0.309348 0.544096
0.743501 0.320913 0.553334
0.516716 0.340832 0.558792
0.544098 0.360313 0.542006
0.574538 0.340622 0.543028
0.594062 0.367977 0.559849
0.616416 0.340434 0.559953
0.644104 0.359767 0.544181
0.674593 0.340102 0.542897
0.693664 0.368036 0.563029
0.715547 0.340314 0.535809
0.743429 0.362936 0.534999
0.523916 0.268119 0.612214
0.516605 0.291134 0.688402
0.566832 0.26093 0.61312
0.574034 0.290856 0.672279
0.543872 0.268344 0.689375
0.593858 0.260481 0.673048
0.623717 0.267514 0.614148
0.616466 0.290569 0.689708
0.643932 0.267805 0.691697
0.666568 0.259658 0.61554
0.693662 0.259593 0.673232
0.674204 0.290182 0.672073
0.723239 0.262843 0.613843
0.715933 0.290532 0.66444
0.743738 0.271009 0.682809
0.516896 0.311182 0.611722
0.54387 0.31085 0.671377
0.573729 0.317928 0.612547
0.593812 0.318135 0.689784
0.616702 0.311118 0.613659
0.643991 0.310316 0.674136
0.673701 0.318417 0.615272
0.693723 0.318054 0.692874
0.71606 0.320329 0.613238
0.743682 0.312996 0.664555
0.523759 0.368151 0.610851
0.524029 0.341073 0.670593
0.566819 0.360891 0.611845
0.566421 0.340853 0.689118
0.543886 0.368389 0.688194
0.593868 0.360505 0.671699
0.623992 0.340546 0.673442
0.623686 0.367476 0.612867
0.666586 0.359546 0.614156
0.643873 0.367701 0.690476
0.666437 0.340315 0.694131
0.693706 0.359369 0.67229
0.72328 0.362552 0.612369
0.724118 0.34044 0.683359
0.743716 0.370951 0.681451
0.516631 0.261628 0.741048
0.523894 0.2913 0.799861
0.57352 0.268179 0.742207
0.616475 0.26139 0.743411
0.673798 0.268557 0.744816
0.716352 0.27046 0.742366
0.743864 0.26327 0.794517
0.523555 0.318334 0.740443
0.56658 0.311185 0.741449
0.623295 0.31753 0.742575
0.666653 0.309604 0.743931
0.723545 0.312813 0.741744
0.516596 0.36147 0.739954
0.573548 0.367995 0.74095
0.543735 0.361046 0.799453
0.616519 0.361306 0.742067
0.673771 0.36846 0.74351
0.716443 0.37024 0.741317
0.716133 0.340426 0.792535
0.743839 0.363111 0.793143
0.523209 0.268578 0.86975
0.543677 0.260923 0.800758
0.566272 0.291105 0.81887
0.566445 0.26137 0.870852
0.593574 0.268359 0.819619
0.623894 0.29065 0.802701
0.62315 0.267708 0.872301
0.643861 0.260566 0.803718
0.666524 0.290339 0.8237
0.66682 0.259757 0.873528
0.693736 0.268143 0.822352
0.724128 0.290513 0.812241
0.723564 0.262906 0.871517
0.516325 0.311785 0.869125
0.543648 0.318643 0.817376
0.573175 0.318268 0.870353
0.593652 0.31056 0.801172
0.616414 0.31134 0.871478
0.643774 0.317811 0.8196
0.67369 0.318403 0.872699
0.693743 0.309573 0.801504
0.716716 0.320266 0.870641
0.743946 0.320978 0.810886
0.516281 0.341341 0.816536
0.523132 0.368509 0.868382
0.566338 0.361181 0.869536
0.57391 0.340922 0.800237
0.59361 0.368118 0.818309
0.616255 0.340643 0.818094
0.623175 0.367623 0.870664
0.643893 0.360293 0.802292
0.674215 0.340067 0.800357
0.666855 0.359526 0.872054
0.693736 0.36781 0.82112
0.72361 0.362723 0.870258
0.516519 0.262419 0.998698
0.516005 0.291569 0.945554
0.543291 0.268773 0.946443
0.573611 0.291106 0.929609
0.572524 0.268112 0.999823
0.593451 0.260833 0.930635
0.616147 0.290854 0.947176
0.643602 0.267991 0.948664
0.693846 0.259512 0.931926
0.674075 0.290197 0.929591
0.716438 0.290527 0.92256
0.744109 0.27119 0.940137
0.522461 0.318298 0.998051
0.566537 0.311898 0.9991
0.543438 0.311127 0.92914
0.593363 0.318442 0.947176
0.622428 0.317493 0.999973
0.64363 0.310498 0.931502
0.693721 0.317704 0.949308
0.744069 0.313061 0.922928
0.7232 0.31339 0.99985
0.516435 0.362333 0.99744
0.523615 0.34143 0.928128
0.572431 0.368036 0.99835
0.56601 0.341198 0.946521
0.543305 0.36871 0.945332
0.616654 0.361867 0.999358
0.593433 0.360694 0.929235
0.623599 0.34072 0.930572
0.643618 0.367831 0.947007
0.66645 0.34011 0.950592
0.693789 0.359252 0.930436
0.717777 0.36928 0.999352
0.724556 0.340406 0.940553
0.744024 0.370885 0.939152
0.521315 0.39114 0.0534365
0.567442 0.390772 0.0673264
0.593757 0.412828 0.0542674
0.621425 0.390319 0.0554082
0.644005 0.416376 0.0676706
0.667884 0.389815 0.069568
0.694192 0.411567 0.0547579
0.722285 0.390391 0.0650768
0.51742 0.441155 0.064966
0.543678 0.417223 0.0662096
0.571364 0.440663 0.053294
0.617554 0.440458 0.0663218
0.671881 0.439726 0.0530405
0.718114 0.440435 0.050931
0.744434 0.41861 0.0630705
0.521261 0.491075 0.0517853
0.543805 0.46332 0.0525927
0.567427 0.490834 0.0653647
0.593615 0.466973 0.0664207
0.62133 0.49046 0.053897
0.643959 0.462654 0.0544456
0.667941 0.489902 0.0684365
0.694096 0.466262 0.0686573
0.722168 0.490536 0.0639022
0.74439 0.46453 0.0496432
0.517151 0.412903 0.117839
0.517703 0.39089 0.186416
0.543897 0.41291 0.174948
0.571752 0.390579 0.175863
0.617819 0.390218 0.187468
0.617496 0.412326 0.119389
0.593983 0.416553 0.187287
0.644062 0.412241 0.176338
0.672057 0.389725 0.175169
0.694073 0.416078 0.189541
0.718188 0.390282 0.173507
0.7442 0.414646 0.171644
0.52162 0.440911 0.174158
0.56778 0.440576 0.186605
0.57205 0.417256 0.118724
0.62163 0.440159 0.175762
0.672411 0.416919 0.120185
0.66801 0.439634 0.188982
0.71767 0.418609 0.119628
0.721734 0.440348 0.185136
0.521914 0.467599 0.117062
0.517645 0.490909 0.184874
0.56728 0.462528 0.117906
0.543842 0.466955 0.185636
0.571577 0.490584 0.173982
0.59386 0.462732 0.174991
0.62192 0.466718 0.11875
0.617811 0.490237 0.185887
0.644157 0.466128 0.186902
0.667603 0.460999 0.119427
0.671934 0.48981 0.173613
0.694067 0.461778 0.175235
0.71822 0.490454 0.171858
0.72253 0.463537 0.119199
0.744159 0.468348 0.183416
0.52167 0.39072 0.296326
0.567593 0.412371 0.239721
0.622106 0.416446 0.240532
0.59407 0.412616 0.296937
0.621785 0.390079 0.297872
0.667559 0.410902 0.240978
0.693909 0.41167 0.296737
0.722402 0.413441 0.240815
0.522162 0.41723 0.23903
0.57182 0.440396 0.296155
0.671974 0.439658 0.295233
0.717724 0.440322 0.293236
0.517492 0.462709 0.238241
0.521832 0.490714 0.295047
0.572124 0.466983 0.239018
0.544082 0.462829 0.295458
0.617657 0.462213 0.239586
0.621759 0.490114 0.296285
0.644101 0.462049 0.296476
0.672252 0.466846 0.240358
0.717325 0.468552 0.239957
0.743794 0.464432 0.292289
0.517831 0.412606 0.360227
0.568028 0.390362 0.308588
0.544144 0.416652 0.307635
0.617775 0.41215 0.361673
0.644222 0.415996 0.308867
0.667905 0.389662 0.310729
0.721688 0.390365 0.30722
0.517957 0.440751 0.306722
0.572421 0.41682 0.361068
0.617888 0.440051 0.307913
0.672527 0.416904 0.362387
0.743948 0.418513 0.305526
0.716977 0.418791 0.361803
0.522359 0.467174 0.359536
0.567713 0.462227 0.360201
0.568083 0.490442 0.306919
0.594159 0.466377 0.307527
0.622418 0.466393 0.360871
0.667881 0.489642 0.309197
0.667339 0.460829 0.361349
0.69394 0.466034 0.309988
0.721633 0.490322 0.305904
0.722024 0.463221 0.361322
0.518123 0.390401 0.429401
0.544366 0.412461 0.417308
0.567567 0.411479 0.48241
0.572253 0.390277 0.418123
0.617989 0.390013 0.43024
0.594389 0.416483 0.43004
0.623027 0.416625 0.483077
0.644325 0.411897 0.41846
0.672316 0.389736 0.41749
0.666968 0.410349 0.484079
0.69389 0.416527 0.432941
0.717241 0.390426 0.414413
0.722455 0.412733 0.483066
0.743627 0.4142 0.413164
0.522148 0.440569 0.41664
0.523124 0.41723 0.481451
0.56808 0.440263 0.429967
0.622236 0.440019 0.418307
0.667568 0.43972 0.432414
0.721242 0.440286 0.428492
0.517472 0.461902 0.480665
0.517998 0.490505 0.427824
0.54445 0.466721 0.429131
0.573194 0.467114 0.481684
0.572263 0.49032 0.416423
0.594296 0.462256 0.417003
0.617851 0.490055 0.428986
0.617371 0.461618 0.482161
0.644312 0.466142 0.430283
0.673073 0.467489 0.483356
0.672167 0.489708 0.415947
0.693662 0.461625 0.416651
0.715711 0.469303 0.482117
0.717183 0.490392 0.413018
0.743604 0.468325 0.425978
0.524508 0.390845 0.541424
0.566672 0.39066 0.559018
0.594074 0.409994 0.542214
0.624513 0.390393 0.543669
0.666445 0.390133 0.563343
0.693582 0.409321 0.542585
0.723788 0.390424 0.553963
0.516658 0.440863 0.557322
0.544091 0.418186 0.558293
0.574456 0.440639 0.541355
0.616334 0.440446 0.558269
0.644055 0.417613 0.559908
0.674425 0.440042 0.541484
0.715468 0.440279 0.534194
0.743435 0.420896 0.55227
0.524523 0.490913 0.540032
0.544046 0.460445 0.540638
0.566617 0.490753 0.557652
0.594017 0.468024 0.558693
0.624477 0.490409 0.542221
0.644054 0.459803 0.542653
0.666375 0.490081 0.56181
0.693533 0.46802 0.561655
0.743262 0.462912 0.533793
0.723544 0.490318 0.552291
0.516792 0.411199 0.61033
0.516541 0.391124 0.687074
0.543878 0.410926 0.670053
0.574021 0.390774 0.670772
0.616748 0.411077 0.612247
0.616417 0.390544 0.688509
0.643923 0.410316 0.672858
0.674198 0.39007 0.670707
0.715875 0.390353 0.663124
0.743616 0.413061 0.663252
0.523954 0.441068 0.669407
0.573758 0.417887 0.611091
0.566522 0.440922 0.687405
0.62406 0.440574 0.671958
0.59384 0.418045 0.688364
0.666463 0.440242 0.692711
0.673622 0.418259 0.613984
0.693709 0.41788 0.691502
0.715904 0.420211 0.611802
0.723854 0.440414 0.682262
0.523782 0.468152 0.609581
0.516515 0.491122 0.686151
0.566747 0.460943 0.610331
0.573995 0.490893 0.669323
0.543853 0.468312 0.686629
0.593838 0.460621 0.669962
0.623653 0.467424 0.611342
0.616374 0.490587 0.686923
0.643917 0.467713 0.688961
0.666474 0.459408 0.612855
0.674109 0.490048 0.669354
0.693564 0.459504 0.670673
0.715771 0.490428 0.661674
0.723096 0.462655 0.611123
0.743464 0.470851 0.680098
0.523807 0.39126 0.798539
0.566648 0.411083 0.739967
0.593632 0.410543 0.799575
0.66677 0.409523 0.742508
0.723487 0.412689 0.740676
0.523352 0.418335 0.739066
0.573983 0.44088 0.798343
0.623354 0.417615 0.74131
0.674123 0.44007 0.799035
0.716018 0.440366 0.791533
0.516624 0.461467 0.738414
0.523968 0.49124 0.797272
0.573576 0.468055 0.739288
0.543675 0.460876 0.797929
0.616477 0.46132 0.740691
0.623815 0.490725 0.799883
0.673766 0.46838 0.742392
0.716229 0.470193 0.740172
0.743666 0.46311 0.792084
0.516306 0.411676 0.867993
0.566283 0.391 0.817363
0.62382 0.39057 0.801139
0.616407 0.411369 0.8698
0.666491 0.390245 0.822373
0.69373 0.409426 0.800431
0.723949 0.390465 0.811562
0.516262 0.441276 0.815289
0.543662 0.418473 0.816184
0.573273 0.418162 0.868917
0.616299 0.440763 0.816645
0.643738 0.417714 0.818488
0.673665 0.418302 0.871343
0.716577 0.420103 0.86973
0.743816 0.420813 0.809748
0.523232 0.468477 0.86706
0.56625 0.491057 0.815623
0.566375 0.461203 0.867866
0.593541 0.468206 0.816719
0.623074 0.467704 0.869232
0.643832 0.460435 0.800973
0.666423 0.490246 0.82113
0.666794 0.459508 0.870769
0.693682 0.4679 0.819958
0.723405 0.462731 0.869036
0.723863 0.490556 0.810123
0.51594 0.391503 0.944409
0.566579 0.411875 0.997894
0.543464 0.411014 0.927687
0.573645 0.391043 0.928191
0.616151 0.39081 0.945743
0.643665 0.410293 0.9299
0.674063 0.390034 0.928334
0.667155 0.410226 0.999622
0.723228 0.413315 0.998562
0.716476 0.390239 0.921853
0.743942 0.41311 0.921817
0.522525 0.41825 0.996602
0.523591 0.441389 0.9267
0.566067 0.441161 0.944763
0.622607 0.417415 0.998575
0.593357 0.41827 0.945603
0.623556 0.4407 0.929313
0.666433 0.440131 0.94931
0.693625 0.417703 0.948152
0.724248 0.440424 0.939485
0.516512 0.462313 0.995771
0.515993 0.491522 0.942682
0.572511 0.468015 0.996824
0.543415 0.468703 0.943689
0.573702 0.491101 0.926739
0.616516 0.461911 0.998043
0.593392 0.460704 0.927683
0.616164 0.49084 0.944331
0.643542 0.467726 0.94565
0.672978 0.467875 0.998748
0.673975 0.490185 0.92691
0.693643 0.459345 0.929088
0.743903 0.471038 0.937929
0.717525 0.469459 0.998053
0.716331 0.490463 0.920591
0.517377 0.541146 0.0636388
0.543541 0.517136 0.0644903
0.571174 0.540799 0.0520517
0.593691 0.512992 0.0528062
0.617574 0.540548 0.0649588
0.644061 0.516409 0.0659951
0.694186 0.511711 0.0534035
0.671862 0.539869 0.0519277
0.744439 0.518849 0.0618469
0.718284 0.540712 0.050253
0.543617 0.563488 0.051267
0.593578 0.567102 0.0649405
0.643982 0.562722 0.0531907
0.694086 0.566552 0.0670651
0.744594 0.564719 0.0486855
0.521027 0.591115 0.0506583
0.567419 0.591017 0.0642649
0.543455 0.617289 0.0634566
0.621198 0.590561 0.052845
0.593573 0.613199 0.0518707
0.643987 0.616646 0.0651618
0.667976 0.59012 0.0672622
0.694162 0.612024 0.0523573
0.722192 0.590635 0.0622871
0.744612 0.618753 0.060716
0.517132 0.512813 0.116288
0.521612 0.540955 0.172727
0.543785 0.513031 0.17372
0.571798 0.51731 0.117219
0.567725 0.540606 0.185111
0.593955 0.516628 0.185666
0.617445 0.512437 0.117815
0.621679 0.540279 0.174491
0.644048 0.512325 0.174636
0.672477 0.517109 0.1187
0.694048 0.516068 0.188126
0.667994 0.539757 0.187498
0.717701 0.518723 0.118424
0.744227 0.514677 0.170496
0.72169 0.540391 0.183896
0.521793 0.567498 0.11565
0.567226 0.562686 0.116468
0.543851 0.567042 0.184471
0.593888 0.562735 0.173737
0.621944 0.566834 0.117467
0.644121 0.566106 0.185832
0.667605 0.561224 0.1182
0.694062 0.561876 0.174041
0.722581 0.563777 0.117946
0.744229 0.568397 0.182059
0.51757 0.590883 0.183398
0.516996 0.612829 0.115188
0.57163 0.590691 0.172807
0.571823 0.617458 0.11625
0.543696 0.613116 0.172322
0.617952 0.590327 0.184571
0.593962 0.616693 0.184847
0.617432 0.612528 0.116898
0.644111 0.612468 0.173607
0.671937 0.589865 0.172695
0.672544 0.617225 0.117756
0.694127 0.61614 0.187045
0.718329 0.590529 0.171189
0.717928 0.618571 0.11733
0.744458 0.614891 0.169737
0.521945 0.517225 0.237586
0.567594 0.512395 0.238225
0.57179 0.540461 0.29461
0.62211 0.516556 0.238851
0.594147 0.512558 0.295311
0.667461 0.511086 0.239644
0.693908 0.511619 0.295349
0.671995 0.539751 0.294287
0.722369 0.51358 0.239606
0.717881 0.540395 0.292407
0.517439 0.562775 0.236746
0.572077 0.566947 0.237755
0.544044 0.562936 0.293986
0.617695 0.562434 0.238439
0.644228 0.562209 0.295193
0.672423 0.566815 0.23903
0.717511 0.56849 0.238866
0.744082 0.564647 0.291024
0.521606 0.617184 0.236223
0.521594 0.590721 0.293149
0.567542 0.612299 0.237076
0.622178 0.616531 0.237733
0.621914 0.590195 0.29524
0.594127 0.612698 0.294076
0.667519 0.611267 0.238581
0.694066 0.611921 0.294263
0.722495 0.613839 0.238522
0.51777 0.512593 0.3587
0.517944 0.540766 0.305242
0.544186 0.516735 0.305977
0.57245 0.516942 0.359512
0.617745 0.512182 0.360232
0.618025 0.540131 0.306502
0.64419 0.516082 0.307297
0.67245 0.51694 0.36092
0.716908 0.518733 0.360356
0.743918 0.51843 0.304329
0.522211 0.567165 0.35812
0.567664 0.562131 0.358857
0.594156 0.566516 0.306422
0.62246 0.566387 0.359678
0.667345 0.56107 0.360498
0.693966 0.566309 0.308646
0.722133 0.563414 0.360079
0.517531 0.612424 0.357421
0.568011 0.590473 0.305621
0.543918 0.616574 0.304416
0.572195 0.616931 0.358268
0.617759 0.612241 0.358923
0.644203 0.616197 0.306176
0.66796 0.589769 0.307838
0.672396 0.616946 0.359776
0.721693 0.590482 0.304458
0.717109 0.618878 0.359287
0.744116 0.618664 0.303198
0.52299 0.517342 0.479938
0.522064 0.540643 0.41501
0.544334 0.512622 0.415652
0.567536 0.511607 0.480849
0.568115 0.540365 0.428256
0.594333 0.516532 0.428777
0.62311 0.516764 0.481533
0.622267 0.540129 0.416942
0.644246 0.511883 0.41717
0.666911 0.510381 0.482563
0.693743 0.516477 0.431122
0.667454 0.539795 0.431038
0.722485 0.512757 0.481593
0.74352 0.51432 0.411912
0.721155 0.540395 0.426853
0.517457 0.561937 0.479315
0.544377 0.566798 0.427477
0.573206 0.567187 0.4801
0.594279 0.562324 0.415563
0.61733 0.561715 0.480773
0.644406 0.566331 0.429213
0.673188 0.567664 0.4823
0.693772 0.56176 0.415468
0.715727 0.569413 0.480882
0.743574 0.568391 0.425044
0.517837 0.590476 0.426705
0.522607 0.617171 0.478583
0.572297 0.590364 0.415012
0.544095 0.612429 0.414548
0.567472 0.611488 0.479488
0.617914 0.590108 0.427421
0.594308 0.616648 0.42757
0.622909 0.616803 0.4802
0.644272 0.612071 0.41595
0.672152 0.589859 0.41503
0.666984 0.610561 0.481439
0.693832 0.616704 0.429987
0.717247 0.590521 0.411907
0.722521 0.613136 0.480496
0.743677 0.614513 0.410699
0.516627 0.540885 0.555869
0.544031 0.51826 0.556646
0.574563 0.540695 0.540071
0.594052 0.510097 0.540821
0.616401 0.540464 0.556817
0.644025 0.517683 0.558468
0.69351 0.509277 0.541105
0.674415 0.540171 0.540232
0.743312 0.520801 0.550886
0.715422 0.540283 0.532989
0.544091 0.560331 0.539076
0.594012 0.568155 0.557275
0.64398 0.559995 0.54162
0.693578 0.568226 0.560292
0.743244 0.563045 0.532091
0.524268 0.590909 0.538725
0.56655 0.590741 0.556484
0.543702 0.618095 0.555361
0.624313 0.590515 0.54098
0.593856 0.610211 0.539703
0.666362 0.59026 0.56073
0.643877 0.617757 0.557156
0.69348 0.609598 0.540104
0.72355 0.590495 0.551034
0.743422 0.620977 0.549614
0.516674 0.511248 0.608944
0.52395 0.541157 0.667887
0.54384 0.510904 0.668597
0.57366 0.518046 0.609875
0.566485 0.541003 0.686443
0.593844 0.518124 0.686876
0.616603 0.511157 0.610772
0.623963 0.540641 0.670612
0.643956 0.510307 0.671317
0.666373 0.540292 0.691265
0.673671 0.518298 0.612542
0.693658 0.51797 0.690144
0.715851 0.520179 0.610342
0.743474 0.513086 0.661548
0.723918 0.540527 0.68051
0.523582 0.568084 0.607943
0.566717 0.561003 0.608967
0.54374 0.568445 0.685238
0.593794 0.560588 0.668885
0.623563 0.567505 0.610109
0.643837 0.567698 0.687699
0.666518 0.559672 0.61154
0.693586 0.559548 0.669391
0.723285 0.56279 0.609724
0.743529 0.571129 0.678816
0.516236 0.591116 0.684611
0.5165 0.611243 0.607585
0.573886 0.590827 0.668251
0.543587 0.610844 0.667387
0.573436 0.617981 0.608592
0.593566 0.61814 0.685657
0.616577 0.611228 0.609527
0.616398 0.590711 0.685579
0.643787 0.6106 0.670182
0.67399 0.590205 0.668217
0.673509 0.618482 0.611369
0.693629 0.618207 0.688716
0.71585 0.590577 0.660579
0.715954 0.620452 0.609327
0.743507 0.613474 0.660252
0.523541 0.518451 0.737695
0.566628 0.51124 0.738481
0.573826 0.541052 0.797402
0.62328 0.517565 0.739828
0.59361 0.510706 0.798336
0.666667 0.509495 0.741331
0.693618 0.50948 0.798761
0.674138 0.540231 0.797531
0.723412 0.512779 0.738956
0.715941 0.540508 0.790021
0.516472 0.561611 0.737037
0.573513 0.568223 0.738174
0.54354 0.561084 0.796654
0.616364 0.561406 0.739492
0.643852 0.560653 0.799491
0.673793 0.568485 0.740875
0.716171 0.570404 0.738739
0.743667 0.563366 0.790424
0.52298 0.618241 0.736474
0.523638 0.591305 0.796051
0.566435 0.611255 0.737527
0.62309 0.617803 0.738608
0.623774 0.590759 0.798597
0.593466 0.610662 0.797287
0.666641 0.609744 0.740061
0.693695 0.609701 0.797597
0.7235 0.613025 0.737685
0.516376 0.511666 0.866322
0.516152 0.541377 0.813925
0.543581 0.518607 0.814756
0.573212 0.518307 0.867364
0.616318 0.511462 0.868506
0.616239 0.540791 0.815357
0.643724 0.517843 0.816944
0.673717 0.518354 0.869815
0.716584 0.52024 0.868139
0.743718 0.520866 0.808122
0.523023 0.568541 0.865673
0.566311 0.561367 0.866739
0.593467 0.568402 0.815528
0.623098 0.567745 0.86795
0.666737 0.559612 0.869612
0.693739 0.568076 0.818947
0.723507 0.562848 0.867548
0.516078 0.611734 0.86521
0.566058 0.591153 0.814829
0.54328 0.618666 0.813586
0.572928 0.618389 0.866495
0.616329 0.6114 0.867518
0.666625 0.590384 0.819498
0.643809 0.617887 0.81568
0.673525 0.618521 0.868825
0.723932 0.590688 0.808903
0.716622 0.620484 0.867181
0.743787 0.621085 0.806925
0.522444 0.518297 0.995091
0.523468 0.541462 0.925215
0.56649 0.512062 0.996309
0.543446 0.511223 0.926066
0.566077 0.541305 0.943388
0.622588 0.517448 0.997215
0.593263 0.518391 0.944185
0.623488 0.540787 0.928001
0.643647 0.510504 0.928405
0.666492 0.540275 0.947967
0.667174 0.5103 0.998095
0.69367 0.517848 0.946653
0.723109 0.513536 0.997477
0.743967 0.513141 0.920323
0.724359 0.540554 0.938213
0.5164 0.562307 0.994514
0.572475 0.568174 0.995569
0.543224 0.568778 0.942304
0.616621 0.562012 0.996785
0.593293 0.560959 0.926618
0.643491 0.567927 0.944305
0.672956 0.567955 0.997527
0.693786 0.559502 0.927727
0.71775 0.56958 0.996719
0.744018 0.571109 0.936425
0.522185 0.618351 0.994178
0.515791 0.59156 0.941639
0.56635 0.612046 0.995066
0.573435 0.591297 0.925643
0.543136 0.61125 0.925212
0.62238 0.617664 0.996036
0.616015 0.590895 0.943342
0.593193 0.618565 0.942732
0.643538 0.610476 0.927499
0.667215 0.610549 0.997163
0.674095 0.590254 0.925903
0.693728 0.617816 0.945393
0.723297 0.613769 0.996385
0.716508 0.590543 0.919073
0.744048 0.613412 0.919386
0.517001 0.641096 0.0628592
0.571047 0.64089 0.0507819
0.54324 0.663376 0.0502743
0.617781 0.640691 0.0637473
0.644164 0.663199 0.0520044
0.671738 0.640057 0.0508987
0.694156 0.666184 0.065523
0.718527 0.640694 0.0497136
0.744594 0.665362 0.0473521
0.52069 0.691117 0.0488941
0.566985 0.690867 0.0632797
0.5934 0.667074 0.0639675
0.620845 0.6906 0.0503389
0.669701 0.69049 0.062545
0.721969 0.691029 0.0605373
0.514094 0.740981 0.0585812
0.542928 0.717341 0.062273
0.569169 0.740637 0.0443953
0.59301 0.7133 0.0483869
0.614773 0.740418 0.0604876
0.643758 0.71643 0.0633811
0.694179 0.714158 0.0489107
0.66951 0.74007 0.0454145
0.744436 0.71939 0.0617553
0.717535 0.740967 0.0526525
0.521242 0.640842 0.171405
0.567673 0.640561 0.184129
0.566986 0.662423 0.115568
0.621646 0.640461 0.173163
0.593682 0.662739 0.172265
0.64414 0.666345 0.184739
0.668144 0.640002 0.186722
0.667658 0.661447 0.117044
0.694209 0.662108 0.172533
0.721832 0.640591 0.182503
0.722609 0.664254 0.116966
0.521385 0.667625 0.114754
0.516861 0.690736 0.182304
0.543462 0.666782 0.18336
0.570958 0.690522 0.170846
0.62184 0.667125 0.116284
0.617799 0.690241 0.18314
0.671949 0.690031 0.170817
0.74448 0.668695 0.181146
0.718716 0.690726 0.171993
0.515809 0.712584 0.113778
0.518623 0.740762 0.165692
0.542846 0.712984 0.169351
0.571454 0.717486 0.115049
0.564336 0.740459 0.180543
0.593144 0.716373 0.182846
0.616591 0.711841 0.11553
0.619065 0.740179 0.167469
0.643492 0.71276 0.170279
0.665319 0.740053 0.181537
0.672297 0.717105 0.116347
0.693904 0.716278 0.183517
0.717212 0.717802 0.116894
0.744589 0.715653 0.168302
0.720803 0.741129 0.176518
0.517065 0.662534 0.235699
0.57143 0.640384 0.2932
0.543602 0.662762 0.292625
0.61765 0.662415 0.23723
0.644262 0.662648 0.293751
0.671956 0.639939 0.292946
0.71822 0.640699 0.292016
0.744249 0.665199 0.290135
0.520675 0.690483 0.291459
0.571777 0.667022 0.236551
0.621083 0.690082 0.292956
0.67254 0.6671 0.237563
0.71778 0.668465 0.237774
0.521001 0.717111 0.235115
0.566281 0.711857 0.235776
0.568822 0.740222 0.287786
0.621505 0.716575 0.236683
0.593115 0.712667 0.291415
0.666817 0.711247 0.236557
0.669243 0.739856 0.288102
0.693896 0.713517 0.290363
0.722666 0.715432 0.237452
0.717198 0.740822 0.294481
0.517634 0.640604 0.304004
0.567333 0.662028 0.357714
0.61809 0.640358 0.305193
0.593741 0.666233 0.304896
0.622275 0.666529 0.358402
0.667349 0.661265 0.358893
0.694049 0.666179 0.307169
0.722316 0.664111 0.358864
0.521753 0.66692 0.356836
0.567404 0.690243 0.30432
0.668715 0.690328 0.305604
0.721736 0.690923 0.301951
0.516152 0.712125 0.356008
0.51428 0.740596 0.300238
0.542918 0.716317 0.302822
0.571215 0.716605 0.357078
0.616669 0.711576 0.35771
0.614558 0.740092 0.301923
0.643477 0.715797 0.304471
0.672131 0.71701 0.358318
0.715756 0.717437 0.358216
0.744285 0.719895 0.303179
0.521633 0.640356 0.413406
0.516888 0.661513 0.478088
0.567759 0.640198 0.427247
0.543794 0.666412 0.426195
0.622279 0.640271 0.415321
0.593934 0.662083 0.414335
0.617277 0.66155 0.479749
0.644402 0.666502 0.428003
0.667626 0.640037 0.429801
0.693836 0.662121 0.414062
0.72136 0.640777 0.425245
0.516975 0.690175 0.424957
0.572609 0.666993 0.479195
0.571312 0.689999 0.413402
0.617488 0.689944 0.426296
0.673308 0.667921 0.481052
0.672328 0.690074 0.412742
0.716011 0.669459 0.479784
0.74395 0.668643 0.423487
0.717963 0.690736 0.412772
0.521805 0.716941 0.477337
0.518855 0.740472 0.407232
0.542988 0.712313 0.411717
0.566022 0.711036 0.478336
0.564285 0.740103 0.422433
0.593188 0.71609 0.425172
0.622189 0.716708 0.47895
0.619138 0.739978 0.409177
0.643576 0.71201 0.413182
0.666537 0.710437 0.479882
0.665043 0.739875 0.424163
0.693715 0.717073 0.426554
0.72281 0.714812 0.479285
0.744137 0.715452 0.408446
0.720413 0.74105 0.416624
0.516158 0.640741 0.554989
0.574054 0.640618 0.538855
0.543484 0.660257 0.538214
0.616328 0.640519 0.555805
0.643882 0.660158 0.540426
0.674348 0.64041 0.538939
0.715603 0.640596 0.531986
0.743501 0.663451 0.531317
0.523365 0.690779 0.537569
0.56564 0.690584 0.555064
0.593525 0.66795 0.555754
0.623555 0.690464 0.539474
0.666209 0.690491 0.559319
0.693518 0.668505 0.559516
0.723761 0.690643 0.548332
0.511771 0.740996 0.546914
0.542838 0.718267 0.555062
0.570271 0.740718 0.529438
0.593109 0.710171 0.537217
0.612014 0.740626 0.54856
0.643182 0.717863 0.55693
0.693402 0.710528 0.53665
0.670662 0.74037 0.530356
0.744216 0.721269 0.54977
0.715618 0.740679 0.5371
0.523532 0.64101 0.666877
0.566254 0.640927 0.685375
0.56637 0.660772 0.608236
0.623942 0.640764 0.669821
0.593544 0.660644 0.668221
0.666472 0.640684 0.690655
0.666329 0.659832 0.610622
0.693544 0.659745 0.668421
0.723903 0.640899 0.679753
0.723205 0.663463 0.608561
0.523156 0.667788 0.607092
0.515448 0.691045 0.683304
0.543291 0.668302 0.684336
0.573382 0.690772 0.667085
0.623196 0.667351 0.609437
0.616013 0.690676 0.685721
0.643938 0.668128 0.68754
0.674445 0.690633 0.666514
0.743619 0.671531 0.677832
0.715605 0.690843 0.661412
0.515196 0.711215 0.606427
0.520471 0.741027 0.655928
0.542949 0.710719 0.665436
0.572727 0.717862 0.60747
0.56201 0.740826 0.677096
0.592977 0.718354 0.685862
0.615367 0.711007 0.608504
0.620557 0.740597 0.658649
0.643454 0.710216 0.667476
0.662296 0.740455 0.678898
0.673397 0.718715 0.608851
0.693583 0.720919 0.680007
0.71562 0.718075 0.607037
0.744041 0.714157 0.658174
0.721982 0.741268 0.667927
0.516079 0.661421 0.735913
0.57364 0.640981 0.796577
0.543222 0.660947 0.796099
0.616454 0.661331 0.738429
0.643977 0.660807 0.798265
0.674297 0.640545 0.796564
0.716122 0.640752 0.789083
0.743761 0.663877 0.788533
0.523306 0.691196 0.795041
0.573049 0.667997 0.737351
0.623515 0.690786 0.797149
0.674484 0.669396 0.740202
0.715845 0.670934 0.737926
0.522685 0.71837 0.735696
0.565303 0.710919 0.736614
0.570549 0.740811 0.785624
0.622964 0.718065 0.737491
0.593197 0.710674 0.794958
0.666842 0.710076 0.737925
0.671038 0.74039 0.787123
0.693646 0.709788 0.796086
0.722379 0.714086 0.737167
0.715128 0.740527 0.797737
0.515833 0.641367 0.812959
0.566081 0.661263 0.865984
0.616346 0.640798 0.814384
0.666777 0.659935 0.868778
0.723689 0.663198 0.866783
0.522645 0.668435 0.86513
0.565623 0.691019 0.814021
0.593319 0.66831 0.814549
0.623059 0.667828 0.866967
0.6666 0.690558 0.819302
0.693877 0.668428 0.818631
0.724045 0.690882 0.807496
0.515022 0.711526 0.864304
0.511841 0.741246 0.80539
0.542848 0.718781 0.813811
0.57285 0.718609 0.865215
0.615561 0.711332 0.866417
0.612299 0.740744 0.807094
0.643536 0.718039 0.815326
0.673663 0.719192 0.867043
0.716804 0.719085 0.867198
0.7443 0.720955 0.807991
0.516001 0.662239 0.993619
0.523227 0.641424 0.924537
0.565733 0.641313 0.942753
0.616641 0.661983 0.99563
0.623585 0.64092 0.926852
0.593212 0.660884 0.925665
0.666425 0.640346 0.947073
0.693695 0.659558 0.927199
0.724449 0.640695 0.937223
0.515263 0.691443 0.941524
0.572157 0.668171 0.994713
0.542968 0.668889 0.941757
0.573323 0.691117 0.924275
0.61597 0.690898 0.943214
0.643632 0.66827 0.943721
0.672933 0.668063 0.996754
0.674444 0.690584 0.925931
0.717493 0.669685 0.996054
0.744075 0.671471 0.935762
0.71655 0.690643 0.919568
0.521902 0.718878 0.993189
0.520527 0.741171 0.914009
0.565481 0.711777 0.993763
0.542803 0.71098 0.92285
0.561832 0.740899 0.934876
0.622379 0.71826 0.994952
0.592974 0.71878 0.942755
0.620772 0.740727 0.917356
0.643521 0.710634 0.924546
0.662582 0.740468 0.937043
0.667066 0.71107 0.995286
0.693823 0.721182 0.937718
0.724378 0.741331 0.932731
0.722823 0.715098 0.995495
0.744385 0.713912 0.917604
0.518868 0.790384 0.0462649
0.542253 0.762248 0.0601438
0.564572 0.790172 0.0598685
0.592486 0.766563 0.0460882
0.618945 0.789902 0.0482911
0.64265 0.761798 0.0618185
0.664969 0.789946 0.0619912
0.692875 0.765983 0.0477171
0.718317 0.791315 0.0540791
0.743496 0.765394 0.065338
0.542778 0.816668 0.0480712
0.592817 0.812132 0.0603491
0.642846 0.816242 0.0496287
0.69252 0.813052 0.0626303
0.743023 0.819936 0.05374
0.515224 0.84038 0.0601933
0.543251 0.862397 0.0613214
0.569292 0.839935 0.0487016
0.593124 0.866048 0.0501457
0.615073 0.839882 0.0619461
0.642976 0.862201 0.0630893
0.668963 0.840229 0.0500989
0.692729 0.866808 0.0519239
0.715106 0.84114 0.0647198
0.743067 0.865189 0.0699405
0.51352 0.767404 0.114408
0.514741 0.790504 0.180105
0.54228 0.766511 0.166698
0.568693 0.790055 0.168983
0.569564 0.761835 0.115291
0.592498 0.762124 0.181813
0.613948 0.766732 0.116556
0.61495 0.789947 0.181677
0.642569 0.765827 0.168976
0.67009 0.761326 0.116988
0.668902 0.790019 0.170463
0.69291 0.762042 0.183498
0.714648 0.76592 0.117912
0.715401 0.790983 0.182189
0.743655 0.76939 0.171047
0.519168 0.812262 0.115978
0.542851 0.812583 0.180817
0.564836 0.81675 0.117057
0.592907 0.816063 0.170805
0.61929 0.811906 0.117735
0.642956 0.812367 0.182642
0.664645 0.816729 0.118631
0.692751 0.816455 0.172439
0.719173 0.81385 0.119445
0.7433 0.815891 0.187833
0.519163 0.840422 0.170233
0.515162 0.866878 0.11774
0.56547 0.840249 0.182249
0.569733 0.862011 0.118635
0.543346 0.86635 0.171371
0.593233 0.862523 0.183452
0.619092 0.840052 0.17208
0.614975 0.866423 0.119519
0.643029 0.866273 0.173156
0.665287 0.840352 0.184294
0.669434 0.862124 0.120232
0.692892 0.863246 0.185516
0.718808 0.841227 0.174834
0.714688 0.867891 0.121227
0.743158 0.869933 0.1767
0.51947 0.762255 0.235567
0.518792 0.790442 0.28951
0.563777 0.766833 0.236555
0.619615 0.761827 0.237373
0.59247 0.766121 0.288731
0.618922 0.789978 0.291379
0.664116 0.766602 0.238098
0.692962 0.765895 0.289666
0.721584 0.76536 0.238734
0.718479 0.791242 0.29637
0.514955 0.816935 0.237497
0.569293 0.81219 0.238124
0.542953 0.81654 0.290989
0.614973 0.8164 0.239119
0.643066 0.81623 0.29256
0.669403 0.81208 0.239739
0.715134 0.817405 0.240492
0.74343 0.819928 0.296074
0.519927 0.862416 0.238933
0.565252 0.866823 0.239828
0.56942 0.840389 0.29188
0.619706 0.862396 0.240669
0.59337 0.866591 0.29292
0.664911 0.867106 0.241349
0.669161 0.840577 0.29314
0.693127 0.866895 0.29465
0.719686 0.863272 0.242123
0.513652 0.767042 0.356676
0.542421 0.76248 0.302291
0.565042 0.790304 0.30204
0.569759 0.761932 0.357695
0.614005 0.766495 0.358267
0.642766 0.761874 0.30355
0.665265 0.790019 0.303744
0.669986 0.761254 0.35911
0.714726 0.765866 0.359168
0.743668 0.765653 0.306895
0.519417 0.812624 0.358153
0.565129 0.816941 0.359131
0.593038 0.812557 0.30286
0.619641 0.812367 0.35982
0.665012 0.81693 0.360449
0.692868 0.813349 0.304359
0.719732 0.813701 0.360971
0.515422 0.840748 0.302584
0.515384 0.867511 0.359884
0.54341 0.862913 0.303835
0.570191 0.862515 0.36065
0.615438 0.840437 0.304362
0.615212 0.867043 0.36175
0.643263 0.862763 0.305756
0.67011 0.86227 0.362388
0.715633 0.841235 0.306471
0.714992 0.867918 0.363255
0.743317 0.865558 0.311557
0.520341 0.761573 0.47722
0.515212 0.790521 0.421831
0.542565 0.766481 0.407986
0.563044 0.76718 0.47824
0.569087 0.790337 0.41061
0.592464 0.762369 0.424155
0.620527 0.761207 0.47888
0.615359 0.790199 0.423431
0.642807 0.765954 0.41013
0.663678 0.76693 0.479377
0.669351 0.790167 0.411196
0.693003 0.762423 0.425759
0.716065 0.790932 0.42369
0.722757 0.764827 0.4792
0.74379 0.76882 0.411105
0.514596 0.817959 0.478818
0.570098 0.811885 0.479684
0.543026 0.813229 0.422789
0.59317 0.816612 0.41222
0.614632 0.817545 0.480744
0.643299 0.812673 0.425048
0.670774 0.811225 0.481107
0.693195 0.816603 0.413296
0.714761 0.817931 0.481669
0.743545 0.815428 0.430196
0.519663 0.840981 0.410951
0.520912 0.862238 0.480608
0.565794 0.840659 0.424635
0.543628 0.867048 0.412229
0.564614 0.86791 0.481563
0.593493 0.863076 0.426066
0.619586 0.840571 0.413184
0.62081 0.861937 0.482238
0.643582 0.866864 0.413985
0.665774 0.840465 0.42678
0.664551 0.867793 0.483138
0.693486 0.863285 0.428435
0.719744 0.841188 0.415284
0.721375 0.862133 0.483982
0.743469 0.86993 0.41823
0.520393 0.791001 0.530894
0.542663 0.760409 0.549115
0.563247 0.790754 0.547842
0.592868 0.767825 0.528585
0.620595 0.790585 0.532541
0.642924 0.760044 0.549965
0.663497 0.79035 0.549706
0.693387 0.767499 0.529942
0.72191 0.791125 0.534601
0.743836 0.761598 0.553415
0.543463 0.818312 0.532724
0.593392 0.810707 0.549164
0.643692 0.817784 0.533508
0.693745 0.810394 0.550393
0.743775 0.822301 0.541129
0.513548 0.841231 0.549409
0.571043 0.841111 0.533019
0.543881 0.861003 0.550816
0.593945 0.868238 0.534183
0.613573 0.840886 0.551029
0.64382 0.860636 0.552184
0.671315 0.840833 0.53396
0.693865 0.868239 0.53539
0.713807 0.840915 0.553742
0.743667 0.863577 0.562955
0.512096 0.767886 0.60536
0.513069 0.790848 0.67543
0.571019 0.760749 0.606523
0.542841 0.768043 0.655175
0.5705 0.79067 0.659788
0.592849 0.760197 0.679226
0.612306 0.767561 0.607296
0.613156 0.790504 0.677416
0.642926 0.767799 0.65747
0.670668 0.760114 0.608113
0.692956 0.760811 0.679246
0.670782 0.790559 0.659851
0.714425 0.767595 0.608338
0.713112 0.79107 0.679396
0.743757 0.771762 0.665958
0.520297 0.811561 0.607607
0.564184 0.81808 0.608369
0.543304 0.810649 0.676622
0.593415 0.818079 0.662125
0.620384 0.811281 0.608819
0.643479 0.810286 0.678463
0.664013 0.818013 0.609409
0.69361 0.818173 0.661178
0.721588 0.810877 0.61054
0.74352 0.813421 0.690975
0.514114 0.868312 0.609325
0.520979 0.841125 0.660388
0.563225 0.840866 0.679207
0.543803 0.868293 0.661547
0.571116 0.86125 0.610097
0.593667 0.860465 0.680327
0.614016 0.867887 0.611097
0.620981 0.840719 0.662455
0.64378 0.867825 0.663447
0.663413 0.840505 0.680535
0.670919 0.861041 0.611613
0.693637 0.860378 0.68181
0.71392 0.868888 0.612576
0.721361 0.841004 0.662152
0.74361 0.871965 0.671805
0.520965 0.760949 0.733955
0.520216 0.790821 0.787464
0.562083 0.767821 0.735215
0.62123 0.760705 0.73609
0.592928 0.767813 0.785485
0.620352 0.790353 0.789575
0.662821 0.767456 0.73666
0.693125 0.767629 0.789123
0.720799 0.763454 0.73698
0.721225 0.790953 0.791753
0.514057 0.818256 0.736234
0.543264 0.818046 0.790072
0.57022 0.811165 0.737282
0.614095 0.817779 0.738265
0.643447 0.817688 0.790992
0.670724 0.810506 0.738376
0.713812 0.818345 0.73939
0.743549 0.822007 0.79888
0.520946 0.861256 0.738021
0.564026 0.867888 0.73901
0.570853 0.840648 0.790611
0.593739 0.867799 0.791786
0.620834 0.860937 0.73978
0.663999 0.867729 0.740641
0.670872 0.840446 0.79199
0.693586 0.868052 0.793083
0.720964 0.860945 0.741201
0.512023 0.768369 0.863416
0.542594 0.760398 0.806901
0.571027 0.760757 0.863867
0.563066 0.790507 0.805409
0.61231 0.767755 0.86533
0.643025 0.760038 0.80889
0.663169 0.790141 0.807386
0.670732 0.760039 0.866665
0.743548 0.760988 0.808799
0.714998 0.767473 0.867848
0.520067 0.811118 0.865608
0.563781 0.817764 0.866287
0.593285 0.810422 0.806646
0.6203 0.810608 0.866954
0.663522 0.817541 0.867721
0.693505 0.810384 0.808944
0.721106 0.810865 0.868873
0.513378 0.840935 0.807012
0.51388 0.867988 0.867338
0.543655 0.860573 0.808296
0.570701 0.860719 0.868011
0.613471 0.840493 0.808614
0.613647 0.867461 0.869353
0.643557 0.860285 0.809539
0.670339 0.8607 0.869387
0.713388 0.840779 0.811495
0.713603 0.868729 0.870158
0.743527 0.863622 0.820808
0.520163 0.761648 0.992402
0.512363 0.790674 0.934062
0.563051 0.76768 0.993825
0.542695 0.768041 0.914446
0.570255 0.790357 0.917823
0.620229 0.761424 0.99481
0.592641 0.75987 0.936494
0.6125 0.790231 0.935443
0.663464 0.76729 0.995657
0.642941 0.767638 0.917271
0.693283 0.759955 0.937756
0.670817 0.790282 0.919174
0.722102 0.765245 0.996891
0.712559 0.790994 0.937861
0.743646 0.772652 0.924865
0.514297 0.817258 0.994754
0.569463 0.811327 0.995427
0.542999 0.810092 0.934504
0.614362 0.816761 0.996387
0.593159 0.817751 0.92038
0.643243 0.809636 0.936444
0.669698 0.811216 0.996894
0.693247 0.817945 0.919591
0.713901 0.817708 0.998209
0.743404 0.813706 0.947336
0.519939 0.861632 0.99612
0.520621 0.840639 0.919
0.564408 0.866906 0.997107
0.562836 0.840385 0.936856
0.543556 0.867797 0.920067
0.619754 0.861291 0.998016
0.593338 0.859797 0.937872
0.620663 0.840223 0.92118
0.664162 0.866914 0.998677
0.643266 0.867561 0.921971
0.662898 0.840279 0.93797
0.693188 0.860317 0.938978
0.719576 0.862141 0.999494
0.720692 0.841043 0.921454
0.743257 0.872208 0.929731
0.519779 0.890205 0.049868
0.565751 0.890081 0.0627944
0.543791 0.916351 0.0511275
0.593587 0.912387 0.0643648
0.619362 0.889912 0.0518672
0.664969 0.890197 0.064738
0.643153 0.916237 0.0527495
0.669753 0.911425 5.85059e-04
0.692928 0.912513 0.0660535
0.719157 0.89088 0.0538051
0.516466 0.940415 0.0642935
0.570514 0.940249 0.0527222
0.616093 0.940365 0.0656645
0.61464 0.91674 1.55672e-05
0.669676 0.940338 0.0539461
0.713977 0.917841 0.00117944
0.715314 0.940818 0.0680368
0.742917 0.919919 0.0569822
0.52337 0.990801 0.0565258
0.521885 0.961835 9.7941e-05
0.568555 0.99073 0.0716264
0.565507 0.96714 8.48866e-04
0.544601 0.962638 0.0668724
0.594246 0.966558 0.0539119
0.622964 0.990779 0.0586173
0.621367 0.961905 0.00165422
0.64403 0.962876 0.0686915
0.664505 0.967459 0.00221835
0.66806 0.990798 0.0747214
0.693299 0.96705 0.0555141
0.72041 0.96322 0.00297207
0.72126 0.991229 0.0667792
0.742958 0.965093 0.0744167
0.515941 0.890567 0.182993
0.520448 0.912326 0.119328
0.543874 0.912795 0.184442
0.569678 0.890334 0.17271
0.615687 0.890381 0.184672
0.62006 0.912267 0.121226
0.593712 0.916405 0.174031
0.643464 0.912725 0.186531
0.669182 0.890462 0.173685
0.693073 0.91643 0.175826
0.715556 0.891085 0.187716
0.719578 0.912984 0.122448
0.74315 0.915296 0.191392
0.520587 0.940691 0.173171
0.565656 0.916718 0.120379
0.566565 0.940591 0.186032
0.62008 0.940507 0.175564
0.664931 0.916904 0.121798
0.665859 0.940521 0.188258
0.719091 0.941018 0.178689
0.516508 0.967113 0.121163
0.518891 0.99098 0.191111
0.544651 0.96678 0.174777
0.573226 0.990813 0.178841
0.571523 0.96243 0.122377
0.594433 0.963013 0.188579
0.615904 0.966967 0.122997
0.618279 0.990875 0.192472
0.644166 0.966781 0.176129
0.673056 0.990942 0.179333
0.67092 0.962142 0.123791
0.693409 0.963352 0.191542
0.713961 0.966933 0.124354
0.742885 0.969973 0.178066
0.715919 0.991505 0.188412
0.519843 0.890839 0.292604
0.570367 0.912491 0.241508
0.619623 0.890545 0.294792
0.669905 0.912274 0.243078
0.719267 0.891222 0.296826
0.515926 0.917299 0.24055
0.543983 0.916885 0.294102
0.570538 0.940842 0.295347
0.615555 0.916988 0.242625
0.643671 0.916802 0.295743
0.670034 0.940812 0.296165
0.714916 0.917794 0.244009
0.743278 0.919986 0.299588
0.521743 0.962746 0.242425
0.523486 0.991071 0.298945
0.566266 0.967384 0.24322
0.621299 0.962746 0.244362
0.594476 0.966943 0.296592
0.665191 0.967632 0.244882
0.693654 0.967193 0.297797
0.720797 0.964301 0.245686
0.520569 0.912998 0.361662
0.565935 0.890638 0.305326
0.593757 0.912936 0.306701
0.620411 0.912797 0.363407
0.665593 0.890619 0.307656
0.693294 0.913041 0.308857
0.719997 0.913139 0.36496
0.516618 0.940996 0.306454
0.565791 0.917505 0.362639
0.616281 0.940758 0.308326
0.665542 0.917659 0.364275
0.715606 0.9411 0.310443
0.516251 0.967971 0.363359
0.568706 0.991032 0.313844
0.544687 0.96327 0.309081
0.571715 0.962632 0.364544
0.62317 0.990932 0.30117
0.61579 0.967606 0.365251
0.644253 0.963136 0.311727
0.668221 0.990885 0.316832
0.671513 0.962193 0.366278
0.721297 0.991263 0.309905
0.714245 0.967052 0.366838
0.743195 0.965012 0.316559
0.516359 0.891141 0.425425
0.544077 0.91353 0.427069
0.569941 0.890857 0.413766
0.571251 0.912128 0.483394
0.616132 0.890747 0.427128
0.643894 0.913308 0.429084
0.669821 0.890789 0.415228
0.671153 0.911903 0.485219
0.716158 0.891015 0.430676
0.743269 0.914816 0.434526
0.520757 0.941294 0.414855
0.515259 0.918467 0.482491
0.566677 0.941127 0.429082
0.593975 0.917138 0.41519
0.620535 0.941086 0.416813
0.615 0.918122 0.484216
0.666427 0.941021 0.431775
0.6936 0.916763 0.417267
0.714715 0.918311 0.486258
0.71985 0.941239 0.420461
0.518375 0.991105 0.434517
0.522249 0.962507 0.484646
0.544683 0.967586 0.416081
0.565488 0.968956 0.4855
0.573348 0.991105 0.420649
0.594497 0.963516 0.431789
0.618024 0.990922 0.435283
0.62205 0.96244 0.486386
0.644428 0.967426 0.417512
0.6649 0.96895 0.48785
0.673054 0.990977 0.421654
0.693918 0.963599 0.435488
0.716217 0.991115 0.43229
0.722896 0.964383 0.489026
0.743158 0.96973 0.419975
0.521602 0.891427 0.534084
0.564009 0.891191 0.551857
0.594283 0.910998 0.553291
0.621435 0.891103 0.536179
0.663674 0.890852 0.553694
0.693896 0.910658 0.555234
0.721671 0.891225 0.536777
0.514301 0.941501 0.553371
0.544424 0.918847 0.535437
0.572085 0.941399 0.536528
0.614274 0.941302 0.554991
0.644285 0.918513 0.536692
0.671818 0.941195 0.538642
0.713643 0.941182 0.557144
0.743612 0.922399 0.545482
0.525785 0.991334 0.544577
0.56698 0.991193 0.565327
0.544666 0.961175 0.555558
0.594678 0.969097 0.537349
0.62579 0.991111 0.547004
0.644484 0.960962 0.557679
0.667198 0.991138 0.570923
0.694001 0.968728 0.538245
0.724647 0.991053 0.553477
0.743608 0.963395 0.570171
0.521538 0.911699 0.611005
0.513841 0.891016 0.679754
0.544149 0.910717 0.680738
0.571313 0.89094 0.663214
0.613591 0.890769 0.681358
0.621228 0.911416 0.612975
0.643819 0.910334 0.683086
0.671025 0.890638 0.664813
0.721136 0.911481 0.614766
0.713554 0.890829 0.684716
0.743575 0.913402 0.69344
0.521989 0.941211 0.66467
0.564547 0.918372 0.611934
0.564031 0.941064 0.682811
0.5941 0.918237 0.66446
0.621684 0.940971 0.666454
0.664182 0.918105 0.613708
0.663404 0.940751 0.68545
0.693621 0.917927 0.667227
0.721717 0.941252 0.668807
0.514905 0.96895 0.613338
0.517024 0.991215 0.693248
0.544627 0.968925 0.664409
0.575318 0.991168 0.674074
0.572321 0.961419 0.61405
0.594348 0.960604 0.684983
0.614438 0.968527 0.615083
0.616441 0.991065 0.693502
0.644307 0.968817 0.6661
0.671911 0.960885 0.616405
0.674772 0.99114 0.67627
0.693731 0.960442 0.688117
0.712956 0.968213 0.616956
0.743364 0.971794 0.675055
0.713386 0.991121 0.686664
0.521255 0.8909 0.791521
0.57124 0.911058 0.740763
0.620942 0.890601 0.793563
0.670773 0.91093 0.74272
0.721392 0.891003 0.79327
0.514717 0.918196 0.7402
0.544197 0.918075 0.792564
0.571784 0.940888 0.794438
0.614193 0.917862 0.741731
0.643743 0.917869 0.79442
0.671352 0.94076 0.795641
0.713847 0.918598 0.74355
0.522305 0.961509 0.741834
0.56472 0.968376 0.742844
0.621919 0.96148 0.743302
0.594324 0.968632 0.793734
0.66407 0.968317 0.745176
0.693708 0.968625 0.796592
0.722144 0.963345 0.746936
0.521185 0.911141 0.868896
0.563747 0.89063 0.809634
0.593868 0.910493 0.81068
0.620869 0.911009 0.870807
0.663428 0.890514 0.811457
0.693634 0.910443 0.812184
0.720602 0.911169 0.871942
0.514408 0.941058 0.810489
0.564146 0.917654 0.869923
0.613871 0.940867 0.811971
0.663737 0.917673 0.871623
0.713711 0.940978 0.815031
0.743532 0.922058 0.802431
0.525429 0.991232 0.802244
0.514766 0.968226 0.870805
0.566909 0.99103 0.822929
0.54453 0.960834 0.812697
0.572226 0.961301 0.871717
0.614437 0.967957 0.872484
0.625377 0.991018 0.803838
0.644054 0.960686 0.814808
0.667375 0.990871 0.828794
0.671309 0.960415 0.873716
0.712337 0.967736 0.874581
0.723535 0.991312 0.8158
0.743398 0.963732 0.828621
0.513297 0.890692 0.937395
0.570539 0.911545 0.998839
0.543867 0.909999 0.938621
0.571042 0.890411 0.921743
0.613036 0.890342 0.939424
0.643388 0.909838 0.940178
0.670582 0.890448 0.923516
0.712845 0.890888 0.941782
0.74332 0.913593 0.949488
0.515083 0.917026 0.998049
0.521971 0.940794 0.922896
0.563803 0.940664 0.940218
0.593734 0.917785 0.922976
0.621364 0.940658 0.925434
0.662894 0.940403 0.942623
0.693267 0.917921 0.925405
0.721189 0.94105 0.926622
0.517255 0.991139 0.949796
0.544578 0.968311 0.923003
0.575359 0.991106 0.932209
0.594231 0.96029 0.942439
0.616743 0.991111 0.950541
0.644049 0.968271 0.924006
0.674904 0.99101 0.932659
0.693402 0.960214 0.944787
0.743185 0.971764 0.931532
0.713623 0.991377 0.942717
0.766362 0.0214114 0.00249086
0.793503 0.0157329 0.0537492
0.822439 0.0156652 8.6716e-04
0.843369 0.020159 0.0669771
0.893283 0.0165722 0.0520663
0.943294 0.02081 0.0640024
0.993381 0.017376 0.049688
0.77206 0.0423712 0.0678232
0.773151 0.0653861 0.00165036
0.79428 0.0702712 0.0661254
0.817502 0.0424291 0.0537197
0.817323 0.0711168 4.536e-04
0.844014 0.0664568 0.0521822
0.871379 0.0426386 0.0643846
0.893872 0.0706871 0.0633521
0.917375 0.0430736 0.0508786
0.944019 0.0669962 0.049587
0.971387 0.0432949 0.0618353
0.994194 0.0710573 0.0604984
0.768354 0.0922436 0.0537063
0.767879 0.120813 0.00119256
0.822173 0.0924605 0.0646734
0.794612 0.116032 0.0530764
0.867882 0.0927484 0.0510522
0.844401 0.120403 0.0637005
0.894358 0.116503 0.0501432
0.921891 0.0928909 0.0617007
0.944447 0.120837 0.0611366
0.96817 0.0932116 0.0480905
0.994579 0.116754 0.0472422
0.772231 0.0152266 0.123539
0.816372 0.0204765 0.12254
0.793284 0.0196524 0.189793
0.843233 0.0161508 0.174987
0.871518 0.0161139 0.121057
0.893153 0.020152 0.186386
0.916478 0.0210856 0.119785
0.943196 0.0170943 0.172737
0.993439 0.0205637 0.183814
0.971482 0.0167431 0.118321
0.767593 0.0419074 0.175731
0.767769 0.0704339 0.12334
0.793958 0.0660478 0.175869
0.822021 0.0660013 0.121856
0.821214 0.0422002 0.18695
0.86736 0.0425726 0.173749
0.843832 0.0699242 0.185765
0.867402 0.0707423 0.12028
0.893715 0.0666008 0.172648
0.921932 0.0664719 0.118953
0.921008 0.042886 0.184146
0.943866 0.0705151 0.182718
0.994055 0.0672207 0.170146
0.967766 0.0430847 0.170997
0.967684 0.071366 0.117417
0.772567 0.115489 0.122502
0.771999 0.0920105 0.187856
0.81798 0.0922347 0.175042
0.794255 0.119673 0.186618
0.818 0.120327 0.121351
0.871524 0.0924841 0.184395
0.844243 0.116292 0.173662
0.872325 0.116112 0.119737
0.894225 0.120223 0.183364
0.917971 0.0927863 0.171769
0.917938 0.120848 0.118216
0.944209 0.116751 0.170691
0.97167 0.0929377 0.181959
0.994382 0.120488 0.180665
0.972458 0.116501 0.116817
0.766332 0.0205498 0.245332
0.821632 0.0155528 0.243552
0.79329 0.015692 0.297177
0.866311 0.0206875 0.242436
0.893103 0.0163039 0.294577
0.921331 0.0161798 0.240602
0.96665 0.0214658 0.239536
0.993471 0.0170139 0.292166
0.772117 0.0652988 0.244447
0.817424 0.0701373 0.243363
0.817316 0.0420091 0.2967
0.871861 0.0659572 0.241696
0.843758 0.0659571 0.295406
0.917378 0.0707442 0.240149
0.917244 0.042527 0.293154
0.94383 0.0663708 0.292193
0.971972 0.0663316 0.23866
0.767601 0.120086 0.243707
0.767893 0.0918234 0.296819
0.822235 0.115585 0.242575
0.794006 0.115608 0.295884
0.867783 0.120359 0.241034
0.86769 0.0922836 0.294447
0.8941 0.116159 0.293224
0.92212 0.116089 0.239562
0.967887 0.12087 0.238241
0.967912 0.0927334 0.291194
0.994259 0.116515 0.29049
0.772076 0.0146308 0.366377
0.816217 0.0199614 0.365221
0.843172 0.0197138 0.309328
0.871603 0.0152028 0.363202
0.916223 0.020796 0.361794
0.943209 0.0203323 0.30622
0.971877 0.0158207 0.360192
0.771442 0.0419088 0.310787
0.767006 0.0701777 0.36585
0.793868 0.0697139 0.309168
0.821954 0.0652187 0.364258
0.871123 0.0422389 0.307009
0.867152 0.0701624 0.362894
0.893693 0.0700707 0.305546
0.921831 0.0656297 0.361192
0.971306 0.0428452 0.304284
0.993997 0.0706079 0.302644
0.967397 0.0707989 0.3596
0.772198 0.114986 0.364912
0.821744 0.0920333 0.307516
0.817332 0.120069 0.363512
0.844003 0.119901 0.306365
0.872069 0.115553 0.362088
0.921708 0.0923791 0.304388
0.944065 0.120347 0.303115
0.917581 0.120346 0.360635
0.972129 0.11575 0.359163
0.765792 0.0207168 0.48793
0.767242 0.0415083 0.417742
0.793244 0.0189571 0.433266
0.822638 0.0140894 0.485831
0.843175 0.0152745 0.416132
0.865627 0.0207444 0.48452
0.893213 0.0196047 0.429591
0.943268 0.0158474 0.413145
0.922328 0.0144618 0.482433
0.99351 0.0199161 0.426684
0.965918 0.0213854 0.481488
0.772576 0.0643261 0.486525
0.821046 0.0417039 0.430109
0.793625 0.0653231 0.416936
0.816535 0.0706233 0.485215
0.843609 0.0694404 0.428484
0.867087 0.0417703 0.415191
0.872432 0.0645929 0.48359
0.893503 0.0656786 0.414291
0.916578 0.0708972 0.482146
0.921083 0.0421201 0.426926
0.943755 0.0697943 0.42542
0.993714 0.0662191 0.411078
0.967445 0.0423833 0.412273
0.972667 0.0650566 0.48077
0.771457 0.0916191 0.430626
0.766569 0.12052 0.485846
0.817463 0.0917443 0.415982
0.793916 0.119447 0.429383
0.822674 0.114614 0.484406
0.871286 0.0919751 0.427308
0.843806 0.115551 0.415009
0.866661 0.120706 0.483254
0.893879 0.119698 0.426034
0.917479 0.0920978 0.413229
0.943831 0.115895 0.412066
0.922658 0.115054 0.481546
0.966841 0.121284 0.48025
0.971378 0.0923706 0.424404
0.994012 0.120024 0.423136
0.773717 0.0412791 0.557066
0.793131 0.0134709 0.538408
0.815837 0.0412865 0.537807
0.8432 0.0216828 0.556048
0.873443 0.0415923 0.553625
0.893065 0.0138874 0.535351
0.94323 0.0220198 0.552941
0.993342 0.0143457 0.532487
0.793508 0.0715408 0.555561
0.843296 0.064116 0.537009
0.915779 0.0417481 0.5345
0.893399 0.0718373 0.552372
0.94335 0.0643449 0.533801
0.973664 0.0421349 0.550848
0.993591 0.072367 0.549539
0.766113 0.091279 0.538442
0.823732 0.0914793 0.554204
0.793506 0.113907 0.537937
0.866015 0.0915523 0.535913
0.843606 0.12173 0.553535
0.893545 0.114115 0.535168
0.923836 0.0918047 0.550996
0.943549 0.121978 0.550627
0.966246 0.092048 0.532319
0.993663 0.114745 0.532091
0.773212 0.0136981 0.616654
0.765753 0.0414361 0.667356
0.793177 0.021661 0.6865
0.815458 0.0209957 0.614538
0.82362 0.0415229 0.683399
0.873103 0.0140546 0.612984
0.843169 0.0138478 0.664778
0.893184 0.0220231 0.683152
0.915427 0.0215805 0.611587
0.943269 0.0144009 0.661846
0.993465 0.0225833 0.680222
0.973189 0.0146518 0.609934
0.766427 0.0711771 0.615503
0.79348 0.0640323 0.666673
0.823179 0.0643653 0.613807
0.865772 0.0416674 0.664545
0.866261 0.0713638 0.612194
0.843569 0.0718729 0.682819
0.893467 0.0643628 0.663682
0.923266 0.064768 0.610731
0.923596 0.0419924 0.680585
0.943619 0.0722778 0.67963
0.993658 0.0649273 0.660582
0.965993 0.0422074 0.66129
0.966471 0.0720386 0.609274
0.774082 0.091535 0.684436
0.773388 0.114192 0.614519
0.816269 0.0915962 0.665747
0.793839 0.121775 0.683612
0.816508 0.121152 0.613291
0.873806 0.0917286 0.681461
0.873378 0.114545 0.611856
0.843671 0.114312 0.66464
0.916259 0.09188 0.662693
0.893776 0.122041 0.680676
0.916476 0.121626 0.61068
0.943739 0.114629 0.662062
0.973962 0.0922342 0.678523
0.993892 0.122567 0.677622
0.973398 0.114964 0.608613
0.765755 0.0219208 0.745262
0.823235 0.0143812 0.743047
0.793341 0.0138537 0.79458
0.865469 0.0215996 0.741523
0.893182 0.0143711 0.792035
0.923141 0.01485 0.740208
0.965803 0.0222677 0.738783
0.993467 0.0147002 0.789616
0.773403 0.0644343 0.743957
0.816088 0.0417108 0.795852
0.81652 0.071263 0.742402
0.873285 0.0648666 0.740874
0.843665 0.0645174 0.79398
0.916438 0.0717374 0.73968
0.915922 0.0421692 0.792521
0.943653 0.0648683 0.791249
0.973485 0.0651628 0.738078
0.766806 0.12129 0.743276
0.766714 0.0916903 0.795619
0.823553 0.114627 0.741817
0.793943 0.114404 0.794912
0.866647 0.12157 0.740541
0.866443 0.0920092 0.793017
0.893874 0.114757 0.791977
0.923532 0.115054 0.739234
0.966778 0.122065 0.737669
0.966544 0.0922929 0.789787
0.993893 0.115026 0.789798
0.773685 0.0143635 0.87354
0.815701 0.0213208 0.871976
0.84336 0.0220312 0.813111
0.873073 0.0149595 0.870457
0.915607 0.0220563 0.869266
0.943373 0.0223738 0.810302
0.973256 0.0154409 0.867804
0.774211 0.0417542 0.814258
0.766958 0.0716176 0.872884
0.823576 0.0650189 0.871528
0.79388 0.0719138 0.812722
0.87366 0.0420207 0.810543
0.866628 0.0719376 0.870028
0.893651 0.0722572 0.809933
0.923449 0.0654577 0.86867
0.973802 0.0424222 0.808008
0.993859 0.0726158 0.806848
0.966877 0.0723424 0.86714
0.773825 0.114657 0.872358
0.824035 0.0918625 0.811459
0.816995 0.121605 0.870809
0.843949 0.12209 0.810839
0.87376 0.115086 0.869578
0.923926 0.0922151 0.808611
0.943963 0.122354 0.80816
0.916851 0.122025 0.868225
0.97386 0.115406 0.866615
0.793389 0.0222205 0.943765
0.8433 0.0145358 0.923002
0.866163 0.0214764 0.999882
0.893149 0.0227184 0.940298
0.921987 0.0164214 0.998404
0.943096 0.0150031 0.920401
0.966291 0.0222037 0.997076
0.993433 0.0231956 0.93795
0.766141 0.041868 0.925476
0.794001 0.0645696 0.924576
0.823897 0.0419063 0.940873
0.872774 0.0660356 0.999061
0.865861 0.042269 0.923319
0.843832 0.0725609 0.940263
0.893653 0.0650003 0.922108
0.917255 0.0716763 0.997531
0.923721 0.042474 0.937942
0.943823 0.0729516 0.937464
0.972787 0.0664199 0.996264
0.993897 0.065356 0.919627
0.966058 0.0426933 0.920185
0.774604 0.0918449 0.941856
0.816672 0.0920607 0.924079
0.794198 0.122349 0.940818
0.823108 0.115756 0.999717
0.867588 0.121325 0.998289
0.874342 0.0922805 0.938827
0.844139 0.114865 0.922844
0.916629 0.0925249 0.921071
0.894158 0.122767 0.93815
0.923101 0.116239 0.997073
0.944143 0.11518 0.920084
0.994261 0.123098 0.935492
0.974374 0.0927104 0.93604
0.967702 0.121875 0.995421
0.772577 0.141935 0.0657749
0.773317 0.165047 3.97764e-04
0.818461 0.142404 0.0523288
0.872316 0.142613 0.062572
0.844678 0.166227 0.0511144
0.918351 0.142931 0.0494842
0.944773 0.166602 0.0482169
0.97248 0.143002 0.0599099
0.768503 0.191745 0.0528131
0.794629 0.169898 0.0643964
0.822509 0.192232 0.0634299
0.868498 0.192562 0.0495132
0.894581 0.170514 0.0618386
0.922639 0.192728 0.0605638
0.994701 0.170968 0.0593118
0.968517 0.193017 0.0469176
0.772506 0.241573 0.0642823
0.794723 0.215639 0.0518222
0.818564 0.242072 0.0506356
0.844706 0.220054 0.0620025
0.872625 0.242348 0.0612362
0.894847 0.216309 0.0487977
0.944767 0.220782 0.0598894
0.918549 0.242789 0.0479956
0.994789 0.216907 0.0460788
0.972717 0.243067 0.0588192
0.768327 0.141854 0.174987
0.821912 0.142136 0.18542
0.794377 0.165764 0.174048
0.82256 0.16571 0.12047
0.868228 0.142472 0.172426
0.8944 0.166404 0.171465
0.921961 0.142643 0.182196
0.922504 0.166286 0.11763
0.968489 0.14286 0.169791
0.768012 0.169985 0.121621
0.77204 0.191617 0.185941
0.818413 0.192086 0.17318
0.844409 0.169932 0.184145
0.868078 0.170668 0.119085
0.872165 0.192421 0.183076
0.944499 0.170412 0.181325
0.918433 0.192615 0.17066
0.99464 0.166831 0.16889
0.968249 0.171097 0.116459
0.972313 0.19291 0.180649
0.772591 0.215057 0.12102
0.768285 0.24139 0.174003
0.794354 0.219336 0.185033
0.818183 0.220174 0.119721
0.822217 0.241899 0.183721
0.844545 0.215971 0.17212
0.872617 0.215857 0.11827
0.868483 0.242271 0.170828
0.894495 0.220057 0.181859
0.944669 0.216627 0.169398
0.918245 0.220723 0.116966
0.922147 0.242515 0.180808
0.994549 0.220741 0.179875
0.973015 0.216474 0.115727
0.968432 0.242861 0.168332
0.772353 0.165093 0.242913
0.81797 0.142022 0.294887
0.872483 0.165853 0.240189
0.844228 0.165824 0.293783
0.918063 0.142446 0.292312
0.944346 0.166374 0.291187
0.972508 0.166207 0.237626
0.767912 0.191487 0.29518
0.81779 0.170182 0.241627
0.868059 0.192223 0.292886
0.917936 0.170556 0.239006
0.968202 0.192725 0.290131
0.767661 0.219537 0.242367
0.822406 0.215469 0.240914
0.794213 0.215335 0.294567
0.818051 0.241776 0.293226
0.868055 0.220381 0.239668
0.894357 0.216076 0.291966
0.922438 0.21611 0.238251
0.918176 0.242439 0.291116
0.994347 0.216793 0.289258
0.967896 0.220989 0.237116
0.771965 0.141665 0.308178
0.822358 0.165248 0.362933
0.871898 0.142217 0.305
0.922398 0.165732 0.359993
0.972034 0.142604 0.302712
0.767323 0.169788 0.364045
0.794126 0.169645 0.307193
0.822037 0.191922 0.305805
0.867478 0.170239 0.361524
0.89422 0.17006 0.304052
0.922086 0.192381 0.303026
0.994293 0.170578 0.30154
0.967697 0.170777 0.358754
0.772142 0.214689 0.363141
0.771893 0.241311 0.306726
0.817549 0.219956 0.362162
0.844272 0.219793 0.304837
0.872369 0.215551 0.360751
0.872051 0.24209 0.303585
0.917632 0.220501 0.359551
0.944257 0.220296 0.302093
0.972415 0.216002 0.358045
0.972049 0.242834 0.301299
0.767548 0.141498 0.416265
0.772727 0.164182 0.48506
0.821621 0.141804 0.427927
0.793962 0.165153 0.415447
0.867701 0.141995 0.414008
0.872888 0.164723 0.482608
0.894039 0.165778 0.412883
0.921508 0.142176 0.42503
0.967756 0.142389 0.410781
0.994088 0.166334 0.410038
0.972951 0.16518 0.479588
0.771533 0.191261 0.428617
0.816715 0.170531 0.483922
0.817648 0.191602 0.414772
0.843976 0.169633 0.427433
0.871674 0.191946 0.425843
0.944085 0.169952 0.42428
0.916851 0.170999 0.481093
0.917809 0.192214 0.412028
0.971721 0.192566 0.423192
0.766612 0.220071 0.484219
0.767588 0.241132 0.415024
0.793924 0.219017 0.427481
0.8228 0.214345 0.483183
0.821634 0.241599 0.426782
0.843975 0.215524 0.413681
0.866858 0.220689 0.481882
0.867768 0.241787 0.412687
0.894102 0.219736 0.424845
0.944052 0.21611 0.410947
0.922828 0.215036 0.480423
0.921693 0.242257 0.42388
0.967862 0.242548 0.409808
0.994145 0.22039 0.422242
0.966977 0.221385 0.479161
0.773789 0.141268 0.55518
0.816168 0.141349 0.536894
0.873851 0.141573 0.552344
0.843584 0.164051 0.536047
0.916376 0.141736 0.534066
0.943694 0.164535 0.533204
0.973959 0.142136 0.54937
0.766025 0.191004 0.537057
0.793621 0.17151 0.5539
0.823895 0.191332 0.55311
0.866297 0.191481 0.535067
0.893766 0.171795 0.55148
0.923963 0.191875 0.550387
0.993724 0.172329 0.548591
0.966476 0.19216 0.531636
0.773868 0.240918 0.553477
0.793558 0.2136 0.536512
0.816235 0.241156 0.535426
0.843743 0.221618 0.552136
0.873984 0.241503 0.55099
0.893658 0.214253 0.533895
0.916423 0.2418 0.533012
0.9438 0.222191 0.549533
0.993769 0.214977 0.530711
0.973983 0.242264 0.548494
0.766465 0.141373 0.666417
0.82406 0.141603 0.682208
0.793767 0.164111 0.665499
0.823364 0.164285 0.612724
0.866383 0.141728 0.663786
0.89385 0.164357 0.663165
0.924133 0.14204 0.679796
0.923494 0.164771 0.60998
0.966575 0.142139 0.660329
0.993859 0.164873 0.659452
0.766498 0.170913 0.613964
0.774172 0.191333 0.683027
0.816418 0.191457 0.664627
0.866621 0.171317 0.611548
0.843873 0.17187 0.681785
0.874251 0.191781 0.680572
0.916552 0.191981 0.662068
0.944003 0.172325 0.678878
0.966694 0.172001 0.608501
0.974272 0.192307 0.677595
0.773382 0.213787 0.613116
0.766416 0.241028 0.664497
0.793902 0.221621 0.681976
0.816674 0.220911 0.611797
0.824157 0.241435 0.68093
0.873603 0.214441 0.610753
0.843906 0.214219 0.663648
0.866594 0.241622 0.662219
0.893991 0.222042 0.679598
0.916783 0.221543 0.609387
0.943984 0.214722 0.660875
0.924219 0.242017 0.678466
0.973637 0.215035 0.607625
0.994006 0.222715 0.6768
0.966721 0.242286 0.659452
0.773486 0.164205 0.742676
0.816648 0.141757 0.794004
0.873603 0.164783 0.739933
0.843987 0.164537 0.793275
0.944121 0.164872 0.790259
0.916725 0.142244 0.791025
0.973858 0.165034 0.736996
0.766746 0.191378 0.794431
0.816858 0.171267 0.741493
0.866786 0.19192 0.792019
0.916838 0.171869 0.738588
0.966865 0.192398 0.788744
0.766785 0.220914 0.741817
0.823736 0.214386 0.740687
0.793997 0.21409 0.793707
0.816741 0.241534 0.792424
0.866932 0.221479 0.739464
0.8942 0.214731 0.790753
0.923914 0.214972 0.737882
0.916867 0.242154 0.789712
0.994186 0.215198 0.788004
0.96694 0.222141 0.736483
0.774277 0.141618 0.812562
0.823825 0.164774 0.870233
0.874222 0.142037 0.809476
0.923949 0.165292 0.867421
0.974251 0.142414 0.806981
0.767145 0.171279 0.871655
0.794038 0.171756 0.811582
0.824237 0.191746 0.810399
0.867108 0.171792 0.868999
0.8941 0.172231 0.808699
0.924431 0.19225 0.8077
0.994143 0.172686 0.805972
0.967156 0.172492 0.865885
0.773849 0.214245 0.870775
0.774141 0.241255 0.810736
0.817019 0.221483 0.869712
0.844172 0.221953 0.809725
0.874091 0.21499 0.868314
0.874315 0.241916 0.808519
0.917205 0.222028 0.866918
0.944306 0.222501 0.80677
0.974075 0.215363 0.865492
0.974354 0.242535 0.805706
0.766867 0.141711 0.92445
0.824694 0.142011 0.939629
0.794308 0.164396 0.923754
0.873295 0.165706 0.99764
0.866886 0.142239 0.921691
0.894327 0.164883 0.921002
0.924731 0.142481 0.93659
0.973475 0.166133 0.994858
0.966982 0.142673 0.918457
0.994349 0.165238 0.91777
0.774672 0.191573 0.940446
0.817873 0.170937 0.999313
0.817043 0.191917 0.922568
0.844305 0.172477 0.938935
0.874857 0.192198 0.937712
0.917913 0.171298 0.996454
0.944481 0.172944 0.936076
0.917103 0.19244 0.920088
0.974935 0.192697 0.934913
0.766972 0.241256 0.92298
0.768019 0.220413 0.999758
0.823292 0.215395 0.998356
0.794306 0.221963 0.939331
0.824803 0.241818 0.938343
0.867941 0.221276 0.996912
0.844418 0.214592 0.921439
0.86705 0.24214 0.920099
0.894535 0.222663 0.936958
0.923551 0.21597 0.995793
0.94453 0.215148 0.918761
0.925017 0.24252 0.935612
0.967085 0.242673 0.917766
0.967939 0.221856 0.994582
0.994479 0.223319 0.934401
0.768558 0.291342 0.051321
0.794635 0.269586 0.0633591
0.84485 0.265887 0.0492507
0.894672 0.270358 0.0603966
0.94476 0.266579 0.0465908
0.994578 0.271278 0.0582096
0.822522 0.291822 0.0619707
0.794649 0.31521 0.0504147
0.868455 0.292362 0.0482554
0.844616 0.319877 0.061046
0.894714 0.316221 0.0472288
0.922603 0.292749 0.0591218
0.944575 0.320877 0.058298
0.968248 0.293241 0.0455206
0.994589 0.317009 0.0447711
0.772442 0.341274 0.062771
0.794463 0.369425 0.0619524
0.818369 0.341804 0.0495466
0.872492 0.342332 0.0601387
0.844626 0.365735 0.0481843
0.894439 0.370471 0.0590764
0.91832 0.342819 0.0466875
0.944578 0.366728 0.0453965
0.994469 0.371477 0.0567569
0.972454 0.343261 0.0573398
0.768033 0.269515 0.120444
0.771962 0.291272 0.184711
0.794468 0.26538 0.172806
0.82273 0.26546 0.118977
0.844612 0.269651 0.182815
0.868127 0.270509 0.117525
0.894562 0.266261 0.169925
0.922655 0.266302 0.116231
0.94447 0.27034 0.180091
0.994442 0.267024 0.167131
0.967871 0.271159 0.115033
0.772525 0.314774 0.119831
0.818468 0.291721 0.172112
0.794327 0.319124 0.183807
0.818021 0.319819 0.11848
0.872219 0.292178 0.181671
0.844485 0.315846 0.170871
0.872663 0.315804 0.116977
0.89448 0.320094 0.180713
0.918453 0.292559 0.169398
0.918052 0.320623 0.115725
0.944445 0.316783 0.168042
0.972042 0.293067 0.179082
0.994329 0.320962 0.178164
0.972626 0.316676 0.114175
0.768232 0.341068 0.172357
0.767969 0.369248 0.119177
0.794281 0.365253 0.171653
0.822054 0.341677 0.182477
0.822476 0.36534 0.117652
0.867976 0.370493 0.116252
0.868238 0.34226 0.169627
0.84427 0.369594 0.181462
0.894382 0.366195 0.168676
0.922523 0.366309 0.114909
0.922088 0.342632 0.179393
0.944297 0.370554 0.178644
0.994322 0.367206 0.16618
0.967891 0.371419 0.113694
0.968318 0.343128 0.166922
0.77233 0.2647 0.241572
0.767897 0.291136 0.294112
0.81788 0.269825 0.24046
0.87255 0.265596 0.238869
0.844332 0.265652 0.292422
0.917903 0.270491 0.237557
0.944339 0.266409 0.289834
0.972481 0.266402 0.236174
0.767656 0.31923 0.241133
0.822297 0.315264 0.239674
0.794114 0.315116 0.293326
0.867857 0.320302 0.238202
0.868149 0.292062 0.291266
0.894254 0.316054 0.290494
0.922478 0.316179 0.236863
0.968077 0.292844 0.28874
0.994148 0.316911 0.2879
0.967803 0.321159 0.235532
0.77217 0.364608 0.240412
0.81778 0.36961 0.239122
0.817916 0.34155 0.292245
0.872213 0.365624 0.237601
0.844102 0.365697 0.291454
0.91779 0.370515 0.236344
0.944098 0.366552 0.288552
0.918097 0.342475 0.289534
0.972368 0.366515 0.234892
0.994038 0.370857 0.298876
0.971853 0.34287 0.299722
0.767279 0.269374 0.362867
0.794155 0.269254 0.305676
0.822243 0.265002 0.361329
0.867586 0.27012 0.360088
0.894273 0.269965 0.302892
0.922379 0.26584 0.358782
0.994161 0.270859 0.300203
0.967528 0.270896 0.357658
0.772104 0.314451 0.362197
0.821971 0.291683 0.30435
0.817433 0.319664 0.36085
0.844168 0.319652 0.303374
0.872235 0.315414 0.359286
0.921969 0.292426 0.301373
0.944205 0.320367 0.300662
0.917593 0.320426 0.358245
0.972268 0.316081 0.356653
0.771895 0.341081 0.305559
0.767146 0.369262 0.36148
0.794013 0.369003 0.304334
0.822054 0.364988 0.360032
0.871885 0.342057 0.302293
0.867279 0.370217 0.35899
0.89403 0.369975 0.301431
0.922112 0.365823 0.357333
0.967416 0.370984 0.356148
0.772711 0.263875 0.483685
0.771422 0.29107 0.427485
0.793834 0.264924 0.414205
0.817623 0.291344 0.413267
0.816833 0.270259 0.482522
0.872915 0.264648 0.481212
0.844071 0.269267 0.425515
0.894014 0.265812 0.411644
0.944139 0.270061 0.423165
0.916845 0.271023 0.480005
0.994061 0.266559 0.40905
0.972817 0.265324 0.478589
0.766531 0.319889 0.483145
0.793848 0.318862 0.426634
0.822772 0.314178 0.481866
0.871726 0.291931 0.424527
0.843847 0.315291 0.412294
0.866718 0.320629 0.48049
0.894053 0.319847 0.423639
0.917716 0.292206 0.410894
0.94398 0.316177 0.409946
0.922793 0.31511 0.479323
0.9717 0.292685 0.422179
0.993984 0.320609 0.421115
0.966861 0.321591 0.477987
0.767396 0.340912 0.413849
0.772596 0.363748 0.482346
0.793726 0.364794 0.413115
0.821485 0.341432 0.425135
0.81656 0.370131 0.481045
0.867587 0.341745 0.411177
0.843872 0.369287 0.424365
0.872675 0.364618 0.479839
0.893794 0.365766 0.410286
0.91656 0.370935 0.478465
0.921645 0.342274 0.422484
0.943839 0.370162 0.421545
0.972614 0.36546 0.477026
0.993854 0.366617 0.407423
0.96763 0.342635 0.408432
0.76592 0.290692 0.535567
0.793619 0.271186 0.552599
0.823849 0.291141 0.551806
0.843704 0.263839 0.534635
0.866202 0.291406 0.533551
0.89367 0.271808 0.550227
0.94369 0.264597 0.531798
0.993756 0.272581 0.547601
0.793435 0.313312 0.534821
0.843607 0.32146 0.550792
0.893579 0.314296 0.532682
0.923831 0.291957 0.548909
0.943671 0.32231 0.548267
0.966452 0.292191 0.530556
0.993627 0.315077 0.529433
0.773739 0.340757 0.552162
0.793534 0.371078 0.551044
0.816067 0.340947 0.534175
0.873757 0.341547 0.549632
0.843464 0.363839 0.533163
0.89352 0.371844 0.549056
0.916254 0.341864 0.531586
0.943501 0.364708 0.530704
0.993545 0.372808 0.546086
0.973869 0.342444 0.547218
0.766522 0.270706 0.61234
0.774077 0.290909 0.681639
0.793764 0.263654 0.663888
0.823399 0.264002 0.611111
0.816484 0.291177 0.663083
0.866545 0.271322 0.61015
0.843923 0.271601 0.680206
0.893921 0.264413 0.661135
0.923491 0.264815 0.608509
0.94396 0.272344 0.677402
0.993847 0.26522 0.658148
0.966692 0.272093 0.607396
0.773337 0.313565 0.611711
0.793757 0.321274 0.680668
0.816425 0.320895 0.610568
0.874276 0.291668 0.679266
0.873405 0.314463 0.609298
0.843781 0.314046 0.662076
0.916524 0.292002 0.660209
0.893884 0.322074 0.678081
0.916599 0.321595 0.608053
0.943901 0.314849 0.65931
0.974144 0.292459 0.676441
0.99393 0.32296 0.675521
0.973453 0.315191 0.606499
0.766464 0.370441 0.610942
0.766345 0.340824 0.663667
0.793631 0.36357 0.662693
0.823286 0.363961 0.609899
0.824012 0.341251 0.679617
0.866379 0.37123 0.608729
0.866409 0.341532 0.660977
0.843761 0.371726 0.67892
0.893704 0.364402 0.660073
0.923226 0.364928 0.607455
0.924072 0.342073 0.677172
0.943771 0.372453 0.676008
0.993686 0.365388 0.657038
0.966469 0.372319 0.605918
0.966503 0.34242 0.658017
0.773536 0.263874 0.740992
0.766726 0.29099 0.792811
0.816873 0.271016 0.739758
0.873776 0.264613 0.738487
0.844083 0.264324 0.791833
0.916811 0.271789 0.737319
0.944202 0.265004 0.788885
0.973828 0.265299 0.735765
0.766729 0.32066 0.740521
0.823571 0.314172 0.739177
0.79391 0.313873 0.792077
0.866682 0.291754 0.790563
0.866836 0.321451 0.738046
0.894023 0.314665 0.789717
0.923636 0.314956 0.736722
0.966805 0.2925 0.787607
0.994032 0.315396 0.786603
0.96683 0.322306 0.735193
0.773442 0.363844 0.739899
0.816656 0.371007 0.738596
0.816629 0.341309 0.791086
0.8735 0.364574 0.737142
0.843875 0.364221 0.790252
0.916667 0.371801 0.736001
0.916675 0.342169 0.788776
0.943958 0.365049 0.787348
0.973645 0.365317 0.734345
0.767159 0.270909 0.870358
0.794045 0.271301 0.809705
0.824157 0.291451 0.808951
0.823871 0.264455 0.868815
0.867092 0.271689 0.867578
0.89417 0.272072 0.807784
0.924132 0.265198 0.866185
0.994179 0.272841 0.804991
0.967077 0.272361 0.865019
0.7739 0.313917 0.869303
0.817028 0.321188 0.868112
0.844039 0.321694 0.808267
0.873806 0.314872 0.866878
0.924271 0.292234 0.806151
0.944123 0.322364 0.805789
0.917054 0.321948 0.865599
0.974024 0.315476 0.864128
0.77418 0.341013 0.809721
0.767098 0.370717 0.869138
0.793936 0.371342 0.808897
0.823814 0.364411 0.86743
0.874107 0.341912 0.807054
0.866869 0.371672 0.866176
0.893984 0.372211 0.806077
0.923829 0.365225 0.864951
0.99392 0.372942 0.803574
0.974128 0.34263 0.804456
0.966872 0.372548 0.863623
0.773401 0.264662 0.998955
0.774737 0.291243 0.939114
0.817869 0.270634 0.997935
0.794308 0.264045 0.922236
0.816913 0.291591 0.921311
0.873522 0.265536 0.996104
0.8443 0.272227 0.937554
0.894432 0.264921 0.919149
0.917857 0.271425 0.995158
0.944454 0.273055 0.934941
0.97349 0.266286 0.993954
0.994303 0.265534 0.916713
0.767868 0.320086 0.998489
0.823246 0.315141 0.997094
0.79426 0.321707 0.938125
0.867857 0.321104 0.995803
0.874778 0.292122 0.936346
0.844268 0.314374 0.920262
0.894332 0.322674 0.935519
0.923348 0.316042 0.994162
0.91701 0.292449 0.918435
0.944375 0.315258 0.917454
0.96779 0.321972 0.993109
0.974814 0.29288 0.933707
0.99423 0.323558 0.932991
0.773261 0.364392 0.997603
0.76681 0.340961 0.921718
0.817709 0.370397 0.996446
0.794314 0.363864 0.92106
0.824761 0.341541 0.936876
0.873237 0.365477 0.995015
0.866878 0.342008 0.918935
0.844163 0.372194 0.936149
0.894149 0.364899 0.918091
0.91771 0.371378 0.993571
0.924717 0.342499 0.934218
0.944207 0.373105 0.933501
0.966936 0.342782 0.916156
0.973321 0.366411 0.992363
0.994141 0.365624 0.915105
0.768338 0.39123 0.0496966
0.794512 0.415191 0.0487394
0.822335 0.391814 0.0605141
0.868169 0.39241 0.0468807
0.894484 0.416271 0.0458734
0.922324 0.392776 0.0575652
0.968128 0.393287 0.0442253
0.772314 0.441275 0.0616506
0.818202 0.441827 0.0479494
0.844427 0.419881 0.05961
0.872282 0.442315 0.0585598
0.918173 0.442865 0.0449683
0.944318 0.420824 0.0569282
0.994404 0.417058 0.0435257
0.972238 0.443249 0.0558273
0.768209 0.491364 0.0487755
0.794417 0.469409 0.0605442
0.822271 0.49185 0.0592177
0.84446 0.465753 0.0465233
0.868079 0.492375 0.0454181
0.894294 0.470388 0.0575474
0.944442 0.466795 0.043867
0.922144 0.492768 0.0562133
0.994262 0.471263 0.0550722
0.968067 0.493173 0.0426702
0.771717 0.391133 0.183326
0.772496 0.414616 0.118237
0.818253 0.39164 0.170772
0.871999 0.39213 0.180251
0.872522 0.415785 0.115537
0.844287 0.415731 0.169345
0.918241 0.392604 0.167922
0.944271 0.416657 0.166493
0.971965 0.393132 0.17781
0.972386 0.41664 0.112764
0.768083 0.441077 0.170773
0.794153 0.418965 0.182232
0.817922 0.419725 0.117068
0.821771 0.441678 0.180764
0.868064 0.442161 0.168183
0.894217 0.420146 0.179277
0.917825 0.420735 0.114117
0.921923 0.442577 0.177981
0.994181 0.421015 0.17682
0.968021 0.443034 0.165433
0.76781 0.469321 0.117764
0.771775 0.491151 0.181888
0.794259 0.465194 0.169825
0.822441 0.465334 0.116056
0.818173 0.491671 0.169078
0.867778 0.470386 0.114933
0.844183 0.469503 0.179791
0.87178 0.492175 0.178835
0.894213 0.466215 0.167313
0.92237 0.466259 0.113357
0.944135 0.470467 0.177096
0.918074 0.492651 0.166242
0.994155 0.467086 0.164948
0.967705 0.471234 0.112263
0.971849 0.493029 0.176035
0.767827 0.391029 0.292585
0.822177 0.415178 0.238275
0.793997 0.414992 0.291454
0.867842 0.392042 0.290329
0.893988 0.416034 0.289083
0.922191 0.416195 0.23543
0.967961 0.392933 0.287606
0.767434 0.419209 0.239511
0.817712 0.441502 0.29077
0.86766 0.420229 0.236803
0.917741 0.442551 0.288174
0.943944 0.420466 0.299491
0.994041 0.416983 0.286333
0.967636 0.421228 0.234298
0.971745 0.442968 0.298218
0.772207 0.464549 0.238809
0.767677 0.490987 0.290903
0.817569 0.469598 0.237352
0.872042 0.465673 0.236118
0.84389 0.465524 0.289988
0.867658 0.491981 0.288659
0.917599 0.470564 0.234859
0.943973 0.466457 0.287095
0.92169 0.492428 0.298662
0.972059 0.466458 0.233332
0.96776 0.492829 0.285793
0.99387 0.470875 0.297058
0.772037 0.414409 0.36052
0.821708 0.39157 0.302931
0.871985 0.415418 0.358184
0.921741 0.392483 0.300153
0.972067 0.41623 0.355394
0.771704 0.440988 0.303867
0.817159 0.419524 0.359251
0.843982 0.41952 0.302067
0.871781 0.442121 0.30094
0.91729 0.420545 0.356637
0.767067 0.469189 0.359772
0.793863 0.46914 0.302813
0.821887 0.464919 0.358555
0.821711 0.491523 0.301237
0.867244 0.470103 0.357376
0.893915 0.47004 0.300012
0.921983 0.465901 0.356041
0.967297 0.470957 0.354898
0.77127 0.390862 0.425976
0.817465 0.391313 0.412222
0.822481 0.414158 0.48028
0.871558 0.391967 0.42339
0.84373 0.415256 0.410877
0.917549 0.39224 0.409405
0.943777 0.416148 0.408258
0.922631 0.415091 0.477858
0.971594 0.392803 0.420555
0.766287 0.419851 0.481483
0.767288 0.440884 0.412114
0.793665 0.418734 0.424978
0.821353 0.441346 0.423786
0.867424 0.441774 0.409721
0.866464 0.420694 0.479273
0.893828 0.41966 0.422405
0.921452 0.44228 0.420993
0.993799 0.420594 0.419669
0.967587 0.44266 0.407236
0.966587 0.421625 0.476396
0.772444 0.463764 0.480834
0.771172 0.490984 0.424359
0.793576 0.464842 0.411536
0.816323 0.470151 0.479635
0.817388 0.491335 0.410643
0.843649 0.46911 0.422804
0.872463 0.464681 0.478337
0.871367 0.491894 0.421732
0.8937 0.465691 0.409164
0.916521 0.471019 0.477226
0.943723 0.470159 0.420163
0.91755 0.492251 0.408304
0.971397 0.492757 0.419166
0.972548 0.465513 0.475696
0.993732 0.466578 0.406217
0.765832 0.390677 0.534231
0.793296 0.413332 0.533732
0.823685 0.391057 0.550029
0.866045 0.391391 0.532015
0.893388 0.414289 0.530989
0.923567 0.391934 0.547459
0.993411 0.415212 0.528341
0.966142 0.392311 0.528944
0.773625 0.440633 0.550508
0.815852 0.440957 0.532719
0.843357 0.421377 0.549527
0.873591 0.441551 0.548351
0.916036 0.441835 0.530385
0.943419 0.422262 0.546699
0.973523 0.442445 0.545827
0.765762 0.490613 0.532984
0.793298 0.47097 0.549858
0.823442 0.491016 0.548855
0.843273 0.463811 0.531633
0.865911 0.491424 0.530633
0.893353 0.47182 0.547335
0.943356 0.464747 0.529223
0.923523 0.492006 0.546332
0.993403 0.472734 0.544637
0.965954 0.492288 0.527791
0.773166 0.413572 0.610495
0.77396 0.390881 0.680222
0.816282 0.391198 0.661813
0.874039 0.391675 0.677766
0.843625 0.414003 0.660569
0.873283 0.414391 0.607832
0.916268 0.392057 0.659293
0.943599 0.414874 0.657782
0.973965 0.392587 0.675281
0.973236 0.415263 0.605174
0.766129 0.440787 0.662404
0.793642 0.421311 0.679428
0.816274 0.420741 0.609128
0.823858 0.441253 0.678167
0.866161 0.441582 0.659608
0.893643 0.422115 0.676732
0.916302 0.421626 0.606533
0.923872 0.442173 0.675527
0.993714 0.42305 0.674071
0.96625 0.442443 0.656529
0.76613 0.470346 0.609681
0.773646 0.490878 0.678748
0.793471 0.463628 0.66135
0.823147 0.464068 0.608407
0.815988 0.491221 0.660282
0.866186 0.471223 0.607361
0.843547 0.471781 0.677548
0.87382 0.491752 0.676492
0.89356 0.464506 0.658581
0.916175 0.492036 0.65779
0.923137 0.464985 0.605897
0.943591 0.472432 0.674832
0.993585 0.46534 0.655675
0.966412 0.472215 0.604637
0.973924 0.492578 0.673926
0.766496 0.3909 0.792188
0.823524 0.414181 0.737828
0.79379 0.413911 0.791148
0.866547 0.391737 0.789278
0.893892 0.414673 0.7881
0.923557 0.415094 0.73513
0.966515 0.392579 0.786128
0.993793 0.415514 0.785152
0.766611 0.420499 0.739636
0.816614 0.441359 0.789818
0.866561 0.421369 0.736635
0.91651 0.44225 0.786858
0.966647 0.422429 0.733847
0.773293 0.463723 0.73848
0.766475 0.49091 0.790636
0.816439 0.470979 0.737304
0.873312 0.464629 0.73577
0.86645 0.491833 0.787753
0.843753 0.464264 0.788704
0.91645 0.471977 0.734586
0.943796 0.465128 0.786004
0.973416 0.465393 0.733125
0.966441 0.492617 0.784788
0.773765 0.413831 0.868284
0.824066 0.391401 0.807404
0.873732 0.414874 0.865429
0.92416 0.39227 0.804894
0.973747 0.415629 0.862537
0.773914 0.441021 0.808411
0.816861 0.421046 0.866967
0.843919 0.421719 0.80693
0.873963 0.441971 0.805728
0.943935 0.4226 0.804092
0.916806 0.422034 0.863886
0.973897 0.442685 0.803157
0.766873 0.470708 0.867774
0.793794 0.471285 0.807249
0.823897 0.491468 0.806421
0.823519 0.464422 0.866205
0.866788 0.471777 0.864803
0.893817 0.472207 0.804789
0.923945 0.492328 0.803781
0.923789 0.465316 0.863294
0.993816 0.472866 0.802144
0.966741 0.47264 0.862026
0.774561 0.391039 0.937806
0.823115 0.415088 0.995739
0.81683 0.391483 0.92003
0.874528 0.392098 0.934981
0.844114 0.414497 0.918837
0.923172 0.416096 0.99276
0.916676 0.392429 0.916895
0.944095 0.41525 0.915901
0.974552 0.392959 0.9324
0.767713 0.419982 0.997351
0.766692 0.441013 0.920563
0.794052 0.421666 0.936912
0.824388 0.441609 0.935547
0.86761 0.421085 0.994253
0.866722 0.442051 0.917525
0.894065 0.422673 0.933995
0.924423 0.442478 0.932601
0.967509 0.422084 0.99166
0.994101 0.423584 0.931483
0.966689 0.442868 0.914705
0.773056 0.464542 0.996463
0.774494 0.491137 0.936471
0.817619 0.470477 0.995147
0.79402 0.463892 0.919443
0.816682 0.491565 0.91869
0.873077 0.465565 0.993446
0.844051 0.472139 0.934527
0.874412 0.492095 0.933662
0.894066 0.464926 0.916798
0.916716 0.492463 0.915853
0.917548 0.47141 0.992152
0.944085 0.473036 0.932137
0.974522 0.492946 0.931044
0.994057 0.465595 0.913808
0.97315 0.466381 0.99088
0.772416 0.541423 0.0601561
0.794476 0.515327 0.0475409
0.844293 0.52 0.0583994
0.894318 0.516421 0.0446036
0.94433 0.52098 0.0557929
0.994305 0.517058 0.0421388
0.794502 0.569553 0.0593081
0.818186 0.541985 0.0469718
0.844372 0.566029 0.045648
0.872083 0.542468 0.0572229
0.894334 0.570566 0.0564451
0.91807 0.542913 0.0438907
0.944356 0.566749 0.043291
0.972315 0.543315 0.0549292
0.994316 0.571388 0.0541791
0.768454 0.591457 0.0474807
0.822374 0.592116 0.0581019
0.794485 0.615682 0.0462934
0.868117 0.592588 0.0444992
0.844483 0.620293 0.0573431
0.894449 0.616375 0.0435168
0.922232 0.59285 0.0553555
0.944547 0.620954 0.054711
0.967923 0.593258 0.0418039
0.994414 0.61679 0.0411555
0.772589 0.514816 0.116973
0.768177 0.54123 0.169915
0.794143 0.519087 0.181107
0.817773 0.519806 0.11581
0.872373 0.515851 0.11415
0.844233 0.515791 0.167957
0.894114 0.520089 0.177998
0.91765 0.520786 0.112831
0.944182 0.516652 0.164928
0.994047 0.520916 0.175651
0.972465 0.516517 0.111487
0.767945 0.569369 0.116544
0.794328 0.565421 0.16886
0.822445 0.565607 0.115121
0.82183 0.54177 0.179625
0.867815 0.570488 0.113685
0.868063 0.542277 0.167247
0.844239 0.569655 0.178849
0.894189 0.5663 0.166162
0.92237 0.566231 0.112292
0.921844 0.542633 0.176789
0.944178 0.570566 0.176291
0.994232 0.566996 0.163607
0.967979 0.543077 0.163938
0.967793 0.571341 0.111248
0.772001 0.591303 0.180681
0.772691 0.615143 0.115804
0.81814 0.591877 0.168175
0.794284 0.619392 0.180034
0.8179 0.620097 0.114616
0.871897 0.592339 0.177765
0.844315 0.61612 0.166893
0.872563 0.615877 0.113159
0.894347 0.620212 0.177159
0.918094 0.592651 0.165086
0.917915 0.620889 0.111845
0.944375 0.616645 0.164042
0.971996 0.592992 0.175333
0.994343 0.620844 0.174813
0.972619 0.616554 0.110655
0.767503 0.51922 0.238312
0.822236 0.515279 0.236746
0.817795 0.541569 0.289648
0.793925 0.514979 0.290404
0.867598 0.520213 0.235506
0.893986 0.515996 0.287732
0.922022 0.51623 0.234091
0.94393 0.520384 0.297824
0.993971 0.516807 0.284797
0.96747 0.521137 0.232746
0.772338 0.564747 0.237573
0.817663 0.569695 0.23652
0.872155 0.565764 0.234988
0.844044 0.565759 0.288669
0.871671 0.542058 0.299782
0.893872 0.570077 0.298933
0.944058 0.566397 0.286154
0.917629 0.570535 0.2336
0.917743 0.542454 0.287069
0.972177 0.566363 0.232202
0.994006 0.570736 0.296016
0.971761 0.542814 0.296901
0.767866 0.591232 0.290022
0.767669 0.619581 0.237309
0.822245 0.615576 0.235722
0.794114 0.615371 0.289455
0.867766 0.592149 0.287429
0.867718 0.620448 0.234454
0.844068 0.619754 0.299616
0.894147 0.61605 0.286611
0.922356 0.616111 0.233169
0.921843 0.592324 0.297679
0.944151 0.620302 0.297032
0.967947 0.592718 0.284848
0.994145 0.616598 0.283974
0.967725 0.620976 0.231868
0.771989 0.514454 0.359221
0.771678 0.541118 0.302574
0.817147 0.519591 0.357963
0.843916 0.519502 0.300892
0.872058 0.515366 0.356618
0.917251 0.52034 0.355429
0.972029 0.516108 0.353882
0.767161 0.569305 0.358852
0.793898 0.569129 0.301694
0.821964 0.565064 0.357335
0.867269 0.570164 0.356249
0.921974 0.565867 0.354802
0.967432 0.570833 0.353433
0.772127 0.614651 0.358131
0.821764 0.59165 0.300272
0.817345 0.619657 0.356789
0.872282 0.615521 0.355482
0.917412 0.620341 0.354138
0.972259 0.615939 0.352846
0.766244 0.519773 0.480198
0.767277 0.54097 0.410896
0.793613 0.518775 0.423729
0.822536 0.514161 0.478998
0.821216 0.541343 0.42245
0.843613 0.515234 0.409305
0.866396 0.520711 0.477814
0.893815 0.519741 0.421067
0.943764 0.516059 0.406737
0.922555 0.515115 0.476563
0.993646 0.52061 0.418317
0.966458 0.521549 0.475194
0.772551 0.56392 0.479739
0.793703 0.564926 0.410466
0.816563 0.570076 0.47842
0.867374 0.541682 0.408477
0.872462 0.564719 0.477105
0.843757 0.569184 0.421737
0.893649 0.565735 0.407947
0.916542 0.570998 0.475883
0.921356 0.542266 0.419738
0.943828 0.569972 0.418794
0.99371 0.566365 0.40518
0.967401 0.54254 0.405816
0.972597 0.565276 0.474395
0.771223 0.591092 0.423437
0.76633 0.620158 0.47912
0.81752 0.591373 0.409323
0.793812 0.618927 0.422582
0.822704 0.614453 0.477649
0.871447 0.592009 0.42046
0.843886 0.61547 0.408384
0.866603 0.620769 0.47654
0.894008 0.619701 0.419913
0.917604 0.592171 0.406963
0.943902 0.616043 0.405471
0.922758 0.615103 0.475141
0.971512 0.592598 0.418051
0.994029 0.620343 0.417242
0.966654 0.621392 0.473853
0.773463 0.540722 0.549326
0.793204 0.513381 0.532051
0.815878 0.540938 0.531647
0.843283 0.521428 0.548285
0.873414 0.541543 0.547238
0.893244 0.514201 0.529754
0.943333 0.522185 0.545604
0.993253 0.515131 0.527105
0.793384 0.571079 0.548614
0.843349 0.563949 0.530678
0.915926 0.541831 0.529071
0.89337 0.571795 0.546254
0.943353 0.564654 0.52825
0.97358 0.542381 0.544675
0.993419 0.572709 0.543464
0.765813 0.590774 0.531431
0.823612 0.591213 0.547644
0.793372 0.613608 0.530521
0.865989 0.591505 0.529652
0.8435 0.621509 0.546716
0.893426 0.614275 0.528458
0.923616 0.591896 0.544914
0.943567 0.622158 0.544196
0.966096 0.592218 0.526436
0.993491 0.61498 0.525634
0.77318 0.513729 0.609004
0.766006 0.540944 0.661095
0.793445 0.521345 0.678064
0.816149 0.520835 0.607867
0.823677 0.541327 0.676896
0.873028 0.514479 0.606733
0.843462 0.51404 0.659383
0.86606 0.541614 0.658316
0.893485 0.522122 0.675571
0.916126 0.521559 0.60535
0.943479 0.514881 0.656838
0.993617 0.522905 0.673034
0.973113 0.515151 0.604042
0.766245 0.570561 0.608144
0.793468 0.563806 0.660117
0.823088 0.564248 0.607355
0.866228 0.571287 0.60625
0.843511 0.571766 0.676466
0.893494 0.564452 0.657843
0.923091 0.564888 0.604722
0.923751 0.542068 0.674397
0.943569 0.57246 0.673662
0.993488 0.565239 0.654801
0.966218 0.542371 0.655202
0.966305 0.572183 0.603366
0.773766 0.591088 0.677304
0.773267 0.613934 0.607534
0.81616 0.59137 0.65923
0.793551 0.621588 0.676744
0.816337 0.621025 0.606243
0.873822 0.59185 0.675417
0.873427 0.614541 0.605452
0.84359 0.614301 0.657906
0.916117 0.592101 0.656737
0.893709 0.622269 0.674712
0.916355 0.621657 0.604025
0.943644 0.614914 0.655263
0.97374 0.592468 0.672569
0.993729 0.622837 0.671873
0.973383 0.615049 0.602578
0.766394 0.520602 0.737991
0.793674 0.513889 0.789455
0.82327 0.514311 0.736561
0.816291 0.541475 0.788688
0.866392 0.521498 0.735415
0.893647 0.514705 0.786984
0.923295 0.515143 0.734134
0.99368 0.515438 0.784209
0.966412 0.522413 0.732697
0.773223 0.564062 0.737139
0.816427 0.57108 0.73594
0.87328 0.564649 0.734697
0.84368 0.564441 0.787558
0.916307 0.542297 0.786111
0.916497 0.57181 0.733429
0.943701 0.565079 0.785036
0.973376 0.565318 0.731791
0.766568 0.62087 0.736365
0.766399 0.591141 0.789189
0.823313 0.614451 0.735376
0.793756 0.614078 0.788228
0.866415 0.591929 0.786359
0.866448 0.62173 0.733992
0.893756 0.614703 0.785767
0.923498 0.615085 0.732691
0.966443 0.592658 0.783534
0.993716 0.615345 0.782498
0.966564 0.622417 0.731252
0.773704 0.513942 0.866975
0.773843 0.541093 0.807031
0.816707 0.521352 0.865625
0.843647 0.521804 0.805817
0.87358 0.514959 0.864295
0.916605 0.522178 0.862837
0.943753 0.522605 0.802797
0.973646 0.51573 0.861478
0.766893 0.570867 0.866389
0.823634 0.564669 0.864861
0.793674 0.571452 0.806115
0.873829 0.541955 0.804546
0.866734 0.571839 0.863705
0.893684 0.572316 0.803878
0.923633 0.56535 0.862392
0.973908 0.542716 0.801962
0.993796 0.572978 0.800618
0.966763 0.572592 0.860865
0.773802 0.614298 0.865806
0.82377 0.591585 0.805201
0.816735 0.621489 0.864667
0.843813 0.62186 0.804503
0.873697 0.615078 0.863177
0.92389 0.592359 0.802373
0.943855 0.622525 0.801603
0.916765 0.622187 0.861702
0.973779 0.615632 0.86019
0.767672 0.520131 0.995899
0.766661 0.541164 0.919152
0.823143 0.515225 0.994377
0.793999 0.521764 0.935775
0.867425 0.52115 0.992971
0.843963 0.514499 0.917514
0.893985 0.522729 0.932941
0.923146 0.516167 0.991594
0.944052 0.515371 0.914734
0.967435 0.522101 0.990415
0.994049 0.523494 0.93027
0.773216 0.564759 0.9951
0.817597 0.570735 0.994066
0.794078 0.564072 0.918151
0.824408 0.541742 0.93448
0.873031 0.565686 0.992579
0.866647 0.542204 0.91668
0.844012 0.572387 0.933596
0.894019 0.565045 0.915757
0.917502 0.571477 0.991116
0.924403 0.542576 0.931479
0.944057 0.573136 0.930731
0.973082 0.566379 0.989841
0.993934 0.565501 0.912754
0.96663 0.542835 0.913649
0.767712 0.620364 0.994748
0.774475 0.591357 0.935322
0.823302 0.615517 0.99324
0.816577 0.591751 0.917801
0.794101 0.622046 0.934485
0.867598 0.62142 0.99187
0.874429 0.592299 0.932673
0.843954 0.614705 0.916182
0.916616 0.592573 0.91467
0.894157 0.622816 0.931817
0.923227 0.616084 0.990584
0.944138 0.615187 0.913458
0.994076 0.623492 0.92901
0.974472 0.592958 0.92977
0.967559 0.621986 0.989159
0.772338 0.641837 0.0593822
0.818116 0.642247 0.0456942
0.872525 0.642532 0.0565145
0.844569 0.666054 0.0449997
0.918121 0.642865 0.0428731
0.944596 0.666454 0.0425773
0.972544 0.6431 0.0536879
0.76822 0.691944 0.0459035
0.794383 0.670025 0.0584361
0.822564 0.69231 0.057442
0.868186 0.692582 0.0435996
0.894489 0.670671 0.0555934
0.922631 0.692762 0.0545758
0.994426 0.671094 0.0527049
0.968097 0.692983 0.0407094
0.772135 0.741831 0.0611499
0.794645 0.715818 0.0453156
0.817827 0.741924 0.0446444
0.844795 0.720425 0.0592327
0.872741 0.742038 0.0577847
0.894671 0.715874 0.0420628
0.944669 0.720764 0.05603
0.91772 0.742163 0.0415499
0.994476 0.716189 0.038738
0.972634 0.742308 0.0546489
0.768396 0.641541 0.168611
0.821946 0.642074 0.178505
0.794387 0.665885 0.16828
0.82248 0.665849 0.114215
0.868257 0.642323 0.165952
0.894494 0.66627 0.165645
0.922243 0.642614 0.176084
0.922532 0.666225 0.111596
0.968205 0.642911 0.163406
0.994417 0.666665 0.162992
0.767949 0.670089 0.115735
0.772131 0.691927 0.18058
0.818555 0.692204 0.167452
0.844454 0.669697 0.177889
0.868118 0.67071 0.112977
0.87236 0.692442 0.177305
0.944526 0.670494 0.175039
0.918484 0.692692 0.164622
0.968061 0.671122 0.110158
0.972471 0.692831 0.174561
0.773242 0.71519 0.115178
0.76788 0.741875 0.166086
0.794486 0.719931 0.181263
0.817602 0.720326 0.114261
0.822594 0.742082 0.179257
0.873532 0.71571 0.11282
0.844817 0.716201 0.165681
0.868263 0.742131 0.164823
0.894747 0.720329 0.178539
0.944742 0.71634 0.162411
0.917334 0.720791 0.111413
0.922793 0.742294 0.176595
0.994461 0.720783 0.175715
0.973343 0.71593 0.109931
0.96788 0.742524 0.161675
0.772383 0.665219 0.236655
0.818042 0.641932 0.288656
0.872422 0.66595 0.233993
0.872046 0.642154 0.298609
0.844371 0.665987 0.287956
0.918118 0.64244 0.285834
0.944371 0.666389 0.285264
0.972347 0.666348 0.231417
0.972 0.642595 0.296095
0.7681 0.691936 0.288965
0.817975 0.670023 0.235632
0.822166 0.692098 0.299389
0.868344 0.69232 0.287025
0.894379 0.670054 0.297752
0.918108 0.670677 0.232706
0.922307 0.692586 0.296999
0.968273 0.692731 0.284333
0.994317 0.670463 0.29534
0.767367 0.720509 0.236657
0.79451 0.716134 0.288173
0.823228 0.71566 0.235056
0.818268 0.742125 0.287114
0.867603 0.720599 0.234243
0.872865 0.742386 0.299004
0.894776 0.716274 0.285047
0.923477 0.716068 0.232552
0.918279 0.742424 0.28478
0.944683 0.720491 0.298515
0.994571 0.716474 0.282279
0.967326 0.720822 0.231396
0.9727 0.742537 0.296171
0.771922 0.641468 0.301779
0.822203 0.665521 0.356342
0.922212 0.665941 0.353711
0.767335 0.669893 0.357603
0.794169 0.669525 0.30106
0.867905 0.670153 0.355074
0.967775 0.670695 0.352572
0.772869 0.715431 0.357296
0.772265 0.742071 0.302032
0.817432 0.720278 0.356132
0.844636 0.720157 0.300625
0.873368 0.715881 0.354767
0.917269 0.720699 0.353924
0.973401 0.716074 0.352281
0.767551 0.641188 0.409613
0.772695 0.664085 0.478051
0.82145 0.641659 0.421038
0.793969 0.665469 0.409097
0.867738 0.641844 0.407385
0.872673 0.66478 0.475764
0.894208 0.665845 0.407274
0.921696 0.642177 0.418325
0.967694 0.642372 0.404483
0.994067 0.666197 0.404535
0.972739 0.665268 0.473357
0.771503 0.691777 0.422644
0.816977 0.670418 0.477124
0.818209 0.691937 0.408379
0.844202 0.669255 0.420172
0.871948 0.692188 0.419582
0.944241 0.669822 0.417741
0.917116 0.670885 0.474603
0.918116 0.692358 0.406133
0.972 0.692669 0.417191
0.766726 0.721183 0.477911
0.767842 0.74196 0.407708
0.794652 0.719769 0.423273
0.824263 0.715193 0.476703
0.822855 0.742107 0.421373
0.844633 0.715948 0.405926
0.866548 0.72127 0.475583
0.868191 0.742432 0.406116
0.894648 0.7201 0.421213
0.924251 0.715747 0.474037
0.944573 0.716233 0.403574
0.922835 0.742629 0.419005
0.994369 0.720598 0.418732
0.966222 0.721498 0.47318
0.967732 0.74262 0.403397
0.773751 0.641092 0.54815
0.816115 0.641276 0.530204
0.873744 0.641604 0.54583
0.84371 0.664062 0.529421
0.916309 0.641804 0.527609
0.943759 0.664685 0.527266
0.97383 0.642173 0.543281
0.766182 0.691204 0.529679
0.793624 0.671556 0.547375
0.824194 0.691537 0.545927
0.866599 0.691749 0.528053
0.8938 0.671908 0.544332
0.924073 0.692144 0.543025
0.993792 0.672469 0.542139
0.966466 0.692236 0.525819
0.775124 0.741481 0.54824
0.794328 0.714104 0.527399
0.816737 0.741628 0.528653
0.844412 0.722121 0.548185
0.87515 0.742028 0.545311
0.894321 0.714736 0.524645
0.916626 0.74214 0.526189
0.944211 0.722582 0.545383
0.993967 0.715035 0.522051
0.974887 0.742393 0.542887
0.766053 0.641237 0.659019
0.823863 0.641489 0.675414
0.793617 0.664179 0.658817
0.823169 0.664371 0.605709
0.866368 0.641724 0.656747
0.893866 0.664573 0.656416
0.924017 0.642138 0.673109
0.923232 0.664883 0.603095
0.966426 0.642351 0.653934
0.993779 0.665098 0.653935
0.766241 0.671207 0.606771
0.773865 0.691696 0.675862
0.816535 0.691709 0.657693
0.866687 0.671381 0.604431
0.843818 0.671904 0.674407
0.874139 0.692107 0.672842
0.916628 0.692287 0.655132
0.943856 0.672453 0.671753
0.966697 0.672031 0.601975
0.974063 0.692641 0.670446
0.774384 0.714753 0.605753
0.766322 0.741603 0.657054
0.794174 0.722113 0.677936
0.815963 0.721423 0.605119
0.82484 0.741574 0.676254
0.874941 0.715044 0.60319
0.844197 0.714529 0.653785
0.86645 0.74196 0.654435
0.915937 0.722041 0.602664
0.894357 0.722559 0.675341
0.944201 0.71502 0.651182
0.925068 0.742165 0.673617
0.974602 0.715552 0.600939
0.994009 0.723242 0.672955
0.966201 0.742504 0.652374
0.773433 0.664023 0.735407
0.816406 0.64163 0.787769
0.873267 0.664766 0.732894
0.843931 0.664369 0.786991
0.916452 0.642183 0.784571
0.943866 0.66506 0.784272
0.973284 0.66524 0.730162
0.766531 0.691408 0.786982
0.816769 0.671115 0.734507
0.86665 0.692064 0.785142
0.916806 0.671739 0.731911
0.9666 0.692509 0.782109
0.993854 0.672841 0.798784
0.766382 0.721876 0.735831
0.794308 0.714197 0.784571
0.824932 0.714699 0.733771
0.816575 0.741586 0.786183
0.865922 0.722003 0.732111
0.89413 0.714714 0.781478
0.916249 0.742166 0.782655
0.92465 0.715287 0.731062
0.993894 0.715104 0.77873
0.965679 0.722423 0.729715
0.773879 0.641337 0.805826
0.823494 0.664776 0.86357
0.874104 0.642075 0.803162
0.923477 0.665128 0.860928
0.974051 0.642618 0.800317
0.766945 0.671184 0.865055
0.79379 0.671724 0.804257
0.824235 0.691761 0.803154
0.866992 0.671839 0.862362
0.893909 0.672312 0.801501
0.924043 0.692422 0.800728
0.96694 0.672381 0.859662
0.774629 0.714415 0.864203
0.774715 0.741424 0.807052
0.815985 0.721444 0.862918
0.874956 0.714795 0.861482
0.844368 0.722115 0.805893
0.874864 0.74186 0.803725
0.915975 0.722054 0.860063
0.944205 0.7227 0.803071
0.974816 0.715294 0.858468
0.974721 0.742302 0.801186
0.773268 0.665107 0.993953
0.766636 0.641431 0.918132
0.824516 0.642022 0.933153
0.794074 0.664292 0.917474
0.873083 0.66572 0.991508
0.866565 0.642287 0.915215
0.894225 0.664687 0.915193
0.924793 0.642565 0.930682
0.973083 0.66608 0.988536
0.966613 0.642799 0.911989
0.994096 0.665131 0.91242
0.774574 0.691754 0.933964
0.817675 0.670907 0.993132
0.816757 0.691975 0.916408
0.844187 0.672539 0.931936
0.874719 0.692228 0.931018
0.917726 0.671576 0.990359
0.944191 0.673126 0.929211
0.916762 0.692502 0.913329
0.974763 0.692811 0.928463
0.767038 0.721184 0.994354
0.766111 0.741545 0.916007
0.82406 0.715117 0.992655
0.794292 0.722346 0.935987
0.824939 0.741604 0.93407
0.866789 0.721255 0.991099
0.844318 0.71452 0.913066
0.866233 0.741776 0.913137
0.894316 0.72279 0.93287
0.924062 0.715507 0.989535
0.944305 0.714885 0.91013
0.925164 0.741973 0.931123
0.966235 0.742273 0.909724
0.966556 0.721658 0.987875
0.99426 0.723345 0.929741
0.793629 0.769202 0.0490827
0.843898 0.765458 0.0623758
0.893978 0.769496 0.0459968
0.943999 0.765818 0.0594933
0.993753 0.769788 0.0423274
0.765685 0.791903 0.0508047
0.819869 0.79169 0.0635841
0.79335 0.815614 0.0654489
0.866113 0.791822 0.0488254
0.843592 0.819436 0.0514431
0.893543 0.815795 0.0629724
0.919905 0.791987 0.0607857
0.943592 0.819915 0.0481082
0.966033 0.792281 0.0459405
0.993543 0.816423 0.0595396
0.769305 0.841876 0.0690962
0.792991 0.869482 0.0546097
0.81585 0.84184 0.0531531
0.869722 0.841934 0.0648396
0.843387 0.865725 0.0662018
0.893321 0.869724 0.0515403
0.91587 0.842147 0.0500355
0.943317 0.866384 0.062927
0.993366 0.870106 0.0484477
0.969655 0.842432 0.0613928
0.770647 0.77084 0.116443
0.793653 0.766028 0.184176
0.815322 0.765255 0.115318
0.871089 0.770365 0.1137
0.843978 0.769843 0.169083
0.915454 0.765393 0.112353
0.894046 0.766141 0.181351
0.943968 0.770172 0.166015
0.993839 0.766509 0.177856
0.970976 0.770733 0.110579
0.769073 0.791907 0.186439
0.764987 0.81461 0.11842
0.81589 0.792058 0.171957
0.793135 0.819671 0.174131
0.819955 0.819845 0.116982
0.869995 0.792214 0.183005
0.843509 0.816066 0.18434
0.865346 0.815244 0.115628
0.915931 0.792371 0.168982
0.893506 0.820049 0.171006
0.920104 0.820309 0.114054
0.943446 0.816474 0.181197
0.969832 0.792549 0.179595
0.993351 0.820517 0.167353
0.965158 0.815756 0.112335
0.765317 0.842076 0.174123
0.769678 0.870742 0.120352
0.819304 0.842036 0.185464
0.815071 0.865476 0.118811
0.793057 0.866035 0.187523
0.865618 0.842187 0.17262
0.843139 0.869899 0.1746
0.869963 0.870425 0.117577
0.893206 0.86636 0.184878
0.915032 0.865788 0.115644
0.919486 0.842531 0.182895
0.94318 0.870529 0.171293
0.993096 0.867 0.181456
0.965597 0.842662 0.169561
0.969953 0.870872 0.1142
0.765095 0.764911 0.237377
0.82091 0.770452 0.235906
0.793954 0.76982 0.291576
0.865618 0.765654 0.234708
0.89411 0.770185 0.28892
0.921049 0.770617 0.233183
0.993678 0.770227 0.285713
0.96551 0.766058 0.231793
0.769932 0.820793 0.239615
0.765732 0.791996 0.292893
0.815284 0.815689 0.237933
0.870022 0.820614 0.236605
0.866108 0.792442 0.291492
0.843446 0.82009 0.293737
0.915401 0.816184 0.234929
0.943342 0.82061 0.290678
0.969874 0.820772 0.233211
0.965836 0.792833 0.288632
0.764905 0.864954 0.241282
0.819533 0.870086 0.239816
0.793031 0.870035 0.297023
0.815479 0.842193 0.295869
0.864962 0.865844 0.238259
0.893101 0.870468 0.294129
0.915595 0.842866 0.292548
0.919633 0.870833 0.236581
0.964993 0.866442 0.234931
0.993049 0.870724 0.290307
0.770959 0.770751 0.358052
0.815684 0.765681 0.35717
0.844032 0.766336 0.303393
0.87107 0.770848 0.355591
0.915698 0.76619 0.354505
0.944007 0.766591 0.300589
0.970785 0.771118 0.352715
0.765251 0.814909 0.360486
0.81989 0.792272 0.304961
0.793232 0.816079 0.306771
0.81993 0.820216 0.359261
0.865307 0.816051 0.357615
0.893504 0.816694 0.303778
0.919836 0.792692 0.302127
0.919907 0.820911 0.356245
0.993143 0.817037 0.300285
0.965166 0.816664 0.354522
0.769331 0.842216 0.309747
0.769945 0.871048 0.362669
0.814894 0.865942 0.360872
0.869371 0.842554 0.305662
0.843095 0.866337 0.307305
0.869567 0.870835 0.359357
0.914844 0.8664 0.357839
0.943022 0.86715 0.303749
0.969157 0.843027 0.302135
0.969533 0.871243 0.356178
0.76431 0.764339 0.47947
0.793811 0.765924 0.42693
0.82134 0.771064 0.478336
0.844002 0.770332 0.411201
0.865018 0.765779 0.476859
0.894024 0.7667 0.423436
0.943936 0.770677 0.408281
0.92118 0.771546 0.475703
0.993514 0.766675 0.421159
0.964601 0.76619 0.474354
0.769603 0.791759 0.428586
0.770456 0.821248 0.482031
0.815791 0.792286 0.414493
0.793118 0.819965 0.416518
0.814548 0.815491 0.480384
0.87007 0.792764 0.425637
0.843352 0.816451 0.42699
0.870185 0.821498 0.479059
0.915892 0.792901 0.411392
0.893414 0.820839 0.413265
0.914712 0.816288 0.477231
0.943288 0.81704 0.423888
0.969662 0.793097 0.42239
0.993014 0.820943 0.410118
0.969988 0.821817 0.475988
0.765397 0.84218 0.416291
0.764217 0.864046 0.484373
0.793004 0.865921 0.430926
0.819342 0.84233 0.42846
0.819969 0.870794 0.482306
0.865324 0.842669 0.414925
0.842938 0.870345 0.416453
0.864131 0.865656 0.480777
0.892953 0.866699 0.427657
0.919507 0.843191 0.425842
0.942957 0.871112 0.413415
0.919951 0.871705 0.479311
0.992844 0.867191 0.424025
0.965261 0.843201 0.41215
0.964249 0.866528 0.477757
0.762782 0.791424 0.5385
0.7938 0.772299 0.537792
0.844171 0.764441 0.555094
0.89395 0.772813 0.534981
0.943942 0.76503 0.55253
0.993515 0.773076 0.532218
0.821292 0.791883 0.555197
0.79321 0.814335 0.558
0.863438 0.792241 0.537581
0.843394 0.822732 0.539305
0.893536 0.815236 0.554079
0.921231 0.79243 0.552278
0.943341 0.823232 0.536591
0.963177 0.792694 0.534488
0.993234 0.815887 0.551542
0.770708 0.841507 0.562107
0.793127 0.872224 0.543241
0.812715 0.841838 0.541861
0.87064 0.842372 0.556296
0.84328 0.864728 0.558004
0.912997 0.842701 0.538315
0.893202 0.872942 0.539519
0.943315 0.865619 0.55498
0.993125 0.873374 0.536644
0.970507 0.842956 0.55292
0.771041 0.771807 0.608659
0.770747 0.791359 0.690085
0.793826 0.764086 0.686017
0.814363 0.764442 0.607389
0.813635 0.791601 0.668333
0.871769 0.771844 0.606087
0.843911 0.771982 0.665226
0.914067 0.765097 0.604945
0.894056 0.764389 0.683575
0.943821 0.772582 0.662073
0.993685 0.764968 0.681105
0.97141 0.772376 0.6033
0.762988 0.81267 0.611886
0.793253 0.821374 0.670712
0.820724 0.821182 0.60932
0.871215 0.791906 0.683574
0.863986 0.815127 0.607926
0.843696 0.814544 0.685061
0.913598 0.792226 0.665087
0.893629 0.822331 0.666979
0.920714 0.822123 0.606286
0.943623 0.815243 0.68241
0.971104 0.792482 0.680711
0.99336 0.822971 0.663777
0.9637 0.815677 0.604983
0.763185 0.841441 0.669241
0.770744 0.872153 0.613738
0.793357 0.864302 0.689472
0.820695 0.841511 0.686223
0.813621 0.864656 0.611324
0.870551 0.87194 0.609911
0.863403 0.842033 0.668688
0.843314 0.871947 0.670164
0.913555 0.865383 0.608216
0.893504 0.864959 0.685858
0.920815 0.842354 0.683549
0.943308 0.872762 0.666969
0.993439 0.865647 0.682663
0.970525 0.872593 0.606846
0.963262 0.842655 0.665507
0.763689 0.762763 0.737514
0.762924 0.791279 0.795513
0.821775 0.771018 0.736932
0.793643 0.771704 0.79575
0.86419 0.764371 0.735014
0.893857 0.772311 0.792439
0.921715 0.771828 0.733863
0.9638 0.765002 0.732425
0.993653 0.772734 0.78957
0.770679 0.822048 0.740978
0.814166 0.814344 0.738996
0.870729 0.821591 0.737015
0.863515 0.791812 0.794687
0.843602 0.821931 0.797191
0.91411 0.815025 0.735322
0.943586 0.82261 0.794321
0.970714 0.822216 0.734086
0.963383 0.792375 0.792185
0.763615 0.863056 0.742875
0.820791 0.870763 0.740844
0.81316 0.841448 0.799953
0.863677 0.864547 0.739036
0.913431 0.842064 0.796064
0.893427 0.872151 0.797433
0.920813 0.871848 0.737445
0.963791 0.86532 0.735724
0.993415 0.872791 0.794164
0.770323 0.77177 0.866531
0.821071 0.791505 0.814674
0.814081 0.763845 0.865501
0.844069 0.763996 0.814058
0.871885 0.771557 0.863995
0.91408 0.7644 0.862347
0.943987 0.764512 0.811132
0.971611 0.772062 0.861071
0.762865 0.812522 0.869754
0.793337 0.814026 0.817051
0.820825 0.820976 0.867739
0.86415 0.814387 0.866117
0.893716 0.814659 0.812609
0.92124 0.792003 0.811075
0.920997 0.82152 0.864518
0.993622 0.815365 0.80982
0.964135 0.815045 0.862985
0.770489 0.841266 0.821899
0.770435 0.872042 0.871525
0.793237 0.871487 0.801417
0.814084 0.864417 0.869329
0.870898 0.841742 0.814466
0.843546 0.864298 0.816579
0.870764 0.87135 0.86799
0.913871 0.864744 0.866444
0.943561 0.864991 0.813486
0.97077 0.842311 0.811517
0.970926 0.871891 0.864883
0.764003 0.763411 0.995543
0.770886 0.791386 0.947258
0.82149 0.77042 0.994146
0.793718 0.763923 0.943009
0.813564 0.791372 0.925285
0.864822 0.764041 0.992807
0.843951 0.771788 0.922728
0.871433 0.79152 0.941792
0.89415 0.763795 0.940448
0.921673 0.77082 0.991123
0.943987 0.772286 0.919587
0.964686 0.764616 0.989657
0.994018 0.764503 0.937496
0.770099 0.821612 0.998013
0.814724 0.814602 0.996021
0.793319 0.821427 0.92779
0.870708 0.820815 0.994729
0.843874 0.814032 0.942917
0.914705 0.814782 0.993208
0.913681 0.791778 0.922438
0.893769 0.821973 0.924564
0.943842 0.814603 0.939844
0.970687 0.821223 0.991517
0.971288 0.792019 0.93824
0.993737 0.822546 0.92137
0.762921 0.841437 0.926553
0.764022 0.863698 0.999349
0.820442 0.870379 0.998175
0.793384 0.86429 0.946274
0.820792 0.841391 0.943896
0.864421 0.864585 0.99675
0.863459 0.841589 0.92609
0.843557 0.871774 0.927766
0.893671 0.864536 0.94351
0.920631 0.871052 0.99485
0.92109 0.84178 0.941361
0.943577 0.872331 0.924673
0.963524 0.842183 0.923185
0.964498 0.865447 0.99348
0.993683 0.865178 0.940624
0.765029 0.891884 0.0542021
0.792783 0.915805 0.0682339
0.819425 0.891788 0.0671166
0.865635 0.891965 0.0534471
0.893125 0.916384 0.065573
0.919432 0.892374 0.0643692
0.965703 0.892642 0.0503441
0.769648 0.921492 0.00112242
0.768983 0.94206 0.0716953
0.815354 0.942149 0.0570301
0.843104 0.919525 0.0553258
0.869024 0.942422 0.0679034
0.91544 0.942711 0.0536754
0.943103 0.920143 0.0523065
0.993177 0.917135 0.0628065
0.969111 0.943098 0.0649148
0.764323 0.991823 0.0568135
0.762848 0.964269 0.00275112
0.792558 0.969936 0.0557254
0.819392 0.992192 0.0710539
0.820776 0.970945 0.0013421
0.864501 0.992476 0.0557456
0.84271 0.96608 0.0707751
0.863133 0.965397 1.18496e-04
0.892647 0.970349 0.0531507
0.919201 0.992805 0.0682875
0.942695 0.966838 0.0676312
0.964598 0.9931 0.0527563
0.992819 0.970865 0.0505734
0.764767 0.914672 0.121691
0.769082 0.892101 0.190426
0.815325 0.892045 0.176343
0.86912 0.892422 0.186568
0.864965 0.915767 0.119032
0.842869 0.91615 0.187536
0.91537 0.892614 0.173044
0.969181 0.892976 0.183293
0.964929 0.916433 0.116053
0.764834 0.942072 0.177529
0.792818 0.919764 0.177708
0.819325 0.919834 0.120313
0.818854 0.942217 0.18857
0.864907 0.942488 0.175863
0.892953 0.920317 0.174818
0.919548 0.920668 0.117485
0.942957 0.916883 0.184732
0.918808 0.942873 0.185937
0.993037 0.920692 0.171319
0.965151 0.943079 0.173115
0.770255 0.970808 0.123232
0.769169 0.991988 0.195016
0.792505 0.966197 0.191823
0.814628 0.992091 0.178515
0.813945 0.965619 0.122051
0.86911 0.992361 0.190555
0.84263 0.97025 0.175857
0.870004 0.970783 0.120532
0.914603 0.992692 0.175492
0.892534 0.96657 0.189162
0.913965 0.966292 0.119071
0.942652 0.970826 0.17318
0.968963 0.993139 0.187711
0.992737 0.967528 0.185634
0.969959 0.971566 0.117499
0.76512 0.892125 0.296926
0.814857 0.915918 0.241387
0.865156 0.892542 0.295692
0.914946 0.916433 0.238529
0.965456 0.893171 0.29254
0.769461 0.920915 0.242858
0.814848 0.94232 0.299038
0.869246 0.92067 0.239899
0.842776 0.920217 0.297366
0.914878 0.942898 0.295773
0.942923 0.92065 0.29441
0.969486 0.921246 0.236687
0.763848 0.964817 0.244543
0.819873 0.970225 0.242852
0.792535 0.970219 0.298455
0.863859 0.965806 0.241487
0.864458 0.99215 0.297947
0.892474 0.970494 0.295253
0.919818 0.970928 0.239793
0.964178 0.966553 0.238391
0.964713 0.992929 0.294643
0.992821 0.971367 0.292768
0.764897 0.914624 0.36444
0.819159 0.892277 0.308228
0.792815 0.916093 0.310106
0.864739 0.915968 0.361339
0.919068 0.892933 0.30553
0.769142 0.942261 0.313621
0.819382 0.920321 0.362622
0.868732 0.942597 0.309132
0.892741 0.9167 0.307042
0.919248 0.92119 0.359386
0.964967 0.91674 0.357918
0.992999 0.917299 0.303628
0.968899 0.943333 0.30594
0.764284 0.991723 0.300113
0.770459 0.970783 0.366207
0.819335 0.991935 0.312696
0.813725 0.965475 0.36443
0.842509 0.966112 0.311531
0.869933 0.970699 0.362846
0.913729 0.965833 0.361049
0.919054 0.992565 0.309841
0.942629 0.966921 0.308211
0.970038 0.971551 0.359745
0.769612 0.892011 0.434111
0.815007 0.892252 0.418781
0.81439 0.915362 0.484172
0.869172 0.892615 0.429592
0.842751 0.915935 0.430667
0.914996 0.892996 0.415394
0.91431 0.916005 0.480946
0.969113 0.893284 0.425974
0.764651 0.94202 0.419753
0.770064 0.921375 0.485745
0.792785 0.920146 0.420575
0.819182 0.94227 0.431957
0.864537 0.942546 0.418871
0.869531 0.921233 0.482534
0.892716 0.920727 0.417121
0.942792 0.916832 0.426677
0.918926 0.942936 0.429477
0.992877 0.921247 0.413997
0.964782 0.943312 0.415077
0.969568 0.921901 0.479097
0.769799 0.991423 0.43851
0.763498 0.963367 0.488547
0.792549 0.965457 0.43563
0.814454 0.991639 0.421167
0.820929 0.970435 0.486383
0.869404 0.992044 0.43399
0.84257 0.970309 0.417825
0.863181 0.96506 0.484654
0.914439 0.992313 0.416812
0.892558 0.966076 0.432164
0.94254 0.970993 0.414897
0.920576 0.971489 0.482915
0.963213 0.965804 0.481075
0.969563 0.992736 0.430595
0.992817 0.966907 0.42872
0.762731 0.891732 0.542921
0.793079 0.91432 0.56047
0.820579 0.891882 0.558655
0.862581 0.892188 0.54159
0.892981 0.914892 0.557099
0.920481 0.892708 0.556538
0.962722 0.892954 0.53824
0.993118 0.915556 0.554032
0.77064 0.941542 0.566344
0.812532 0.941808 0.54609
0.843041 0.922495 0.543956
0.870209 0.942216 0.560446
0.912487 0.942542 0.542035
0.94307 0.923195 0.540536
0.97038 0.942949 0.556802
0.762443 0.99108 0.547065
0.792908 0.971965 0.544605
0.821159 0.99149 0.563403
0.842888 0.96442 0.564609
0.861989 0.991707 0.543685
0.892744 0.972761 0.541372
0.920744 0.992083 0.56119
0.942894 0.965125 0.560759
0.962202 0.992322 0.540523
0.992972 0.97338 0.53816
0.763972 0.913058 0.616265
0.770641 0.891399 0.694342
0.813166 0.89154 0.672828
0.863725 0.91463 0.612081
0.870573 0.891813 0.687894
0.843347 0.914464 0.688816
0.913059 0.892372 0.668694
0.943329 0.915211 0.685013
0.963848 0.915487 0.608656
0.97055 0.892626 0.684212
0.76327 0.941703 0.673537
0.793215 0.921484 0.675467
0.820383 0.920756 0.613659
0.820336 0.941781 0.690163
0.862978 0.942014 0.672933
0.893146 0.922319 0.671654
0.920257 0.922077 0.610267
0.920323 0.942361 0.688179
0.99338 0.922924 0.668287
0.963136 0.942718 0.669787
0.77148 0.972195 0.618385
0.770196 0.991336 0.69985
0.812333 0.96452 0.615705
0.812018 0.991456 0.674086
0.792873 0.964405 0.696364
0.871231 0.971824 0.614512
0.842793 0.972138 0.671584
0.870622 0.991768 0.692413
0.912361 0.964883 0.612414
0.912218 0.992005 0.670993
0.892966 0.964811 0.692827
0.942865 0.972701 0.668542
0.971266 0.972638 0.611249
0.993184 0.965341 0.689251
0.970798 0.992362 0.689483
0.76303 0.89147 0.799788
0.814226 0.914389 0.742796
0.863032 0.891748 0.799163
0.91398 0.914908 0.739651
0.963125 0.892418 0.795951
0.770287 0.922351 0.744562
0.870307 0.921474 0.741248
0.943286 0.9225 0.798291
0.970424 0.922096 0.737876
0.762396 0.96328 0.747833
0.821401 0.971239 0.744935
0.862269 0.964693 0.743267
0.892859 0.972462 0.798742
0.921287 0.972148 0.741768
0.962408 0.965305 0.739976
0.96233 0.992372 0.798295
0.993103 0.973075 0.796111
0.763748 0.913017 0.873099
0.793235 0.91429 0.819039
0.820736 0.89142 0.817293
0.86383 0.914385 0.87004
0.893268 0.914675 0.816382
0.920684 0.892016 0.814957
0.99349 0.915333 0.812807
0.964136 0.915171 0.866566
0.770415 0.94143 0.825136
0.813239 0.941686 0.80417
0.820468 0.920499 0.871292
0.843336 0.92191 0.801697
0.870416 0.941913 0.818831
0.913107 0.94235 0.800353
0.9205 0.921502 0.868106
0.970619 0.942538 0.815254
0.7625 0.991401 0.80372
0.771568 0.97216 0.874912
0.79294 0.97172 0.801903
0.821003 0.991666 0.821426
0.812372 0.964909 0.873286
0.862295 0.991793 0.801099
0.843081 0.964556 0.82359
0.871153 0.97199 0.871831
0.912356 0.965346 0.870323
0.920635 0.992206 0.819435
0.94303 0.965258 0.820146
0.971246 0.972429 0.868635
0.770436 0.891431 0.950664
0.813255 0.891396 0.929931
0.814562 0.914818 0.999956
0.870809 0.891581 0.945381
0.843413 0.914394 0.946208
0.914547 0.91524 0.996835
0.913387 0.891945 0.92619
0.943408 0.915094 0.942957
0.970845 0.892262 0.941734
0.763007 0.941582 0.930406
0.793205 0.921482 0.93207
0.82029 0.941611 0.947139
0.870071 0.92095 0.998416
0.863029 0.941951 0.929924
0.89328 0.921982 0.928749
0.920364 0.942178 0.944418
0.970231 0.921547 0.995343
0.99338 0.922737 0.926034
0.963174 0.942514 0.926955
0.770253 0.991567 0.953941
0.792843 0.9645 0.952412
0.81203 0.991739 0.931903
0.870427 0.991951 0.94871
0.842805 0.972228 0.92936
0.911997 0.992271 0.929141
0.892871 0.965018 0.949132
0.920669 0.971665 0.998425
0.942853 0.972825 0.92628
0.970445 0.992576 0.945452
0.963169 0.966133 0.997095
0.993003 0.965568 0.946206
