CRYSTAL
PRIMVEC
    78.5912361455013553    0.0000000000000000    0.0000000000000000
     0.0000000000000000   78.8603053391606181    0.0000000000000000
     0.0000000000000000    0.0000000000000000   31.2005799148832779
PRIMCOORD
  400    1
   13          1.51615069          1.36979562          9.40457240    0.2817    0.2734   -0.2450
   13          5.26545564          1.34524640          9.48263625    0.1087    0.2068   -0.1516
   13          9.21529399          1.34787245          9.48868916    0.1493    0.1591   -0.1373
   13         13.20434936          1.45887622          9.44241870    0.2207    0.1711   -0.2376
   13         17.07363169          1.44556460          9.50403985    0.1294    0.1868   -0.1418
   13         21.05765722          1.52324989          9.39334019    0.1922    0.2139   -0.1821
   13         25.05150666          1.56968283          9.29047188    0.2395    0.1432   -0.2491
   13         28.89532543          1.58513157          9.29827202    0.1882   -0.0438   -0.0349
   13         32.80578957          1.60054876          9.30881782    0.2738   -0.1735    0.1284
   13         36.61864339          1.47842569          9.41964228    0.1873   -0.2486    0.2126
   13         40.61249283          1.55120586          9.34117282    0.2290   -0.1231    0.1384
   13         44.51234715          1.36201999          9.40288757    0.1723   -0.1898    0.2323
   13         48.47727501          1.31281116          9.51701929    0.2144   -0.1740    0.2998
   13         52.49092944          1.23831183          9.35090740    0.3208   -0.2758    0.0977
   13         56.25026263          1.25796382          9.44129548    0.1512   -0.2064    0.1993
   13         60.14045023          1.05532438          9.36435485    0.1554   -0.3513    0.0594
   13         64.14640272          1.19745431          9.61611233    0.2593   -0.1329    0.2685
   13         68.19298687          1.18142201          9.55960808    0.3279    0.1055    0.0465
   13         72.04191407          1.14578503          9.58094928    0.1885    0.2127   -0.1288
   13         76.04786656          1.16250342          9.44844042    0.1823    0.1692   -0.2406
   13          1.29593019          5.27764707          9.49907896    0.1353    0.2509   -0.1338
   13          5.21687840          5.41503750          9.52475703    0.1317    0.2727   -0.1198
   13          9.05449632          5.45114763          9.42625680    0.0659    0.2739   -0.2296
   13         13.18045762          5.42192200          9.42697442    0.2508    0.1830   -0.2000
   13         17.10129580          5.49463909          9.43396335    0.2025    0.2744   -0.1260
   13         21.08327796          5.40532191          9.40092193    0.2305    0.1612   -0.1460
   13         24.99036268          5.50997742          9.36285722    0.2092    0.1399   -0.1925
   13         28.89697584          5.59793032          9.28744542    0.2236   -0.0035   -0.0496
   13         32.77058069          5.45953048          9.42207593    0.2280   -0.2905    0.2639
   13         36.55522026          5.44571416          9.28984787    0.1348   -0.2378    0.1136
   13         40.55975811          5.25957229          9.34647692    0.2015   -0.3117    0.1718
   13         44.63966495          5.34601107          9.34391847    0.2786   -0.1241    0.1548
   13         48.37227712          5.29288289          9.39365220    0.0864   -0.1331    0.1708
   13         52.37728651          5.22042604          9.36579008    0.2447   -0.2227    0.0972
   13         56.32280234          5.27041558          9.44376033    0.2631   -0.1833    0.1441
   13         60.17518755          5.35224892          9.54428860    0.1899   -0.0365    0.2268
   13         64.06262446          5.08122183          9.54216696    0.1802   -0.2186    0.1993
   13         68.01332731          5.07749962          9.63111981    0.1413    0.0325    0.1027
   13         72.13559483          5.17180866          9.46416551    0.2887    0.3022   -0.2306
   13         76.06169862          5.12773363          9.44294911    0.2736    0.2203   -0.2186
   13          1.33965049          9.18265167          9.49090440    0.2437    0.2139   -0.1918
   13          5.33070208          9.23824819          9.41387017    0.3017    0.1572   -0.2673
   13          9.08294634          9.38965998          9.40304357    0.1172    0.2663   -0.2374
   13         13.18595901          9.25725352          9.46157586    0.2411    0.1017   -0.1216
   13         17.02411921          9.22121436          9.26123694    0.1420    0.0583   -0.2541
   13         20.97128545          9.41040024          9.43764501    0.1571    0.2262   -0.0770
   13         25.00246573          9.56023482          9.24098776    0.2611    0.2590   -0.2505
   13         28.88746631          9.52947930          9.16635597    0.2459   -0.0214   -0.1096
   13         32.75910637          9.51646735          9.26588582    0.2001   -0.2025    0.1478
   13         36.49604106          9.45243278          9.28778863    0.0087   -0.1899    0.1540
   13         40.66286981          9.34518276          9.26005131    0.2619   -0.1630    0.1330
   13         44.60304143          9.26884599          9.36254522    0.2616   -0.1225    0.1940
   13         48.38948860          9.17847208          9.34703853    0.1391   -0.1933    0.1318
   13         52.26057853          9.27791492          9.42706802    0.1674   -0.0853    0.1748
   13         56.22338443          9.14306380          9.40291877    0.1862   -0.2403    0.1188
   13         60.28010685          9.21884855          9.49645811    0.2637   -0.1731    0.2274
   13         64.24723527          9.13927851          9.51374323    0.3050   -0.1601    0.1877
   13         68.04287761          8.98423915          9.66662607    0.1720   -0.0173    0.1340
   13         72.00945589          9.11065222          9.52669147    0.1839    0.2855   -0.1521
   13         76.06397776          9.21206657          9.52082576    0.3066    0.3111   -0.1473
   13          1.21175897         13.18071143          9.50990556    0.1013    0.2681   -0.1829
   13          5.27706356         13.09404396          9.40485320    0.2179    0.1262   -0.2130
   13          9.20877091         13.20571015          9.45705178    0.2231    0.1845   -0.1130
   13         13.09998020         13.19900703          9.31752278    0.1463    0.1590   -0.2318
   13         16.95550906         13.14419911          9.37677268    0.0558    0.1054   -0.1220
   13         21.02071934         13.31201384          9.30491775    0.2108    0.2223   -0.1807
   13         24.97849540         13.26099123          9.24048855    0.2467    0.0449   -0.1648
   13         28.85823037         13.48266754          9.35037699    0.1913   -0.0236    0.1406
   13         32.77003055         13.37257856          9.08236401    0.1833   -0.2637    0.0199
   13         36.72419142         13.26446108          9.13509299    0.1836   -0.2681    0.0722
   13         40.49452738         13.22234968          9.26638503    0.0345   -0.2191    0.1980
   13         44.58724459         13.12598238          9.40323077    0.2721   -0.2071    0.3125
   13         48.41825299         13.18260408          9.26192335    0.2236   -0.1423    0.0908
   13         52.38208058         12.96818291          9.34476089    0.3025   -0.3303    0.1436
   13         56.18440317         13.04317906          9.36919094    0.1815   -0.2453    0.1624
   13         60.16992194         13.09688293          9.38504084    0.2077   -0.2057    0.1343
   13         64.16785812         12.94200129          9.56965467    0.2329   -0.2775    0.2402
   13         68.05474489         13.04759524          9.65642348    0.1793    0.0696    0.1037
   13         71.83624081         12.90895882          9.56659701    0.0346    0.0936   -0.1553
   13         75.92856506         13.14837871          9.55820406    0.1871    0.2823   -0.1482
   13          1.44763485         17.09699306          9.33468310    0.3006    0.2554   -0.2792
   13          5.32658390         17.02207577          9.37159339    0.1906    0.1480   -0.1917
   13          9.26582815         17.07546419          9.49951576    0.1997    0.1702   -0.0502
   13         13.31822806         17.03721695          9.40082833    0.3415    0.0928   -0.1420
   13         17.06490806         17.16441862          9.23384283    0.1510    0.1978   -0.2432
   13         20.99179777         17.35060780          9.22997395    0.1862    0.3138   -0.2038
   13         24.98462552         17.38025927          9.28026929    0.2530    0.2427   -0.0964
   13         28.94169426         17.27679455          9.26482500    0.2416   -0.1011    0.0669
   13         32.89656244         17.37158464          9.14470277    0.2988   -0.1425    0.1092
   13         36.75861438         17.34240633          9.24229818    0.2045   -0.0975    0.2239
   13         40.63449837         17.28988536          9.08052318    0.1636   -0.0896    0.0603
   13         44.55690838         17.07089030          9.25534003    0.2528   -0.2542    0.2303
   13         48.28566958         17.00874838          9.19562212    0.1055   -0.2818    0.1343
   13         52.25712051         17.07191548          9.20938157    0.1774   -0.1451    0.1194
   13         56.03665165         17.06182136          9.38014235    0.0694   -0.1343    0.2295
   13         60.18257513         16.95386160          9.39486902    0.3003   -0.2465    0.1559
   13         64.10553527         16.69780219          9.46778477    0.2423   -0.4532    0.1829
   13         68.15243380         16.96040701          9.47305767    0.3180    0.0129    0.0014
   13         71.86162578         16.91427373          9.44815961    0.0903    0.1619   -0.2238
   13         76.00550589         16.93146528          9.44450914    0.2737    0.1599   -0.2154
   13          1.34734458         20.97116328          9.33633673    0.1393    0.2269   -0.1896
   13          5.30175693         20.97912817          9.26014492    0.1071    0.2006   -0.2829
   13          9.27667374         21.00791218          9.45461813    0.1254    0.2289   -0.1217
   13         13.22847687         21.03906200          9.31958202    0.1954    0.1950   -0.2194
   13         16.94890740         21.20727103          9.28463737    0.0286    0.2834   -0.1808
   13         21.00240758         21.20742875          9.28554219    0.1551    0.2154   -0.1587
   13         25.12907621         21.16626367          9.42581999    0.3180    0.1252    0.0333
   13         28.87473452         21.26728372          9.27886526    0.1297    0.0335    0.1153
   13         32.71580260         21.28723538          9.09253540    0.0748   -0.1121    0.1099
   13         36.75877156         21.11358499          9.12208235    0.1861   -0.2608    0.1461
   13         40.58451435         21.18992177          9.04092964    0.1231   -0.1556    0.0779
   13         44.57404127         21.12367911          9.21883535    0.2412   -0.2080    0.2590
   13         48.29140674         21.03377836          9.21399926    0.0720   -0.2270    0.2214
   13         52.21145900         20.82117098          9.11737106    0.1169   -0.3778    0.0809
   13         56.20075015         20.89593055          9.26023852    0.2830   -0.3324    0.1666
   13         60.03183714         20.88512669          9.45159167    0.2551   -0.3502    0.2651
   13         63.97593832         20.89805978          9.33683594    0.2417   -0.3058    0.1088
   13         68.02047911         20.82077668          9.42691201    0.2553   -0.0838    0.0672
   13         72.01016321         20.93575500          9.48943798    0.1918    0.3207   -0.0245
   13         76.02004526         20.89821750          9.40956449    0.2035    0.2505   -0.1161
   13          1.57421390         24.85227321          9.31845880    0.2542    0.2620   -0.1569
   13          5.49766131         25.01204418          9.25016073    0.2167    0.3720   -0.1985
   13          9.27015067         24.96543774          9.31221868    0.0858    0.2457   -0.2049
   13         13.14375552         25.05754658          9.28089330    0.0970    0.2683   -0.2122
   13         17.10192453         25.16613722          9.33402789    0.1293    0.3175   -0.0977
   13         21.02637791         25.06724640          9.16114548    0.0857    0.1827   -0.3014
   13         25.17662391         25.07931202          9.28969186    0.2773    0.0984   -0.1118
   13         28.89642571         25.12150229          9.17169127    0.0977   -0.0809    0.0289
   13         32.87007720         25.10880578          9.02495494    0.1845   -0.2083    0.1160
   13         36.78289907         25.15643740          9.08330003    0.2065   -0.1717    0.1984
   13         40.57712677         25.05770430          9.10716847    0.1146   -0.2700    0.1912
   13         44.49246356         25.11566663          9.18576273    0.1471   -0.2158    0.2478
   13         48.49315044         25.19720818          9.13793224    0.2497   -0.1194    0.1524
   13         52.23590088         25.14531810          9.20226784    0.0932   -0.1704    0.1519
   13         55.92379463         25.33119184          9.26813226   -0.0858   -0.0249    0.2056
   13         59.71912261         25.08301846          9.32672695   -0.2379   -0.2637    0.2263
   13         64.08565169         25.19854881          9.21967776    0.0176   -0.1645    0.0645
   13         68.22945321         24.85621622          9.37324702    0.0934   -0.1215    0.1128
   13         72.06525567         24.69021528          9.31430912    0.0240    0.0913   -0.1349
   13         76.02452496         24.80748055          9.38597685    0.0669    0.2043   -0.1358
   13          1.55416527         28.72533938          9.36067318    0.1030    0.1568   -0.1303
   13          5.40835022         28.73503920          9.25540243    0.0730    0.1543   -0.1909
   13          9.29019143         29.04290983          9.24548064    0.1180    0.3516   -0.1855
   13         13.12953050         29.05876075          9.16298631    0.0582    0.3221   -0.2592
   13         17.20833707         28.96081625          9.21013039    0.1500    0.1675   -0.1926
   13         20.99446987         29.06491186          9.22273542    0.0246    0.2422   -0.1638
   13         25.11155036         29.26253578          9.16176949    0.2429    0.2983   -0.1468
   13         28.97258061         29.17823412          9.15780701    0.1756   -0.0539    0.0617
   13         32.94536760         29.09550965          9.08055438    0.2521   -0.2044    0.2110
   13         36.73377955         29.13998687          9.04186566    0.1671   -0.1548    0.1885
   13         40.57602649         29.15717841          9.03553194    0.1159   -0.1555    0.1279
   13         44.37952796         29.15244680          9.07085100    0.0104   -0.1901    0.1495
   13         48.27922509         29.11924661          9.15325173   -0.0036   -0.2315    0.2335
   13         52.21609589         29.23793137          9.19917898   -0.0382   -0.1332    0.1946
   13         56.09300157         29.10733870          9.19811816   -0.1725   -0.2550    0.1469
   13         59.95104535         29.01846314          9.22217381   -0.3097   -0.3091    0.2061
   13         64.00140188         29.19290213          9.18866439   -0.4326   -0.1861    0.1383
   13         68.56527356         29.33768965          9.13072491   -0.0423    0.1852   -0.0221
   13         72.36963953         29.18604129          9.26894348   -0.1020    0.3663   -0.0946
   13         76.35413661         28.87919584          9.22073858    0.1327    0.1982   -0.2752
   13          1.61839789         32.97046848          9.29187591    0.0081    0.2743   -0.1917
   13          5.52959292         32.87899052          9.33543191    0.1557    0.2425   -0.1230
   13          9.27368727         32.92078649          9.21428006    0.0812    0.2468   -0.1935
   13         13.24120865         32.83254180          9.27050351    0.1397    0.1988   -0.0968
   13         17.17312819         32.96242473          9.07085100    0.1376    0.2751   -0.2816
   13         21.01443204         33.00138172          9.17899221    0.0978    0.2346   -0.1149
   13         25.05355003         33.13915067          9.20189343    0.2269    0.1718   -0.0707
   13         29.00983286         33.06170985          9.11980471    0.2231   -0.1679   -0.0343
   13         32.94363859         33.07361776          9.06183403    0.2390   -0.1966    0.0462
   13         36.67067079         33.10855287          9.02848061    0.0493   -0.1606   -0.0470
   13         40.49845694         33.07969000          9.17780658   -0.0546   -0.2207    0.1076
   13         44.48688359         32.99254936          9.09085057    0.0387   -0.3136    0.0412
   13         48.40473530         33.14325141          9.19481090    0.0452   -0.1327    0.1010
   13         52.11581347         33.04672639          9.24934951   -0.2540   -0.2512    0.1046
   13         56.25214882         32.98371701          9.19749415   -0.1532   -0.3101    0.0079
   13         60.00362288         33.17030049          9.15147330   -0.3748   -0.0783    0.0044
   13         64.02262152         33.04325654          9.15802542   -0.4205   -0.1713    0.0618
   13         68.32549170         33.17542641          9.20407747   -0.3168    0.0630    0.1063
   13         72.49389227         33.12227457          9.22379624   -0.2271    0.2005    0.0138
   13         76.47328092         33.11801611          9.17983462   -0.0350    0.3173   -0.2234
   13          1.71631471         36.95102125          9.18520112   -0.1258    0.1676   -0.0736
   13          5.47850076         36.92081775          9.31627476   -0.1631    0.2452    0.0654
   13          9.45704063         36.75394935          9.15053728    0.0227    0.1375   -0.0752
   13         13.28168313         36.75749806          9.18332909    0.0338    0.2023    0.0247
   13         17.15253729         36.93666868          9.06835495    0.0341    0.3524   -0.0915
   13         20.91194907         36.84795083          9.15902384   -0.0429    0.0457   -0.0291
   13         24.78453223         36.96797622          9.13515539   -0.0267   -0.0960   -0.1677
   13         29.07034811         37.00795839          9.11368939    0.2973   -0.1682   -0.1769
   13         32.85255135         37.05598432          9.04779377    0.1555   -0.1541   -0.1596
   13         36.67923723         36.97562567          9.13821305    0.0486   -0.2472   -0.1723
   13         40.47346493         37.02680600          9.21858574   -0.1046   -0.2279   -0.1003
   13         44.52044204         37.10519315          9.14513958    0.0241   -0.1547   -0.1636
   13         48.31215482         36.95330820          9.16673038   -0.1683   -0.2420   -0.1865
   13         52.32164392         37.03067016          9.18991241   -0.1317   -0.1487   -0.1718
   13         56.24397533         36.94337180          9.18120745   -0.1869   -0.2761   -0.1966
   13         60.17636642         37.02246869          9.22860113   -0.2565   -0.1641   -0.0771
   13         64.01083283         37.03666354          9.27558920   -0.4571   -0.0276    0.0801
   13         68.37280362         37.03658468          9.25062874   -0.2010    0.1392    0.1515
   13         72.35682916         36.88343797          9.18857078   -0.3015    0.0909    0.0820
   13         76.45842718         36.96986886          9.22076978   -0.1516    0.1407   -0.0118
   13          1.67416623         41.04663121          9.13980428   -0.2755    0.2716    0.0757
   13          5.56689233         40.91832549          9.17200328   -0.2164    0.2697    0.1359
   13          9.41782360         40.84916500          9.19353168   -0.1889    0.2788    0.1813
   13         13.17582074         40.85019019          9.13066251   -0.2439    0.2866    0.1493
   13         17.15465925         40.82329882          9.11765187   -0.0913    0.1946    0.1502
   13         20.94448584         40.89348450          9.16825921   -0.0543   -0.0738    0.0503
   13         24.91090694         40.96430105          9.06607731    0.1335   -0.2288   -0.2707
   13         28.81696997         40.84837640          9.07163101    0.1025   -0.2850   -0.2843
   13         32.86960565         40.89190729          9.12819766    0.2192   -0.2706   -0.1647
   13         36.69817772         41.08858489          9.21059839    0.1187   -0.0779   -0.1492
   13         40.52470641         40.98243892          9.26257856   -0.0067   -0.2172   -0.1424
   13         44.51014659         40.97234480          9.31955082    0.0035   -0.2227   -0.0729
   13         48.44851062         40.95751906          9.21989617   -0.0855   -0.1660   -0.1855
   13         52.34993676         40.91572310          9.23056677   -0.1668   -0.1657   -0.2104
   13         56.21041687         40.92834075          9.37184299   -0.2885   -0.1566   -0.0655
   13         60.13054773         40.77795415          9.32881739   -0.3707   -0.2798    0.0080
   13         64.20322418         40.76959496          9.38644486   -0.2979   -0.1224    0.2076
   13         68.37830501         40.79822125          9.25237597   -0.1884    0.0961    0.1687
   13         72.43565617         40.74270359          9.25069114   -0.1886    0.0934    0.1697
   13         76.32089252         40.97242366          9.25028553   -0.3075    0.2090    0.1582
   13          1.63578227         44.90242698          9.05706034   -0.2015    0.2388    0.0234
   13          5.51984761         44.80093376          9.20516949   -0.1965    0.1409    0.1981
   13          9.35919454         44.99485126          9.17081765   -0.1914    0.3347    0.1821
   13         13.23319234         44.77577733          9.14595079   -0.0866    0.0945    0.1718
   13         17.10687578         45.13175275          9.20975598    0.0239    0.3570    0.2363
   13         20.90094630         45.04114225          9.15031887    0.0216    0.0137   -0.0270
   13         24.96222702         45.06211910          9.22729070    0.2015   -0.1097   -0.1587
   13         28.89501106         44.87924205          9.22460745    0.2083   -0.2231   -0.1849
   13         32.71588119         44.90116521          8.98745185    0.1265   -0.2275   -0.3930
   13         36.66399053         44.82356667          9.23337482    0.1410   -0.2693   -0.1746
   13         40.56447358         44.97529390          9.18766597    0.0771   -0.1172   -0.2589
   13         44.62826922         44.84817109          9.25402960    0.1594   -0.2090   -0.1897
   13         48.46525055         44.81165877          9.34394967    0.0493   -0.2290   -0.1006
   13         52.28627786         44.80400932          9.31596275   -0.1044   -0.2516   -0.1481
   13         56.42402785         44.93673121          9.28391976    0.0282   -0.0789   -0.1538
   13         60.08394313         44.94453838          9.32026843   -0.3490    0.0237    0.0076
   13         64.30657165         44.92411356          9.30881782   -0.2098    0.2459    0.1447
   13         68.29460534         44.63548484          9.17091126   -0.2713    0.0921    0.0475
   13         72.38449327         44.79091851          9.18204986   -0.1748    0.2595    0.0661
   13         76.20449889         44.67775397          9.11481261   -0.3031    0.0614    0.0636
   13          1.47935427         48.55247621          9.05759075   -0.1424    0.0341    0.0353
   13          5.48925990         48.63977457          9.30622817   -0.0471    0.0286    0.2804
   13          9.42513259         48.86689225          9.22694750    0.0961    0.1766    0.1613
   13         13.15978813         49.05726102          9.26507461    0.0678    0.3057    0.2022
   13         17.18389519         48.99504024          9.25147115    0.2628    0.2185    0.1562
   13         21.09042977         49.00095477          9.20931917    0.2578    0.0205   -0.0511
   13         25.09323861         48.86523618          9.22017697    0.3121   -0.2336   -0.2084
   13         28.75323247         48.85395916          9.32750697    0.0664   -0.1834   -0.1416
   13         32.73089212         48.85490548          9.23777410    0.1740   -0.1995   -0.2345
   13         36.64945115         48.77257532          9.33418389    0.1772   -0.2251   -0.1470
   13         40.62970431         48.76681852          9.39012653    0.1834   -0.1886   -0.1363
   13         44.53230932         48.74891723          9.34304486    0.1198   -0.1600   -0.2025
   13         48.53896913         48.79118635          9.36185881    0.2490   -0.1338   -0.1197
   13         52.32415884         48.88802681          9.18329789    0.1073   -0.0895   -0.2636
   13         56.29120866         48.72865013          9.26763305    0.1005   -0.2105   -0.1821
   13         60.28104995         48.66776998          9.35664831    0.0899   -0.0737    0.0527
   13         64.18499101         48.61990177          9.28385736   -0.0607    0.1612    0.1286
   13         68.15424139         48.40934476          9.34529130   -0.1072    0.0178    0.2054
   13         72.03177580         48.54987382          9.27764844   -0.2279    0.1300    0.1937
   13         76.11836290         48.68488266          9.28551099   -0.1176    0.2462    0.2403
   13          1.30909422         52.56063009          9.39661625    0.0336    0.0886    0.2699
   13          5.28164543         52.82015935          9.20554390    0.1001    0.2874    0.0963
   13          9.15344268         52.82804538          9.30444974    0.0980    0.2083    0.1781
   13         13.14320538         52.84791818          9.34086082    0.1717    0.1869    0.2145
   13         17.06577256         52.80888233          9.35908195    0.1535    0.1468    0.2060
   13         21.04107447         52.86211304          9.38279439    0.1586   -0.0082    0.0527
   13         24.91475791         52.95319669          9.42993847    0.0897   -0.0901   -0.0673
   13         28.93800047         52.83419649          9.35920676    0.2569   -0.1702   -0.1605
   13         32.68601652         52.72923342          9.27044111    0.1223   -0.1830   -0.2465
   13         36.55647772         52.63452220          9.42766083    0.0693   -0.2135   -0.0931
   13         40.50945972         52.54990509          9.33951919    0.0487   -0.2982   -0.2162
   13         44.46519240         52.63318157          9.41043811    0.0770   -0.1744   -0.1325
   13         48.51932132         52.73798692          9.29115829    0.2738   -0.0815   -0.1851
   13         52.34616438         52.63562624          9.19708854    0.1655   -0.1894   -0.2162
   13         56.41341804         52.60526502          9.31249949    0.2502   -0.1686   -0.1154
   13         60.38769826         52.57174939          9.23509085    0.2533    0.0391   -0.0640
   13         64.27450643         52.40156885          9.32079884    0.2145    0.0846    0.2017
   13         68.08162309         52.50093284          9.27911487    0.0832    0.1993    0.1981
   13         72.18762222         52.39604863          9.31608756    0.2053    0.0900    0.2397
   13         76.03859280         52.41765636          9.31524514    0.1046    0.0272    0.1822
   13          1.38674236         56.75449999          9.41212294    0.3114    0.2905    0.1786
   13          5.16680006         56.70363509          9.28747662    0.1537    0.2351    0.0892
   13          9.14071090         56.81758823          9.35408986    0.1557    0.3259    0.2070
   13         13.25889168         56.70797241          9.40007952    0.2904    0.2015    0.2236
   13         17.05657739         56.73210366          9.39649145    0.1148    0.1465    0.1965
   13         21.11872261         56.80733639          9.42195112    0.2172    0.0085    0.0234
   13         24.86752458         56.81648419          9.42344875    0.0498   -0.1429   -0.1448
   13         28.94672410         56.63960052          9.40563322    0.2552   -0.3188   -0.1516
   13         32.88768163         56.62438048          9.39237297    0.3102   -0.2261   -0.1833
   13         36.81197783         56.57895695          9.30073687    0.3353   -0.1767   -0.2858
   13         40.57068229         56.58668526          9.33493271    0.1812   -0.1771   -0.2443
   13         44.56539623         56.43692954          9.37901912    0.2517   -0.2811   -0.1529
   13         48.41070823         56.52430676          9.24111256    0.1757   -0.1801   -0.2527
   13         52.32635939         56.42588910          9.23440444    0.1669   -0.2617   -0.2117
   13         56.31030633         56.44528873          9.22491946    0.1990   -0.1980   -0.2102
   13         60.49756880         56.34900030          9.24367101    0.3791   -0.0744   -0.0567
   13         64.33918702         56.50585344          9.17796259    0.2421    0.2315    0.0629
   13         68.11235227         56.41437549          9.40298117    0.1221    0.1115    0.3070
   13         72.01590037         56.51681503          9.36635169    0.1656    0.2072    0.2135
   13         75.82285985         56.64417442          9.44307392    0.0799    0.2173    0.2339
   13          1.40533705         60.54097755          9.33827117    0.2989    0.1277    0.0978
   13          5.15727480         60.55848454          9.41917427    0.1192    0.1865    0.1833
   13          9.27046503         60.51897552          9.43177931    0.2727    0.1729    0.2143
   13         13.09109939         60.51574225          9.42940806    0.1409    0.1596    0.1548
   13         17.10451804         60.70177371          9.48625552    0.1402    0.2384    0.2204
   13         21.14308590         60.76667574          9.51789291    0.2501    0.0324    0.0894
   13         24.95790450         60.73055772          9.44840921    0.2041   -0.1878   -0.1741
   13         28.92519010         60.61904925          9.42323035    0.2496   -0.2930   -0.2137
   13         32.76743704         60.57733215          9.50781512    0.2180   -0.2626   -0.1409
   13         36.56889513         60.58143289          9.45243409    0.1108   -0.1719   -0.1830
   13         40.54569027         60.63419043          9.35340345    0.1753   -0.0910   -0.2340
   13         44.45576146         60.46219610          9.40326198    0.1846   -0.2074   -0.1688
   13         48.43711489         60.42670897          9.40210755    0.2231   -0.2020   -0.1834
   13         52.33492584         60.52386486          9.32519812    0.1968   -0.0926   -0.2085
   13         56.32665331         60.44689720          9.34809935    0.2957   -0.1338   -0.1336
   13         60.11325766         60.35234370          9.36064198    0.1072   -0.0071    0.0140
   13         64.14711004         60.33042053          9.40179555    0.1498    0.1352    0.2357
   13         68.18127678         60.49886615          9.39845709    0.2769    0.2061    0.2583
   13         72.01102772         60.55745935          9.44404113    0.2206    0.1952    0.2457
   13         75.88769762         60.49318820          9.36903494    0.1517    0.0859    0.1590
   13          1.41478371         64.43935788          9.40622603    0.2696    0.1584    0.1592
   13          5.42619044         64.49566414          9.32098605    0.3258    0.2543    0.0926
   13          9.21694440         64.39740420          9.32560373    0.2003    0.1432    0.0902
   13         13.29889462         64.53225532          9.41199814    0.3799    0.2635    0.1319
   13         17.07528210         64.52917977          9.47127924    0.1658    0.1856    0.1699
   13         21.04909078         64.76733789          9.56962347    0.2238    0.1447    0.0785
   13         24.89070899         64.69612704          9.53402361    0.1711   -0.1469   -0.1213
   13         28.89336065         64.72577851          9.54478781    0.1980   -0.1368   -0.1141
   13         32.79038568         64.48517572          9.50379024    0.1891   -0.3631   -0.1643
   13         36.62398759         64.58438198          9.49028039    0.1170   -0.1688   -0.1498
   13         40.63276936         64.51711414          9.41611661    0.1910   -0.1792   -0.1658
   13         44.46165580         64.58114871          9.40865968    0.1423   -0.1158   -0.1729
   13         48.41880313         64.38565401          9.45714538    0.2057   -0.2829   -0.1438
   13         52.32400165         64.50197297          9.39761467    0.1810   -0.1195   -0.1546
   13         56.27745520         64.41435917          9.39514982    0.2028   -0.1615   -0.1020
   13         60.03812444         64.22887973          9.40188915    0.0457   -0.1135    0.0302
   13         64.05610139         64.48178473          9.39571143    0.1701    0.3457    0.1580
   13         68.04122720         64.42106229          9.49436767    0.1986    0.2119    0.2716
   13         71.90375068         64.43068325          9.41327736    0.1157    0.1558    0.1524
   13         76.02986917         64.51119962          9.52360261    0.2829    0.2079    0.2647
   13          1.42186479         68.40264025          9.51046717    0.2240    0.2321    0.1643
   13          5.38129126         68.38749907          9.46282388    0.2356    0.2458    0.1689
   13          9.26826448         68.29901781          9.51099758    0.2752    0.1119    0.2031
   13         13.20654991         68.41021084          9.43121769    0.3097    0.2024    0.0618
   13         17.09162908         68.43481525          9.64438006    0.2653    0.1490    0.2329
   13         21.06921013         68.60065847          9.44154509    0.3280    0.0960   -0.1188
   13         24.95672563         68.61879635          9.42965767    0.2149   -0.0115   -0.2600
   13         28.95136098         68.51738199          9.43920504    0.2377   -0.2114   -0.1858
   13         32.67996500         68.63377980          9.38310640    0.0841   -0.1731   -0.1341
   13         36.78871482         68.56942979          9.45926702    0.3063   -0.1563    0.0011
   13         40.61280719         68.49348732          9.33302947    0.2132   -0.1768   -0.0781
   13         44.48452585         68.61753458          9.33820877    0.2050   -0.0426   -0.0688
   13         48.29266420         68.42401139          9.44220030    0.0901   -0.2220    0.0419
   13         52.44911890         68.32890586          9.46095185    0.2753   -0.2747    0.0851
   13         56.31572913         68.33229686          9.38522804    0.1797   -0.2027    0.0117
   13         60.16968617         68.39081120          9.37140618    0.1682    0.0195    0.0728
   13         63.85671542         68.27496541          9.47140404    0.0267    0.1089    0.1906
   13         68.02024334         68.35926708          9.40416679    0.2161    0.2468    0.1089
   13         71.97102478         68.30903307          9.46126385    0.2006    0.1889    0.1238
   13         76.11294010         68.40934337          9.46316709    0.3625    0.2475    0.0714
   13          1.43020332         72.27610073          9.43502417    0.1856    0.1633   -0.0924
   13          5.44160218         72.20867516          9.54066933    0.2449    0.1138   -0.0205
   13          9.33852504         72.42025736          9.52319700    0.2742    0.3161   -0.0370
   13         13.27225219         72.37294118          9.51779930    0.3280    0.2134   -0.0391
   13         17.05783485         72.55865720          9.47439930    0.2150    0.2924   -0.1035
   13         21.15919710         72.53010977          9.51062317    0.3565    0.1624   -0.1005
   13         25.01716229         72.50384929          9.52154337    0.2159    0.1061   -0.1725
   13         28.85390785         72.54532981          9.51914093    0.1294   -0.0223   -0.0347
   13         32.85278712         72.37270460          9.37833271    0.2576   -0.3415    0.0561
   13         36.67334289         72.44328457          9.41929907    0.1948   -0.2348    0.1460
   13         40.64015694         72.45613880          9.29730481    0.2582   -0.1995    0.0528
   13         44.42959057         72.42987832          9.36969015    0.1753   -0.1574    0.1133
   13         48.27828200         72.29494834          9.39096895    0.0997   -0.2447    0.1563
   13         52.31960054         72.33958327          9.44756680    0.1543   -0.1760    0.2348
   13         56.37954521         72.26616433          9.46681756    0.2827   -0.2065    0.1982
   13         60.21346149         72.25851488          9.45561655    0.2506   -0.1269    0.2073
   13         63.96650738         72.01215528          9.48148183    0.1593   -0.1821    0.2218
   13         67.92821300         72.21206616          9.43605378    0.1513    0.2111    0.0611
   13         72.13410159         72.14022442          9.64169681    0.3260    0.1894    0.1089
   13         76.06971493         72.27223657          9.60859299    0.2593    0.2211    0.0353
   13          1.42781414         76.19104172          9.47424329    0.1729    0.1715   -0.1768
   13          5.33819183         76.16982830          9.37037656    0.1292    0.1566   -0.3165
   13          9.39636819         76.23425717          9.45131087    0.2488    0.1806   -0.2110
   13         13.19916234         76.43811106          9.56850025    0.1762    0.2684   -0.1150
   13         17.21297395         76.28212538          9.48157543    0.2851    0.0735   -0.1925
   13         21.12689610         76.44781088          9.40485320    0.2541    0.1866   -0.2072
   13         25.05331426         76.51271291          9.39780187    0.2307    0.1959   -0.2072
   13         28.94208721         76.38101620          9.38363681    0.2076   -0.1006   -0.0273
   13         32.81144813         76.45672209          9.43040648    0.2103   -0.2144    0.1842
   13         36.67381443         76.53865795          9.35802113    0.1708   -0.1211    0.0988
   13         40.53735960         76.34884120          9.35387146    0.1115   -0.2804    0.1139
   13         44.48814104         76.35649064          9.40011072    0.1846   -0.1541    0.1758
   13         48.40332066         76.26603787          9.38185838    0.1975   -0.1742    0.1585
   13         52.36038940         76.15799926          9.43218491    0.2013   -0.2720    0.2021
   13         56.27140367         76.16367720          9.47283927    0.1831   -0.2188    0.2057
   13         60.10021151         76.21864283          9.39970511    0.1078   -0.1310    0.1278
   13         64.10192008         76.14356782          9.51608327    0.2182   -0.0772    0.2362
   13         68.11942548         76.04388839          9.44606917    0.2995    0.1196   -0.0140
   13         71.99774580         76.16840882          9.46441511    0.1542    0.3347   -0.2379
   13         76.06649268         76.15902444          9.54594223    0.1868    0.1830   -0.1663
