CRYSTAL
PRIMVEC
    78.9121848759763225    0.0000000000000000    0.0000000000000000
     0.0000000000000000   78.8275301027709645    0.0000000000000000
     0.0000000000000000    0.0000000000000000   31.1611575617507697
PRIMCOORD
  400    1
   13          1.36665646          1.40569981          9.53120094    0.2760    0.1145   -0.1508
   13          5.35507556          1.45466748          9.41263274    0.2804    0.1957   -0.2613
   13          9.19666276          1.48983244          9.42344566    0.1554    0.2271   -0.2248
   13         13.15884356          1.43395160          9.36847738    0.1552    0.2112   -0.2425
   13         17.05339662          1.44443566          9.56046127    0.1785    0.1913   -0.0129
   13         20.95102726          1.41493052          9.40300394    0.1909    0.1395   -0.1409
   13         25.08744617          1.38852329          9.40194446    0.3384    0.1029   -0.1422
   13         28.98768090          1.51564845          9.30983208    0.2450    0.0302   -0.0543
   13         32.86439981          1.42096082          9.33454288    0.1613   -0.2123    0.1354
   13         36.81569073          1.52247492          9.28702211    0.1500   -0.0782    0.1049
   13         40.82813860          1.41142269          9.24698002    0.2136   -0.1565    0.0582
   13         44.76893420          1.36838286          9.39075760    0.2433   -0.1590    0.1711
   13         48.59633299          1.43462952          9.32354299    0.1502   -0.1272    0.1262
   13         52.50919367          1.58366085          9.32868458    0.0838   -0.0916    0.1271
   13         56.54910298          1.67141165          9.44619330    0.1798   -0.0710    0.2148
   13         60.38202562          1.46366170          9.47567176    0.1164   -0.2438    0.2344
   13         64.50510837          1.49567356          9.43488180    0.3277   -0.1480    0.1618
   13         68.27324411          1.46323603          9.47570292    0.1824    0.0267    0.0120
   13         72.15327733          1.42751927          9.51655520    0.1233    0.1571   -0.1420
   13         76.24140198          1.54724253          9.46651038    0.2432    0.2250   -0.2280
   13          1.34463996          5.39676131          9.41811710    0.2217    0.1982   -0.2013
   13          5.30988255          5.41956612          9.38633272    0.1988    0.2390   -0.2546
   13          9.20968327          5.31623899          9.45242553    0.1378    0.1116   -0.1535
   13         13.16050072          5.38019176          9.41013984    0.1342    0.1611   -0.1668
   13         17.05686876          5.39115667          9.36536126    0.1523    0.1396   -0.2217
   13         21.06410842          5.39161387          9.34946907    0.2706    0.2056   -0.2461
   13         25.02581575          5.31896642          9.28153775    0.2320    0.1673   -0.2664
   13         29.09973621          5.36170671          9.12392461    0.2901    0.0300   -0.2190
   13         32.93778814          5.20160011          9.35769562    0.1644   -0.2808    0.1850
   13         36.87014014          5.21295916          9.37838662    0.1735   -0.2386    0.2408
   13         40.74094063          5.29521569          9.29780387    0.1499   -0.1539    0.1959
   13         44.67021505          5.29940143          9.43765515    0.1636   -0.1404    0.3033
   13         48.63247477          5.26403152          9.31341561    0.1763   -0.1974    0.1401
   13         52.57011388          5.34808531          9.28032246    0.1495   -0.2045    0.1110
   13         56.63661659          5.48919447          9.39907763    0.2639   -0.1298    0.2326
   13         60.47009162          5.53178499          9.32946361    0.2011   -0.1190    0.1698
   13         64.37419306          5.42967969          9.35838116    0.2007   -0.1846    0.1387
   13         68.33487453          5.46305526          9.48417875    0.2161    0.0414    0.0480
   13         72.23226843          5.46214875          9.49723528    0.1754    0.2200   -0.1221
   13         76.19492270          5.37746433          9.41665253    0.1739    0.1364   -0.2037
   13          1.30481298          9.28643484          9.43921320    0.1327    0.1986   -0.1144
   13          5.33415594          9.44519348          9.36626493    0.0931    0.3235   -0.2008
   13          9.35243541          9.37275098          9.38016281    0.0946    0.2272   -0.2043
   13         13.32448024          9.32348378          9.39321934    0.1050    0.1586   -0.1898
   13         17.18502215          9.42115109          9.31743540   -0.0039    0.2699   -0.2622
   13         21.20252039          9.20760731          9.43908856    0.0500    0.1412   -0.1418
   13         25.11522326          9.11664034          9.42166947   -0.0190    0.0821   -0.1356
   13         29.07109108          9.10457973          9.44768904   -0.0524   -0.0867    0.0703
   13         32.98758173          9.21052393          9.45267482   -0.1307   -0.1859    0.2818
   13         36.94510672          9.22392461          9.27200243   -0.0599   -0.1788    0.1766
   13         40.75490809          9.08976015          9.27137921   -0.0502   -0.2714    0.2233
   13         44.69459892          9.11995110          9.15259288    0.0324   -0.2125    0.1080
   13         48.63523669          9.19609849          9.27524319    0.0957   -0.1468    0.1851
   13         52.54573002          9.18443201          9.29188325    0.1341   -0.2343    0.2094
   13         56.43728441          9.30535345          9.29693136    0.1354   -0.1839    0.2084
   13         60.40104346          9.42469833          9.27483810    0.1719   -0.1161    0.1531
   13         64.32416273          9.37219919          9.30026560    0.1443   -0.1855    0.1307
   13         68.18849242          9.26302306          9.33725390    0.1048   -0.0889   -0.0234
   13         72.15588143          9.24339501          9.33042960    0.1471    0.1107   -0.2035
   13         76.19855266          9.24307970          9.37433567    0.1641    0.1346   -0.1884
   13          1.23512563         13.14181051          9.32949477   -0.1070    0.1619   -0.1827
   13          5.12957610         13.13936686          9.16502618   -0.2685    0.1400   -0.3281
   13          9.23864404         13.20763150          9.26545859   -0.1872    0.1907   -0.2413
   13         13.32503263         13.27999517          9.28331393   -0.1508    0.2266   -0.2645
   13         17.27955895         13.26052477          9.45170883   -0.2406    0.2268   -0.0937
   13         21.27101617         13.09333158          9.35610640   -0.2342    0.1408   -0.1556
   13         25.25505565         12.99519130          9.45080515   -0.2045    0.0482   -0.0643
   13         29.07969251         13.07906379          9.30079534   -0.3197   -0.0187   -0.0296
   13         33.11273646         13.19762040          9.32179796   -0.2332   -0.1173    0.1677
   13         37.06497432         13.17121318          9.36165308   -0.1880   -0.1847    0.2462
   13         40.95013683         13.25595277          9.19587572   -0.1392   -0.0525    0.1226
   13         44.77090700         13.11603391          9.21678486   -0.1662   -0.1360    0.1501
   13         48.63665711         13.05833215          9.24049850   -0.1093   -0.2030    0.1853
   13         52.46642327         13.07244228          9.29808432   -0.0467   -0.2239    0.2662
   13         56.45077840         13.21291294          9.32472711    0.0911   -0.1182    0.2241
   13         60.44081520         13.19501909          9.28322045    0.1319   -0.2044    0.1526
   13         64.40567902         13.21385887          9.29686904    0.1559   -0.2286    0.1633
   13         68.30670288         13.28393655          9.41456473    0.1827    0.0103    0.1040
   13         72.14633306         13.11910818          9.31048646    0.0747    0.0681   -0.1907
   13         76.22632975         13.12738507          9.32803019    0.0748    0.1211   -0.2308
   13          1.22409370         17.24636000          9.36897595   -0.2057    0.3707   -0.0856
   13          5.16365827         17.20000941          9.23127480   -0.2666    0.3391   -0.2201
   13          9.21615407         17.02225333          9.15748518   -0.1757    0.1405   -0.2782
   13         13.14795368         17.03478691          9.23616710   -0.2979    0.1048   -0.2437
   13         17.32848450         17.09335577          9.26611297   -0.1766    0.1283   -0.2298
   13         21.29271702         17.24533524          9.33379501   -0.1893    0.3391   -0.1355
   13         25.04822681         17.14546076          9.22834565   -0.3772    0.2720   -0.2472
   13         29.29575407         17.02706181          9.41169790   -0.0736   -0.0042    0.1180
   13         33.24278374         17.12386202          9.30294546   -0.1399   -0.1005    0.1372
   13         37.17663507         17.05212897          9.26290337   -0.1500   -0.2105    0.1382
   13         40.99393310         17.11739816          9.23660336   -0.2032   -0.1583    0.1973
   13         44.94333013         17.04180256          9.17082215   -0.1063   -0.2005    0.1531
   13         48.63799862         17.08476356          9.12623054   -0.2379   -0.1583    0.1331
   13         52.57910987         16.99072232          9.25018962   -0.0652   -0.2465    0.2993
   13         56.39877527         17.05622800          9.28013549   -0.0359   -0.1406    0.2592
   13         60.34833012         16.97842523          9.25579863   -0.0001   -0.2659    0.1642
   13         64.36535489         17.18148494          9.17294111    0.0779   -0.1275    0.0516
   13         68.15045675         17.03794001          9.33971563   -0.0705   -0.1266    0.0692
   13         72.09361972         17.20284720          9.36869550   -0.1232    0.2551   -0.0794
   13         76.19957852         17.08381763          9.29571607   -0.0861    0.1706   -0.2049
   13          1.22726597         21.10197215          9.24274211   -0.1167    0.3575   -0.1199
   13          5.08295478         20.85563612          9.34625947   -0.2158    0.1170   -0.0305
   13          9.18024903         21.11710704          9.22170832   -0.1229    0.3153   -0.1578
   13         13.11962421         20.99902340          9.16583637   -0.2322    0.1594   -0.2406
   13         17.16726691         21.07241183          9.17440569   -0.2092    0.2226   -0.2802
   13         21.14878120         21.02141042          9.34625947   -0.2358    0.1755   -0.1194
   13         25.31826431         20.99579147          9.30350636   -0.0736    0.1964   -0.1710
   13         29.07140673         20.79470244          9.43204614   -0.3146   -0.1546    0.1030
   13         33.29092017         20.92752683          9.33046076   -0.1155   -0.2293    0.1374
   13         37.07365466         21.03441696          9.26405634   -0.2897   -0.1733    0.1349
   13         41.05146008         20.96733473          9.20354137   -0.2054   -0.2772    0.1715
   13         44.95816562         21.09180340          9.12087082   -0.1401   -0.1566    0.1337
   13         48.73671776         21.08794085          9.13199535   -0.2006   -0.1733    0.1354
   13         52.48496763         21.02424821          9.05269021   -0.2798   -0.1964    0.1306
   13         56.40690322         20.90245967          9.07001581   -0.1725   -0.2299    0.1947
   13         60.28638406         20.81157153          9.22491792   -0.1510   -0.3456    0.2417
   13         64.21439588         21.05562157          9.27627151   -0.1220   -0.1522    0.2611
   13         68.17302564         21.11458456          9.18905143   -0.1215    0.0582    0.0456
   13         72.16771826         20.99255954          9.28038478   -0.1240    0.1534   -0.0550
   13         75.96852364         20.94683957          9.18615344   -0.3315    0.1731   -0.1894
   13          1.11627598         24.95427355          9.15904324   -0.1896    0.2538   -0.1505
   13          4.99744554         24.81750778          9.17222441   -0.2175    0.1317   -0.1561
   13          9.00861503         24.91383503          9.09650279   -0.2203    0.1849   -0.2295
   13         13.17943964         24.97776415          9.18269455   -0.1414    0.1997   -0.1633
   13         17.00202479         24.85321666          9.22167716   -0.3585    0.0656   -0.2058
   13         21.28340538         24.88356526          9.20288699   -0.1057    0.0992   -0.2514
   13         25.14260578         24.83043550          9.32669026   -0.3104    0.1341   -0.1358
   13         29.26205857         24.76114610          9.30737035   -0.1914   -0.0795   -0.0155
   13         33.17823357         24.84107722          9.23005951   -0.1734   -0.2394    0.0734
   13         37.15548660         24.97059085          9.32678375   -0.1166   -0.1595    0.1750
   13         41.13313419         25.05596106          9.15913672   -0.0866   -0.1213    0.0353
   13         45.12372338         25.10972144          9.24430016   -0.0030   -0.0874    0.1786
   13         48.86029425         25.08977807          9.22233155   -0.1668   -0.1435    0.1532
   13         52.80258918         25.02245936          9.16153613   -0.1161   -0.2101    0.1609
   13         56.61065448         24.90437572          9.08076641   -0.1645   -0.2723    0.2095
   13         60.30421821         24.82570585          9.02741851   -0.2819   -0.3652    0.1423
   13         64.17273025         25.12919184          9.07870977   -0.2591   -0.0437    0.2014
   13         68.17760254         25.08623083          9.08394485   -0.1955    0.1355    0.0646
   13         72.10940215         24.95663838          9.01757158   -0.2446    0.2108   -0.1871
   13         76.13100383         24.91588454          9.11797283   -0.1778    0.2064   -0.1364
   13          1.11183323         28.87767738          9.21541377   -0.1820    0.2204   -0.0865
   13          4.94260946         28.91157322          9.18693247   -0.2537    0.2671   -0.1015
   13          8.91920752         28.88997447          9.10999557   -0.2747    0.2564   -0.1579
   13         12.98160680         28.84070727          9.29238183   -0.2937    0.1682   -0.0198
   13         16.97235381         28.92158431          9.26673620   -0.3897    0.2123   -0.0627
   13         21.30344908         28.78056186          9.29197673   -0.1330    0.0470   -0.0651
   13         25.14134319         28.92749638          9.28362554   -0.3321    0.2729   -0.1335
   13         29.17241433         28.73295003          9.24021805   -0.2529   -0.0823   -0.0228
   13         33.17286754         28.88729434          9.28035362   -0.1426   -0.1772    0.1928
   13         36.92829842         28.79853454          9.20566033   -0.3073   -0.2741    0.0654
   13         40.93119791         28.93742865          9.19381909   -0.2618   -0.1951   -0.0034
   13         44.92912593         28.89967026          9.28527709   -0.1754   -0.2705    0.1532
   13         48.78106641         28.98251799          9.26499117   -0.2339   -0.1978    0.2086
   13         52.66962215         29.06347387          9.23143061   -0.2744   -0.2053    0.1863
   13         56.54397369         29.15798807          9.06375242   -0.2608   -0.1966    0.0379
   13         60.28480581         29.12456520          9.13208884   -0.3305   -0.2070    0.2075
   13         64.13406328         28.99796819          8.98700249   -0.2976   -0.0947    0.1794
   13         68.13648929         29.13134437          9.02963095   -0.2200    0.3297    0.0752
   13         72.07152431         28.88737316          9.03471022   -0.2754    0.2135   -0.1276
   13         76.00143002         28.79727330          9.10070955   -0.2955    0.1546   -0.1354
   13          0.98431114         32.77695998          9.19877371   -0.2774    0.2257   -0.0633
   13          5.07860672         32.67117344          9.19637430   -0.1378    0.0918   -0.0527
   13          8.86546832         32.58816805          9.23971947   -0.3206    0.0440    0.0166
   13         12.99794162         32.75906613          9.11747425   -0.2025    0.2292   -0.1124
   13         16.88436672         32.82133988          9.25651534   -0.3961    0.2488    0.0158
   13         21.25318202         32.88329832          9.26371356   -0.1428    0.2445   -0.0639
   13         25.28867224         32.77451633          9.26075325   -0.1958    0.0997   -0.1314
   13         29.17683341         32.70609403          9.21631744   -0.2565   -0.1399   -0.0306
   13         33.21500665         33.02124650          9.24654377   -0.1411   -0.0606    0.1430
   13         37.00413303         32.94746393          9.23922089   -0.3059   -0.1692    0.1022
   13         40.83831827         33.06791240          9.17876825   -0.4237   -0.0692   -0.0455
   13         44.96124319         32.98900604          9.26832542   -0.2118   -0.1789    0.0240
   13         48.85847927         33.03811559          9.24965988   -0.2006   -0.1292    0.1056
   13         52.65502339         32.98679887          9.28200516   -0.2903   -0.2771    0.1778
   13         56.54326348         33.22115311          9.08266724   -0.2650   -0.1783   -0.1175
   13         60.33010141         33.22604042          9.11594736   -0.2883   -0.1741    0.0113
   13         64.08253362         33.18954327          8.93583586   -0.2913    0.1310    0.0656
   13         68.11770819         32.74842442          8.92664332   -0.1903    0.0530    0.0087
   13         72.10955998         32.73557553          9.16060129   -0.2310    0.1217    0.0446
   13         76.06006178         32.77025964          9.17194396   -0.2077    0.2074   -0.0427
   13          0.87443381         36.74324599          9.20865180   -0.3369    0.2735    0.0683
   13          5.04953547         36.53411655          9.21360642   -0.1254    0.0240    0.0982
   13          8.89963730         36.72795345          9.12738350   -0.2111    0.2221    0.0024
   13         12.87515426         36.66615266          9.11865838   -0.2360    0.2154    0.0008
   13         16.86605910         36.80969759          9.11956205   -0.3404    0.3571   -0.0322
   13         21.17308615         36.65432853          9.19640546   -0.1797    0.1583   -0.0839
   13         25.36284969         36.66465494          9.22541650   -0.1210    0.0394   -0.1267
   13         29.36811655         36.72724400          9.16116220   -0.0841   -0.0940   -0.1455
   13         33.11991747         36.87283845          9.17652465   -0.2674   -0.1228   -0.0940
   13         37.18665691         36.97484127          9.17851896   -0.1324   -0.0839   -0.0918
   13         40.85086531         36.91059683          9.15760982   -0.3896   -0.1997   -0.1280
   13         44.86023559         37.07487341          9.29013823   -0.3295   -0.0735   -0.0876
   13         48.77917252         36.97799437          9.24651261   -0.3072   -0.1714   -0.1478
   13         52.81497839         36.99588822          9.25262019   -0.1183   -0.2142   -0.0475
   13         56.60994427         37.05043687          9.17608839   -0.1656   -0.2548   -0.1227
   13         60.36332344         37.07849947          9.23688381   -0.1959   -0.2290    0.0129
   13         64.09965757         37.01047131          9.14704619   -0.2802    0.0081    0.1022
   13         68.16876438         37.00826414          9.08135847   -0.1858    0.3349    0.0788
   13         72.03877575         36.73039710          9.10899842   -0.2802    0.1267    0.0870
   13         75.96655084         36.89262416          9.12526454   -0.2435    0.3487    0.0349
   13          0.97369745         40.66310258          9.07515740   -0.2179    0.1871    0.0631
   13          4.88153932         40.70661537          9.17683626   -0.2070    0.1977    0.1720
   13          8.76966893         40.64796769          9.13458173   -0.2767    0.0872    0.1274
   13         12.67274451         40.56283396          9.05870431   -0.3632    0.1095    0.0692
   13         16.85935156         40.50576283          9.07609223   -0.2611    0.1938    0.0564
   13         21.05021988         40.44703632          9.24922363   -0.2975    0.1144    0.0691
   13         25.28014972         40.50528986          9.28309580   -0.1419   -0.0636   -0.0458
   13         29.11741254         40.70574827          9.17664929   -0.2688   -0.0708   -0.2065
   13         33.24720282         40.68998276          9.28699095   -0.1053   -0.2002   -0.1273
   13         36.98187979         40.81263840          9.16860971   -0.2633   -0.1592   -0.2594
   13         40.87595938         40.87254732          9.19032904   -0.2745   -0.1640   -0.2457
   13         44.90000734         40.93151032          9.27047554   -0.2337   -0.1506   -0.1925
   13         48.76504724         41.00032675          9.28399948   -0.2751   -0.0972   -0.2125
   13         52.68903454         40.96225305          9.35912903   -0.1751   -0.1813   -0.1240
   13         56.51524965         41.02097956          9.31609547   -0.1854   -0.2269   -0.1103
   13         60.34035999         41.07237511          9.18833472   -0.1749   -0.1045   -0.0504
   13         64.28541685         40.89595910          9.16306303   -0.1171    0.0417    0.0832
   13         68.03429802         40.72553398          9.32868458   -0.3020    0.0833    0.2453
   13         72.04177441         40.79963186          9.20989825   -0.1911    0.2267    0.2035
   13         75.99353881         40.75659203          9.12554499   -0.1692    0.2277    0.1521
   13          1.01450294         44.84931739          9.15536622   -0.1973    0.3516    0.1261
   13          4.79281046         44.70324998          9.14383659   -0.2707    0.1891    0.0985
   13          8.69399214         44.85034215          9.22398309   -0.3246    0.3148    0.2214
   13         12.82173071         44.77482537          9.02358568   -0.2361    0.2882    0.1166
   13         16.73025123         44.48812965          9.10089652   -0.3921    0.2436    0.1219
   13         21.13781240         44.24786333          9.16434063   -0.1632   -0.0582   -0.0572
   13         25.02147558         44.40630667          9.22513605   -0.3397   -0.2303   -0.1371
   13         29.02342812         44.59588688          9.39589919   -0.3131   -0.1802    0.0166
   13         33.11628751         44.59706929          9.33678648   -0.1876   -0.2817   -0.0928
   13         36.98550975         44.74896994          9.31210684   -0.2050   -0.2234   -0.1440
   13         40.82742839         44.82827044          9.30955163   -0.3058   -0.1571   -0.1703
   13         44.91492174         44.62292472          9.26480421   -0.1922   -0.3866   -0.2312
   13         48.84348595         44.94186091          9.28138194   -0.1290   -0.1499   -0.1724
   13         52.66812282         44.96148896          9.33074121   -0.1461   -0.1687   -0.1751
   13         56.48400043         45.01414576          9.47526666   -0.2106   -0.1623   -0.0565
   13         60.37579156         44.92538596          9.29783503   -0.1735   -0.0928   -0.0043
   13         64.14227014         44.94469870          9.29696252   -0.2866    0.2037    0.1884
   13         68.13467431         44.83236947          9.24221237   -0.1691    0.2354    0.1504
   13         71.97383102         44.68582909          9.26284105   -0.2272    0.1933    0.2076
   13         76.00411304         44.76457779          9.27290611   -0.1761    0.2943    0.2461
   13          0.84293996         48.65779068          9.24582706   -0.2667    0.2474    0.1686
   13          4.90143308         48.61908636          9.25857197   -0.1244    0.1837    0.1666
   13          8.74915176         48.55287124          9.19587572   -0.2149    0.1611    0.1232
   13         12.80460677         48.64446883          9.09781156   -0.2919    0.2115    0.0973
   13         17.18478541         48.46001241          9.14857309   -0.0935    0.1476    0.1224
   13         21.01013249         48.24631097          9.13389618   -0.3631   -0.2401   -0.0561
   13         25.21867713         48.46805281          9.31637592   -0.1923   -0.3406   -0.0082
   13         29.01451105         48.55247710          9.16402902   -0.3451   -0.3091   -0.1647
   13         33.05820814         48.73914069          9.31874417   -0.2109   -0.2053   -0.1019
   13         36.92506302         48.72708008          9.38010049   -0.2711   -0.2600   -0.1130
   13         40.88661253         48.84074938          9.37950843   -0.2597   -0.1739   -0.0809
   13         44.91168634         48.95938481          9.28166239   -0.1370   -0.0878   -0.1898
   13         48.77356976         48.82395911          9.27194011   -0.0930   -0.2841   -0.2216
   13         52.60759717         48.89655927          9.38383983   -0.1100   -0.2340   -0.1331
   13         56.48834060         48.96096136          9.39502668   -0.0962   -0.1570   -0.1296
   13         60.41816740         48.76877984          9.27315540    0.0242   -0.1128   -0.0174
   13         64.10857464         48.69145003          9.27175314   -0.1499    0.1013    0.1674
   13         68.10697614         48.69294776          9.27222056   -0.0835    0.1788    0.1778
   13         71.93697903         48.54065297          9.25445870   -0.1603    0.1080    0.1940
   13         75.89695029         48.52425684          9.18334894   -0.1424    0.1702    0.0963
   13          0.85702578         52.45183853          9.33164489   -0.0096    0.0903    0.2813
   13          4.67764602         52.54446088          9.22669411   -0.1626    0.2001    0.1399
   13          8.73692037         52.49109464          9.27577293   -0.0774    0.2309    0.1608
   13         12.49235125         52.38388920          9.21120701   -0.3710    0.1270    0.0839
   13         16.81003145         52.67972892          9.24373926   -0.2656    0.3941    0.1386
   13         21.10324886         52.65103570          9.21503984   -0.1022    0.0210    0.0115
   13         25.03062939         52.83249667          9.33878079   -0.1559   -0.1155   -0.0812
   13         29.09460692         52.64031515          9.30188598   -0.0428   -0.2832   -0.1576
   13         33.08685326         52.82626930          9.29852058    0.0160   -0.1292   -0.2154
   13         37.01360249         52.76289196          9.48262070   -0.0108   -0.2244   -0.0765
   13         40.90602492         52.87175278          9.49168859   -0.0459   -0.1901   -0.0100
   13         44.88225209         52.83990646          9.34943791    0.0346   -0.2792   -0.1350
   13         48.67903296         52.88113326          9.28730256   -0.0232   -0.2227   -0.2618
   13         52.56806216         52.89043491          9.34099324    0.0041   -0.2002   -0.2507
   13         56.45448727         52.94143632          9.34576089    0.0311   -0.1304   -0.2395
   13         60.46835555         52.62770275          9.25741901    0.2178   -0.1516   -0.0898
   13         64.27989300         52.65450411          9.31301052    0.1679    0.1957    0.1967
   13         67.94220750         52.78204705          9.29771039   -0.0744    0.3401    0.2110
   13         72.00728979         52.50354939          9.31593966    0.1075    0.1184    0.2685
   13         75.78110720         52.42204172          9.16963803   -0.0286    0.1030    0.1118
   13          0.87570430         56.65634133          9.24694886    0.0951    0.2390    0.1467
   13          4.76531746         56.66280519          9.31631360    0.0378    0.3154    0.2032
   13          8.66400551         56.40630041          9.32307557   -0.0156    0.1588    0.1844
   13         12.66453764         56.41394668          9.19593805    0.0625    0.1858    0.0362
   13         16.56966493         56.43507245          9.34513767   -0.0707    0.1916    0.1935
   13         20.72099824         56.53620818          9.33064773   -0.0132   -0.0698    0.0181
   13         24.97333915         56.65610485          9.38801542    0.1858   -0.2632   -0.1873
   13         29.15994620         56.67242215          9.32843529    0.3346   -0.2107   -0.2822
   13         32.94528480         56.67360456          9.43363536    0.1500   -0.2588   -0.1476
   13         36.90683431         56.95155043          9.37062750    0.1372   -0.0384   -0.1834
   13         40.83902848         56.74904251          9.40287929    0.1092   -0.2915   -0.1267
   13         44.67842192         56.91213667          9.47517318    0.0388   -0.1520   -0.0674
   13         48.72440746         56.87090987          9.44049081    0.1797   -0.1892   -0.1482
   13         52.64413351         56.74604706          9.49390104    0.1833   -0.2672   -0.1462
   13         56.47887114         56.79712730          9.48844783    0.1143   -0.1827   -0.1589
   13         60.37618612         56.64948334          9.48071987    0.1253   -0.0670    0.0177
   13         64.18890725         56.76961649          9.47872555    0.0773    0.3464    0.2226
   13         68.11029045         56.78932337          9.33161373    0.1095    0.3577    0.1494
   13         72.07902096         56.71341246          9.27246985    0.2045    0.2775    0.1446
   13         75.91596813         56.71853625          9.38075487    0.1618    0.2991    0.2621
   13          1.16499637         60.64927104          9.44070894    0.2884    0.1811    0.1626
   13          5.01409601         60.76727585          9.34878352    0.2158    0.3604    0.1325
   13          8.96395073         60.51605251          9.31749772    0.2499    0.1911    0.1393
   13         12.84429960         60.68403398          9.31360258    0.2348    0.3678    0.1143
   13         16.73806353         60.42634679          9.39465275    0.1972    0.1179    0.1852
   13         20.81119487         60.63831401          9.50636550    0.2218    0.1013    0.0990
   13         24.89166504         60.60552176          9.45432637    0.2044   -0.1584   -0.1906
   13         28.94159619         60.73022691          9.44030384    0.2165   -0.0797   -0.2018
   13         32.95838422         60.72738912          9.40393877    0.2599   -0.1729   -0.1994
   13         36.98503628         60.78367198          9.44024152    0.3298   -0.1541   -0.1420
   13         40.79144443         60.76893123          9.47043668    0.1646   -0.1805   -0.1005
   13         44.75220481         60.92761105          9.39178592    0.1690   -0.0024   -0.1814
   13         48.73916404         60.78414494          9.35002997    0.2221   -0.1513   -0.2314
   13         52.68327395         60.65234531          9.46657270    0.2381   -0.2713   -0.1447
   13         56.50396521         60.69964183          9.46174272    0.1643   -0.2267   -0.1383
   13         60.27541526         60.65849386          9.52889502    0.0912   -0.0409    0.0784
   13         64.14945115         60.51747141          9.46398632    0.0927    0.1292    0.1383
   13         68.23126283         60.57146827          9.36411481    0.2616    0.1553    0.0996
   13         72.03120018         60.71745685          9.37399290    0.1395    0.2097    0.1432
   13         76.03575683         60.80866031          9.40901804    0.1905    0.3124    0.1329
   13          1.16265268         64.63211083          9.49533445    0.1875    0.1905    0.1289
   13          5.24550599         64.64732454          9.46080789    0.3665    0.2231    0.1812
   13          9.04854459         64.51055878          9.44092707    0.2727    0.1367    0.1725
   13         12.76972758         64.53507414          9.49383871    0.0932    0.1611    0.1848
   13         16.86377064         64.63778641          9.52733696    0.2373    0.2856    0.1885
   13         20.81806023         64.44300358          9.59947504    0.1772   -0.0019    0.0586
   13         24.99417196         64.52955621          9.56323461    0.2845   -0.1242   -0.1423
   13         28.77311867         64.45679840          9.54871351    0.0868   -0.3116   -0.1278
   13         32.96067268         64.72835924          9.39306353    0.3286   -0.0822   -0.2966
   13         36.77568225         64.67042101          9.49717296    0.1591   -0.1728   -0.1683
   13         40.82782295         64.67522949          9.40502941    0.2211   -0.1976   -0.2239
   13         44.82709248         64.63731344          9.45279947    0.2320   -0.2107   -0.1533
   13         48.75573560         64.71235725          9.43513109    0.2164   -0.1203   -0.1596
   13         52.56127572         64.64763985          9.51655520    0.0885   -0.2175   -0.1089
   13         56.60418368         64.64543268          9.45077399    0.2229   -0.2637   -0.1775
   13         60.38557667         64.49164017          9.44510266    0.1962   -0.1551   -0.0590
   13         64.29283459         64.60065864          9.41275738    0.2742    0.2492    0.0642
   13         67.92989719         64.66679494          9.45395243   -0.0063    0.2857    0.1638
   13         72.13646903         64.75358405          9.31089156    0.2328    0.2992    0.0279
   13         76.22822364         64.73679379          9.47729214    0.2963    0.2799    0.1222
   13          1.27824324         68.56497396          9.40518522    0.2654    0.2029    0.0286
   13          5.22425494         68.52587550          9.55263982    0.2803    0.0924    0.1831
   13          9.14797394         68.63308094          9.46732057    0.3079    0.2413    0.0633
   13         12.98042311         68.51988461          9.53702808    0.2405    0.1740    0.1343
   13         16.91806223         68.51491848          9.51365721    0.2401    0.1705    0.0946
   13         20.81948065         68.49016663          9.52026337    0.1331    0.1548   -0.0460
   13         24.97026157         68.46856789          9.64098170    0.2315   -0.0084   -0.0897
   13         28.97032022         68.62559233          9.49081608    0.2661   -0.0926   -0.1948
   13         32.80852998         68.55228273          9.55027157    0.1764   -0.2156   -0.0447
   13         36.70971167         68.47290340          9.48526939    0.1083   -0.2518   -0.0215
   13         40.89339897         68.51113476          9.50686408    0.2998   -0.2534    0.0080
   13         44.73176656         68.56276679          9.43740586    0.1642   -0.1897   -0.0466
   13         48.76623092         68.52051523          9.45158418    0.2801   -0.2048   -0.0236
   13         52.69369036         68.64190963          9.48131193    0.2605   -0.1466   -0.0490
   13         56.51130404         68.55614528          9.62605550    0.1148   -0.2761    0.0884
   13         60.44744382         68.54976025          9.55507039    0.2002   -0.0754    0.0986
   13         64.27073918         68.48330864          9.52861457    0.2165    0.1004    0.1957
   13         68.16008404         68.44712680          9.53138791    0.2168    0.1467    0.1956
   13         72.15872227         68.46068514          9.47252448    0.2742    0.1463    0.1177
   13         76.11301185         68.44807273          9.51552688    0.2074    0.1098    0.1282
   13          1.18471652         72.46985332          9.57660275    0.1653    0.1890    0.0214
   13          5.11571123         72.51257784          9.59838440    0.1253    0.1702    0.0313
   13          9.18703548         72.47639600          9.60025407    0.2390    0.1806    0.0313
   13         13.01853770         72.35642050          9.50745614    0.1560    0.1181   -0.0519
   13         17.04503193         72.35452864          9.45068051    0.2364    0.1112   -0.1190
   13         21.03838305         72.31929273          9.46127530    0.2370    0.0884   -0.1192
   13         25.00735030         72.41317632          9.43749934    0.2214    0.0848   -0.1956
   13         28.96968893         72.50028074          9.50982439    0.2093   -0.1286    0.0193
   13         32.91869139         72.64548105          9.38524208    0.2069   -0.0877    0.0920
   13         36.77702376         72.39102579          9.34607250    0.1514   -0.2292    0.0884
   13         40.64190584         72.40639716          9.42014258    0.0930   -0.2005    0.1304
   13         44.78108667         72.37250132          9.48399179    0.2567   -0.2318    0.2051
   13         48.77246498         72.49058496          9.46971998    0.3101   -0.1054    0.2001
   13         52.55930291         72.44510147          9.50926349    0.1689   -0.2002    0.1732
   13         56.50033525         72.57690110          9.53388080    0.1413   -0.1053    0.1809
   13         60.50284018         72.48624944          9.56039895    0.2489   -0.1380    0.2347
   13         64.35841062         72.39134110          9.47292958    0.2635   -0.0488    0.1578
   13         68.22881655         72.43824348          9.50561763    0.2712    0.1856    0.1079
   13         72.26036116         72.46449305          9.49299736    0.3362    0.2393   -0.0143
   13         76.24597889         72.48829896          9.61293666    0.2934    0.2435    0.0514
   13          1.26239768         76.39625259          9.53547002    0.2080    0.1894   -0.1666
   13          5.26878509         76.42234450          9.53684111    0.2055    0.2157   -0.1569
   13          9.13779427         76.31119769          9.52069963    0.1105    0.1398   -0.1679
   13         13.18819890         76.43188264          9.47430067    0.2354    0.3069   -0.1960
   13         17.06105111         76.21345155          9.45096096    0.1634    0.0867   -0.1912
   13         21.03420070         76.34856194          9.33622558    0.2120    0.1852   -0.2347
   13         24.98730660         76.33082574          9.39240915    0.2011    0.0768   -0.1423
   13         28.87507322         76.35802124          9.38577182    0.1107   -0.1259    0.0298
   13         32.99113278         76.45371786          9.41444008    0.2523   -0.1706    0.2390
   13         36.89752267         76.37709750          9.36081173    0.2041   -0.1932    0.1685
   13         40.76879663         76.41264872          9.42438049    0.1642   -0.0854    0.1969
   13         44.70351600         76.29204260          9.34442096    0.1666   -0.1647    0.1260
   13         48.63965578         76.45403317          9.37929030    0.1576   -0.0325    0.1778
   13         52.53586599         76.46388661          9.43051924    0.1171   -0.0941    0.1967
   13         56.41337402         76.36346034          9.46351891    0.0802   -0.2428    0.1934
   13         60.43915805         76.37930467          9.59081224    0.2091   -0.1956    0.3027
   13         64.45247394         76.34462056          9.46545090    0.3390   -0.1395    0.1542
   13         68.24570376         76.38127536          9.58252337    0.2294    0.1288    0.1285
   13         72.26706870         76.33460946          9.45663229    0.2474    0.1988   -0.1611
   13         76.37997178         76.45679213          9.53547002    0.3647    0.2541   -0.1578
